** Winkler foundation springs em dura_outer (excluindo perturbation_strip)
** Gerado automaticamente por foam_polymesh_to_ccx_inp.py
** k_winkler = 2.000e+05 Pa/m, 551 springs
*NODE, NSET=GHOST_WINKLER
   17841,  1.76847411e-03, -1.76847411e-03,  0.00000000e+00
   17842,  2.04869929e-03, -1.43451470e-03,  0.00000000e+00
   17843,  2.26667579e-03, -1.05696829e-03,  0.00000000e+00
   17844,  2.41578050e-03, -6.47306439e-04,  0.00000000e+00
   17845,  2.49148294e-03, -2.17976515e-04,  0.00000000e+00
   17846,  2.49148294e-03,  2.17976515e-04,  0.00000000e+00
   17847,  2.41578050e-03,  6.47306439e-04,  0.00000000e+00
   17848,  2.26667579e-03,  1.05696829e-03,  0.00000000e+00
   17849,  2.04869929e-03,  1.43451470e-03,  0.00000000e+00
   17850,  1.76847411e-03,  1.76847411e-03,  0.00000000e+00
   17851,  1.76847411e-03, -1.76847411e-03,  2.00000000e-03
   17852,  2.04869929e-03, -1.43451470e-03,  2.00000000e-03
   17853,  2.26667579e-03, -1.05696829e-03,  2.00000000e-03
   17854,  2.41578050e-03, -6.47306439e-04,  2.00000000e-03
   17855,  2.49148294e-03, -2.17976515e-04,  2.00000000e-03
   17856,  2.49148294e-03,  2.17976515e-04,  2.00000000e-03
   17857,  2.41578050e-03,  6.47306439e-04,  2.00000000e-03
   17858,  2.26667579e-03,  1.05696829e-03,  2.00000000e-03
   17859,  2.04869929e-03,  1.43451470e-03,  2.00000000e-03
   17860,  1.76847411e-03,  1.76847411e-03,  2.00000000e-03
   17861,  1.76847411e-03, -1.76847411e-03,  4.00000000e-03
   17862,  2.04869929e-03, -1.43451470e-03,  4.00000000e-03
   17863,  2.26667579e-03, -1.05696829e-03,  4.00000000e-03
   17864,  2.41578050e-03, -6.47306439e-04,  4.00000000e-03
   17865,  2.49148294e-03, -2.17976515e-04,  4.00000000e-03
   17866,  2.49148294e-03,  2.17976515e-04,  4.00000000e-03
   17867,  2.41578050e-03,  6.47306439e-04,  4.00000000e-03
   17868,  2.26667579e-03,  1.05696829e-03,  4.00000000e-03
   17869,  2.04869929e-03,  1.43451470e-03,  4.00000000e-03
   17870,  1.76847411e-03,  1.76847411e-03,  4.00000000e-03
   17871,  1.76847411e-03, -1.76847411e-03,  6.00000000e-03
   17872,  2.04869929e-03, -1.43451470e-03,  6.00000000e-03
   17873,  2.26667579e-03, -1.05696829e-03,  6.00000000e-03
   17874,  2.41578050e-03, -6.47306439e-04,  6.00000000e-03
   17875,  2.49148294e-03, -2.17976515e-04,  6.00000000e-03
   17876,  2.49148294e-03,  2.17976515e-04,  6.00000000e-03
   17877,  2.41578050e-03,  6.47306439e-04,  6.00000000e-03
   17878,  2.26667579e-03,  1.05696829e-03,  6.00000000e-03
   17879,  2.04869929e-03,  1.43451470e-03,  6.00000000e-03
   17880,  1.76847411e-03,  1.76847411e-03,  6.00000000e-03
   17881,  1.76847411e-03, -1.76847411e-03,  8.00000000e-03
   17882,  2.04869929e-03, -1.43451470e-03,  8.00000000e-03
   17883,  2.26667579e-03, -1.05696829e-03,  8.00000000e-03
   17884,  2.41578050e-03, -6.47306439e-04,  8.00000000e-03
   17885,  2.49148294e-03, -2.17976515e-04,  8.00000000e-03
   17886,  2.49148294e-03,  2.17976515e-04,  8.00000000e-03
   17887,  2.41578050e-03,  6.47306439e-04,  8.00000000e-03
   17888,  2.26667579e-03,  1.05696829e-03,  8.00000000e-03
   17889,  2.04869929e-03,  1.43451470e-03,  8.00000000e-03
   17890,  1.76847411e-03,  1.76847411e-03,  8.00000000e-03
   17891,  1.76847411e-03, -1.76847411e-03,  1.00000000e-02
   17892,  2.04869929e-03, -1.43451470e-03,  1.00000000e-02
   17893,  2.26667579e-03, -1.05696829e-03,  1.00000000e-02
   17894,  2.26667579e-03,  1.05696829e-03,  1.00000000e-02
   17895,  2.04869929e-03,  1.43451470e-03,  1.00000000e-02
   17896,  1.76847411e-03,  1.76847411e-03,  1.00000000e-02
   17897,  1.76847411e-03, -1.76847411e-03,  1.20000000e-02
   17898,  2.04869929e-03, -1.43451470e-03,  1.20000000e-02
   17899,  2.26667579e-03, -1.05696829e-03,  1.20000000e-02
   17900,  2.26667579e-03,  1.05696829e-03,  1.20000000e-02
   17901,  2.04869929e-03,  1.43451470e-03,  1.20000000e-02
   17902,  1.76847411e-03,  1.76847411e-03,  1.20000000e-02
   17903,  1.76847411e-03, -1.76847411e-03,  1.40000000e-02
   17904,  2.04869929e-03, -1.43451470e-03,  1.40000000e-02
   17905,  2.26667579e-03, -1.05696829e-03,  1.40000000e-02
   17906,  2.26667579e-03,  1.05696829e-03,  1.40000000e-02
   17907,  2.04869929e-03,  1.43451470e-03,  1.40000000e-02
   17908,  1.76847411e-03,  1.76847411e-03,  1.40000000e-02
   17909,  1.76847411e-03, -1.76847411e-03,  1.60000000e-02
   17910,  2.04869929e-03, -1.43451470e-03,  1.60000000e-02
   17911,  2.26667579e-03, -1.05696829e-03,  1.60000000e-02
   17912,  2.26667579e-03,  1.05696829e-03,  1.60000000e-02
   17913,  2.04869929e-03,  1.43451470e-03,  1.60000000e-02
   17914,  1.76847411e-03,  1.76847411e-03,  1.60000000e-02
   17915,  1.76847411e-03, -1.76847411e-03,  1.80000000e-02
   17916,  2.04869929e-03, -1.43451470e-03,  1.80000000e-02
   17917,  2.26667579e-03, -1.05696829e-03,  1.80000000e-02
   17918,  2.26667579e-03,  1.05696829e-03,  1.80000000e-02
   17919,  2.04869929e-03,  1.43451470e-03,  1.80000000e-02
   17920,  1.76847411e-03,  1.76847411e-03,  1.80000000e-02
   17921,  1.76847411e-03, -1.76847411e-03,  2.00000000e-02
   17922,  2.04869929e-03, -1.43451470e-03,  2.00000000e-02
   17923,  2.26667579e-03, -1.05696829e-03,  2.00000000e-02
   17924,  2.26667579e-03,  1.05696829e-03,  2.00000000e-02
   17925,  2.04869929e-03,  1.43451470e-03,  2.00000000e-02
   17926,  1.76847411e-03,  1.76847411e-03,  2.00000000e-02
   17927,  1.76847411e-03, -1.76847411e-03,  2.20000000e-02
   17928,  2.04869929e-03, -1.43451470e-03,  2.20000000e-02
   17929,  2.26667579e-03, -1.05696829e-03,  2.20000000e-02
   17930,  2.41578050e-03, -6.47306439e-04,  2.20000000e-02
   17931,  2.49148294e-03,  2.17976515e-04,  2.20000000e-02
   17932,  2.41578050e-03,  6.47306439e-04,  2.20000000e-02
   17933,  2.26667579e-03,  1.05696829e-03,  2.20000000e-02
   17934,  2.04869929e-03,  1.43451470e-03,  2.20000000e-02
   17935,  1.76847411e-03,  1.76847411e-03,  2.20000000e-02
   17936,  1.76847411e-03, -1.76847411e-03,  2.40000000e-02
   17937,  2.04869929e-03, -1.43451470e-03,  2.40000000e-02
   17938,  2.26667579e-03, -1.05696829e-03,  2.40000000e-02
   17939,  2.41578050e-03, -6.47306439e-04,  2.40000000e-02
   17940,  2.49148294e-03, -2.17976515e-04,  2.40000000e-02
   17941,  2.49148294e-03,  2.17976515e-04,  2.40000000e-02
   17942,  2.41578050e-03,  6.47306439e-04,  2.40000000e-02
   17943,  2.26667579e-03,  1.05696829e-03,  2.40000000e-02
   17944,  2.04869929e-03,  1.43451470e-03,  2.40000000e-02
   17945,  1.76847411e-03,  1.76847411e-03,  2.40000000e-02
   17946,  1.76847411e-03, -1.76847411e-03,  2.60000000e-02
   17947,  2.04869929e-03, -1.43451470e-03,  2.60000000e-02
   17948,  2.26667579e-03, -1.05696829e-03,  2.60000000e-02
   17949,  2.41578050e-03, -6.47306439e-04,  2.60000000e-02
   17950,  2.49148294e-03, -2.17976515e-04,  2.60000000e-02
   17951,  2.49148294e-03,  2.17976515e-04,  2.60000000e-02
   17952,  2.41578050e-03,  6.47306439e-04,  2.60000000e-02
   17953,  2.26667579e-03,  1.05696829e-03,  2.60000000e-02
   17954,  2.04869929e-03,  1.43451470e-03,  2.60000000e-02
   17955,  1.76847411e-03,  1.76847411e-03,  2.60000000e-02
   17956,  1.76847411e-03, -1.76847411e-03,  2.80000000e-02
   17957,  2.04869929e-03, -1.43451470e-03,  2.80000000e-02
   17958,  2.26667579e-03, -1.05696829e-03,  2.80000000e-02
   17959,  2.41578050e-03, -6.47306439e-04,  2.80000000e-02
   17960,  2.49148294e-03, -2.17976515e-04,  2.80000000e-02
   17961,  2.49148294e-03,  2.17976515e-04,  2.80000000e-02
   17962,  2.41578050e-03,  6.47306439e-04,  2.80000000e-02
   17963,  2.26667579e-03,  1.05696829e-03,  2.80000000e-02
   17964,  2.04869929e-03,  1.43451470e-03,  2.80000000e-02
   17965,  1.76847411e-03,  1.76847411e-03,  2.80000000e-02
   17966,  1.76847411e-03, -1.76847411e-03,  3.00000000e-02
   17967,  2.04869929e-03, -1.43451470e-03,  3.00000000e-02
   17968,  2.26667579e-03, -1.05696829e-03,  3.00000000e-02
   17969,  2.41578050e-03, -6.47306439e-04,  3.00000000e-02
   17970,  2.49148294e-03, -2.17976515e-04,  3.00000000e-02
   17971,  2.49148294e-03,  2.17976515e-04,  3.00000000e-02
   17972,  2.41578050e-03,  6.47306439e-04,  3.00000000e-02
   17973,  2.26667579e-03,  1.05696829e-03,  3.00000000e-02
   17974,  2.04869929e-03,  1.43451470e-03,  3.00000000e-02
   17975,  1.76847411e-03,  1.76847411e-03,  3.00000000e-02
   17976,  1.43451470e-03,  2.04869929e-03,  0.00000000e+00
   17977,  1.05696829e-03,  2.26667579e-03,  0.00000000e+00
   17978,  6.47306439e-04,  2.41578050e-03,  0.00000000e+00
   17979,  2.17976515e-04,  2.49148294e-03,  0.00000000e+00
   17980, -2.17976515e-04,  2.49148294e-03,  0.00000000e+00
   17981, -6.47306439e-04,  2.41578050e-03,  0.00000000e+00
   17982, -1.05696829e-03,  2.26667579e-03,  0.00000000e+00
   17983, -1.43451470e-03,  2.04869929e-03,  0.00000000e+00
   17984, -1.76847411e-03,  1.76847411e-03,  0.00000000e+00
   17985,  1.43451470e-03,  2.04869929e-03,  2.00000000e-03
   17986,  1.05696829e-03,  2.26667579e-03,  2.00000000e-03
   17987,  6.47306439e-04,  2.41578050e-03,  2.00000000e-03
   17988,  2.17976515e-04,  2.49148294e-03,  2.00000000e-03
   17989, -2.17976515e-04,  2.49148294e-03,  2.00000000e-03
   17990, -6.47306439e-04,  2.41578050e-03,  2.00000000e-03
   17991, -1.05696829e-03,  2.26667579e-03,  2.00000000e-03
   17992, -1.43451470e-03,  2.04869929e-03,  2.00000000e-03
   17993, -1.76847411e-03,  1.76847411e-03,  2.00000000e-03
   17994,  1.43451470e-03,  2.04869929e-03,  4.00000000e-03
   17995,  1.05696829e-03,  2.26667579e-03,  4.00000000e-03
   17996,  6.47306439e-04,  2.41578050e-03,  4.00000000e-03
   17997,  2.17976515e-04,  2.49148294e-03,  4.00000000e-03
   17998, -2.17976515e-04,  2.49148294e-03,  4.00000000e-03
   17999, -6.47306439e-04,  2.41578050e-03,  4.00000000e-03
   18000, -1.05696829e-03,  2.26667579e-03,  4.00000000e-03
   18001, -1.43451470e-03,  2.04869929e-03,  4.00000000e-03
   18002, -1.76847411e-03,  1.76847411e-03,  4.00000000e-03
   18003,  1.43451470e-03,  2.04869929e-03,  6.00000000e-03
   18004,  1.05696829e-03,  2.26667579e-03,  6.00000000e-03
   18005,  6.47306439e-04,  2.41578050e-03,  6.00000000e-03
   18006,  2.17976515e-04,  2.49148294e-03,  6.00000000e-03
   18007, -2.17976515e-04,  2.49148294e-03,  6.00000000e-03
   18008, -6.47306439e-04,  2.41578050e-03,  6.00000000e-03
   18009, -1.05696829e-03,  2.26667579e-03,  6.00000000e-03
   18010, -1.43451470e-03,  2.04869929e-03,  6.00000000e-03
   18011, -1.76847411e-03,  1.76847411e-03,  6.00000000e-03
   18012,  1.43451470e-03,  2.04869929e-03,  8.00000000e-03
   18013,  1.05696829e-03,  2.26667579e-03,  8.00000000e-03
   18014,  6.47306439e-04,  2.41578050e-03,  8.00000000e-03
   18015,  2.17976515e-04,  2.49148294e-03,  8.00000000e-03
   18016, -2.17976515e-04,  2.49148294e-03,  8.00000000e-03
   18017, -6.47306439e-04,  2.41578050e-03,  8.00000000e-03
   18018, -1.05696829e-03,  2.26667579e-03,  8.00000000e-03
   18019, -1.43451470e-03,  2.04869929e-03,  8.00000000e-03
   18020, -1.76847411e-03,  1.76847411e-03,  8.00000000e-03
   18021,  1.43451470e-03,  2.04869929e-03,  1.00000000e-02
   18022,  1.05696829e-03,  2.26667579e-03,  1.00000000e-02
   18023,  6.47306439e-04,  2.41578050e-03,  1.00000000e-02
   18024,  2.17976515e-04,  2.49148294e-03,  1.00000000e-02
   18025, -2.17976515e-04,  2.49148294e-03,  1.00000000e-02
   18026, -6.47306439e-04,  2.41578050e-03,  1.00000000e-02
   18027, -1.05696829e-03,  2.26667579e-03,  1.00000000e-02
   18028, -1.43451470e-03,  2.04869929e-03,  1.00000000e-02
   18029, -1.76847411e-03,  1.76847411e-03,  1.00000000e-02
   18030,  1.43451470e-03,  2.04869929e-03,  1.20000000e-02
   18031,  1.05696829e-03,  2.26667579e-03,  1.20000000e-02
   18032,  6.47306439e-04,  2.41578050e-03,  1.20000000e-02
   18033,  2.17976515e-04,  2.49148294e-03,  1.20000000e-02
   18034, -2.17976515e-04,  2.49148294e-03,  1.20000000e-02
   18035, -6.47306439e-04,  2.41578050e-03,  1.20000000e-02
   18036, -1.05696829e-03,  2.26667579e-03,  1.20000000e-02
   18037, -1.43451470e-03,  2.04869929e-03,  1.20000000e-02
   18038, -1.76847411e-03,  1.76847411e-03,  1.20000000e-02
   18039,  1.43451470e-03,  2.04869929e-03,  1.40000000e-02
   18040,  1.05696829e-03,  2.26667579e-03,  1.40000000e-02
   18041,  6.47306439e-04,  2.41578050e-03,  1.40000000e-02
   18042,  2.17976515e-04,  2.49148294e-03,  1.40000000e-02
   18043, -2.17976515e-04,  2.49148294e-03,  1.40000000e-02
   18044, -6.47306439e-04,  2.41578050e-03,  1.40000000e-02
   18045, -1.05696829e-03,  2.26667579e-03,  1.40000000e-02
   18046, -1.43451470e-03,  2.04869929e-03,  1.40000000e-02
   18047, -1.76847411e-03,  1.76847411e-03,  1.40000000e-02
   18048,  1.43451470e-03,  2.04869929e-03,  1.60000000e-02
   18049,  1.05696829e-03,  2.26667579e-03,  1.60000000e-02
   18050,  6.47306439e-04,  2.41578050e-03,  1.60000000e-02
   18051,  2.17976515e-04,  2.49148294e-03,  1.60000000e-02
   18052, -2.17976515e-04,  2.49148294e-03,  1.60000000e-02
   18053, -6.47306439e-04,  2.41578050e-03,  1.60000000e-02
   18054, -1.05696829e-03,  2.26667579e-03,  1.60000000e-02
   18055, -1.43451470e-03,  2.04869929e-03,  1.60000000e-02
   18056, -1.76847411e-03,  1.76847411e-03,  1.60000000e-02
   18057,  1.43451470e-03,  2.04869929e-03,  1.80000000e-02
   18058,  1.05696829e-03,  2.26667579e-03,  1.80000000e-02
   18059,  6.47306439e-04,  2.41578050e-03,  1.80000000e-02
   18060,  2.17976515e-04,  2.49148294e-03,  1.80000000e-02
   18061, -2.17976515e-04,  2.49148294e-03,  1.80000000e-02
   18062, -6.47306439e-04,  2.41578050e-03,  1.80000000e-02
   18063, -1.05696829e-03,  2.26667579e-03,  1.80000000e-02
   18064, -1.43451470e-03,  2.04869929e-03,  1.80000000e-02
   18065, -1.76847411e-03,  1.76847411e-03,  1.80000000e-02
   18066,  1.43451470e-03,  2.04869929e-03,  2.00000000e-02
   18067,  1.05696829e-03,  2.26667579e-03,  2.00000000e-02
   18068,  6.47306439e-04,  2.41578050e-03,  2.00000000e-02
   18069,  2.17976515e-04,  2.49148294e-03,  2.00000000e-02
   18070, -2.17976515e-04,  2.49148294e-03,  2.00000000e-02
   18071, -6.47306439e-04,  2.41578050e-03,  2.00000000e-02
   18072, -1.05696829e-03,  2.26667579e-03,  2.00000000e-02
   18073, -1.43451470e-03,  2.04869929e-03,  2.00000000e-02
   18074, -1.76847411e-03,  1.76847411e-03,  2.00000000e-02
   18075,  1.43451470e-03,  2.04869929e-03,  2.20000000e-02
   18076,  1.05696829e-03,  2.26667579e-03,  2.20000000e-02
   18077,  6.47306439e-04,  2.41578050e-03,  2.20000000e-02
   18078,  2.17976515e-04,  2.49148294e-03,  2.20000000e-02
   18079, -2.17976515e-04,  2.49148294e-03,  2.20000000e-02
   18080, -6.47306439e-04,  2.41578050e-03,  2.20000000e-02
   18081, -1.05696829e-03,  2.26667579e-03,  2.20000000e-02
   18082, -1.43451470e-03,  2.04869929e-03,  2.20000000e-02
   18083, -1.76847411e-03,  1.76847411e-03,  2.20000000e-02
   18084,  1.43451470e-03,  2.04869929e-03,  2.40000000e-02
   18085,  1.05696829e-03,  2.26667579e-03,  2.40000000e-02
   18086,  6.47306439e-04,  2.41578050e-03,  2.40000000e-02
   18087,  2.17976515e-04,  2.49148294e-03,  2.40000000e-02
   18088, -2.17976515e-04,  2.49148294e-03,  2.40000000e-02
   18089, -6.47306439e-04,  2.41578050e-03,  2.40000000e-02
   18090, -1.05696829e-03,  2.26667579e-03,  2.40000000e-02
   18091, -1.43451470e-03,  2.04869929e-03,  2.40000000e-02
   18092, -1.76847411e-03,  1.76847411e-03,  2.40000000e-02
   18093,  1.43451470e-03,  2.04869929e-03,  2.60000000e-02
   18094,  1.05696829e-03,  2.26667579e-03,  2.60000000e-02
   18095,  6.47306439e-04,  2.41578050e-03,  2.60000000e-02
   18096,  2.17976515e-04,  2.49148294e-03,  2.60000000e-02
   18097, -2.17976515e-04,  2.49148294e-03,  2.60000000e-02
   18098, -6.47306439e-04,  2.41578050e-03,  2.60000000e-02
   18099, -1.05696829e-03,  2.26667579e-03,  2.60000000e-02
   18100, -1.43451470e-03,  2.04869929e-03,  2.60000000e-02
   18101, -1.76847411e-03,  1.76847411e-03,  2.60000000e-02
   18102,  1.43451470e-03,  2.04869929e-03,  2.80000000e-02
   18103,  1.05696829e-03,  2.26667579e-03,  2.80000000e-02
   18104,  6.47306439e-04,  2.41578050e-03,  2.80000000e-02
   18105,  2.17976515e-04,  2.49148294e-03,  2.80000000e-02
   18106, -2.17976515e-04,  2.49148294e-03,  2.80000000e-02
   18107, -6.47306439e-04,  2.41578050e-03,  2.80000000e-02
   18108, -1.05696829e-03,  2.26667579e-03,  2.80000000e-02
   18109, -1.43451470e-03,  2.04869929e-03,  2.80000000e-02
   18110, -1.76847411e-03,  1.76847411e-03,  2.80000000e-02
   18111,  1.43451470e-03,  2.04869929e-03,  3.00000000e-02
   18112,  1.05696829e-03,  2.26667579e-03,  3.00000000e-02
   18113,  6.47306439e-04,  2.41578050e-03,  3.00000000e-02
   18114,  2.17976515e-04,  2.49148294e-03,  3.00000000e-02
   18115, -2.17976515e-04,  2.49148294e-03,  3.00000000e-02
   18116, -6.47306439e-04,  2.41578050e-03,  3.00000000e-02
   18117, -1.05696829e-03,  2.26667579e-03,  3.00000000e-02
   18118, -1.43451470e-03,  2.04869929e-03,  3.00000000e-02
   18119, -1.76847411e-03,  1.76847411e-03,  3.00000000e-02
   18120, -2.04869929e-03,  1.43451470e-03,  0.00000000e+00
   18121, -2.26667579e-03,  1.05696829e-03,  0.00000000e+00
   18122, -2.41578050e-03,  6.47306439e-04,  0.00000000e+00
   18123, -2.49148294e-03,  2.17976515e-04,  0.00000000e+00
   18124, -2.49148294e-03, -2.17976515e-04,  0.00000000e+00
   18125, -2.41578050e-03, -6.47306439e-04,  0.00000000e+00
   18126, -2.26667579e-03, -1.05696829e-03,  0.00000000e+00
   18127, -2.04869929e-03, -1.43451470e-03,  0.00000000e+00
   18128, -1.76847411e-03, -1.76847411e-03,  0.00000000e+00
   18129, -2.04869929e-03,  1.43451470e-03,  2.00000000e-03
   18130, -2.26667579e-03,  1.05696829e-03,  2.00000000e-03
   18131, -2.41578050e-03,  6.47306439e-04,  2.00000000e-03
   18132, -2.49148294e-03,  2.17976515e-04,  2.00000000e-03
   18133, -2.49148294e-03, -2.17976515e-04,  2.00000000e-03
   18134, -2.41578050e-03, -6.47306439e-04,  2.00000000e-03
   18135, -2.26667579e-03, -1.05696829e-03,  2.00000000e-03
   18136, -2.04869929e-03, -1.43451470e-03,  2.00000000e-03
   18137, -1.76847411e-03, -1.76847411e-03,  2.00000000e-03
   18138, -2.04869929e-03,  1.43451470e-03,  4.00000000e-03
   18139, -2.26667579e-03,  1.05696829e-03,  4.00000000e-03
   18140, -2.41578050e-03,  6.47306439e-04,  4.00000000e-03
   18141, -2.49148294e-03,  2.17976515e-04,  4.00000000e-03
   18142, -2.49148294e-03, -2.17976515e-04,  4.00000000e-03
   18143, -2.41578050e-03, -6.47306439e-04,  4.00000000e-03
   18144, -2.26667579e-03, -1.05696829e-03,  4.00000000e-03
   18145, -2.04869929e-03, -1.43451470e-03,  4.00000000e-03
   18146, -1.76847411e-03, -1.76847411e-03,  4.00000000e-03
   18147, -2.04869929e-03,  1.43451470e-03,  6.00000000e-03
   18148, -2.26667579e-03,  1.05696829e-03,  6.00000000e-03
   18149, -2.41578050e-03,  6.47306439e-04,  6.00000000e-03
   18150, -2.49148294e-03,  2.17976515e-04,  6.00000000e-03
   18151, -2.49148294e-03, -2.17976515e-04,  6.00000000e-03
   18152, -2.41578050e-03, -6.47306439e-04,  6.00000000e-03
   18153, -2.26667579e-03, -1.05696829e-03,  6.00000000e-03
   18154, -2.04869929e-03, -1.43451470e-03,  6.00000000e-03
   18155, -1.76847411e-03, -1.76847411e-03,  6.00000000e-03
   18156, -2.04869929e-03,  1.43451470e-03,  8.00000000e-03
   18157, -2.26667579e-03,  1.05696829e-03,  8.00000000e-03
   18158, -2.41578050e-03,  6.47306439e-04,  8.00000000e-03
   18159, -2.49148294e-03,  2.17976515e-04,  8.00000000e-03
   18160, -2.49148294e-03, -2.17976515e-04,  8.00000000e-03
   18161, -2.41578050e-03, -6.47306439e-04,  8.00000000e-03
   18162, -2.26667579e-03, -1.05696829e-03,  8.00000000e-03
   18163, -2.04869929e-03, -1.43451470e-03,  8.00000000e-03
   18164, -1.76847411e-03, -1.76847411e-03,  8.00000000e-03
   18165, -2.04869929e-03,  1.43451470e-03,  1.00000000e-02
   18166, -2.26667579e-03,  1.05696829e-03,  1.00000000e-02
   18167, -2.41578050e-03,  6.47306439e-04,  1.00000000e-02
   18168, -2.49148294e-03,  2.17976515e-04,  1.00000000e-02
   18169, -2.49148294e-03, -2.17976515e-04,  1.00000000e-02
   18170, -2.41578050e-03, -6.47306439e-04,  1.00000000e-02
   18171, -2.26667579e-03, -1.05696829e-03,  1.00000000e-02
   18172, -2.04869929e-03, -1.43451470e-03,  1.00000000e-02
   18173, -1.76847411e-03, -1.76847411e-03,  1.00000000e-02
   18174, -2.04869929e-03,  1.43451470e-03,  1.20000000e-02
   18175, -2.26667579e-03,  1.05696829e-03,  1.20000000e-02
   18176, -2.41578050e-03,  6.47306439e-04,  1.20000000e-02
   18177, -2.49148294e-03,  2.17976515e-04,  1.20000000e-02
   18178, -2.49148294e-03, -2.17976515e-04,  1.20000000e-02
   18179, -2.41578050e-03, -6.47306439e-04,  1.20000000e-02
   18180, -2.26667579e-03, -1.05696829e-03,  1.20000000e-02
   18181, -2.04869929e-03, -1.43451470e-03,  1.20000000e-02
   18182, -1.76847411e-03, -1.76847411e-03,  1.20000000e-02
   18183, -2.04869929e-03,  1.43451470e-03,  1.40000000e-02
   18184, -2.26667579e-03,  1.05696829e-03,  1.40000000e-02
   18185, -2.41578050e-03,  6.47306439e-04,  1.40000000e-02
   18186, -2.49148294e-03,  2.17976515e-04,  1.40000000e-02
   18187, -2.49148294e-03, -2.17976515e-04,  1.40000000e-02
   18188, -2.41578050e-03, -6.47306439e-04,  1.40000000e-02
   18189, -2.26667579e-03, -1.05696829e-03,  1.40000000e-02
   18190, -2.04869929e-03, -1.43451470e-03,  1.40000000e-02
   18191, -1.76847411e-03, -1.76847411e-03,  1.40000000e-02
   18192, -2.04869929e-03,  1.43451470e-03,  1.60000000e-02
   18193, -2.26667579e-03,  1.05696829e-03,  1.60000000e-02
   18194, -2.41578050e-03,  6.47306439e-04,  1.60000000e-02
   18195, -2.49148294e-03,  2.17976515e-04,  1.60000000e-02
   18196, -2.49148294e-03, -2.17976515e-04,  1.60000000e-02
   18197, -2.41578050e-03, -6.47306439e-04,  1.60000000e-02
   18198, -2.26667579e-03, -1.05696829e-03,  1.60000000e-02
   18199, -2.04869929e-03, -1.43451470e-03,  1.60000000e-02
   18200, -1.76847411e-03, -1.76847411e-03,  1.60000000e-02
   18201, -2.04869929e-03,  1.43451470e-03,  1.80000000e-02
   18202, -2.26667579e-03,  1.05696829e-03,  1.80000000e-02
   18203, -2.41578050e-03,  6.47306439e-04,  1.80000000e-02
   18204, -2.49148294e-03,  2.17976515e-04,  1.80000000e-02
   18205, -2.49148294e-03, -2.17976515e-04,  1.80000000e-02
   18206, -2.41578050e-03, -6.47306439e-04,  1.80000000e-02
   18207, -2.26667579e-03, -1.05696829e-03,  1.80000000e-02
   18208, -2.04869929e-03, -1.43451470e-03,  1.80000000e-02
   18209, -1.76847411e-03, -1.76847411e-03,  1.80000000e-02
   18210, -2.04869929e-03,  1.43451470e-03,  2.00000000e-02
   18211, -2.26667579e-03,  1.05696829e-03,  2.00000000e-02
   18212, -2.41578050e-03,  6.47306439e-04,  2.00000000e-02
   18213, -2.49148294e-03,  2.17976515e-04,  2.00000000e-02
   18214, -2.49148294e-03, -2.17976515e-04,  2.00000000e-02
   18215, -2.41578050e-03, -6.47306439e-04,  2.00000000e-02
   18216, -2.26667579e-03, -1.05696829e-03,  2.00000000e-02
   18217, -2.04869929e-03, -1.43451470e-03,  2.00000000e-02
   18218, -1.76847411e-03, -1.76847411e-03,  2.00000000e-02
   18219, -2.04869929e-03,  1.43451470e-03,  2.20000000e-02
   18220, -2.26667579e-03,  1.05696829e-03,  2.20000000e-02
   18221, -2.41578050e-03,  6.47306439e-04,  2.20000000e-02
   18222, -2.49148294e-03,  2.17976515e-04,  2.20000000e-02
   18223, -2.49148294e-03, -2.17976515e-04,  2.20000000e-02
   18224, -2.41578050e-03, -6.47306439e-04,  2.20000000e-02
   18225, -2.26667579e-03, -1.05696829e-03,  2.20000000e-02
   18226, -2.04869929e-03, -1.43451470e-03,  2.20000000e-02
   18227, -1.76847411e-03, -1.76847411e-03,  2.20000000e-02
   18228, -2.04869929e-03,  1.43451470e-03,  2.40000000e-02
   18229, -2.26667579e-03,  1.05696829e-03,  2.40000000e-02
   18230, -2.41578050e-03,  6.47306439e-04,  2.40000000e-02
   18231, -2.49148294e-03,  2.17976515e-04,  2.40000000e-02
   18232, -2.49148294e-03, -2.17976515e-04,  2.40000000e-02
   18233, -2.41578050e-03, -6.47306439e-04,  2.40000000e-02
   18234, -2.26667579e-03, -1.05696829e-03,  2.40000000e-02
   18235, -2.04869929e-03, -1.43451470e-03,  2.40000000e-02
   18236, -1.76847411e-03, -1.76847411e-03,  2.40000000e-02
   18237, -2.04869929e-03,  1.43451470e-03,  2.60000000e-02
   18238, -2.26667579e-03,  1.05696829e-03,  2.60000000e-02
   18239, -2.41578050e-03,  6.47306439e-04,  2.60000000e-02
   18240, -2.49148294e-03,  2.17976515e-04,  2.60000000e-02
   18241, -2.49148294e-03, -2.17976515e-04,  2.60000000e-02
   18242, -2.41578050e-03, -6.47306439e-04,  2.60000000e-02
   18243, -2.26667579e-03, -1.05696829e-03,  2.60000000e-02
   18244, -2.04869929e-03, -1.43451470e-03,  2.60000000e-02
   18245, -1.76847411e-03, -1.76847411e-03,  2.60000000e-02
   18246, -2.04869929e-03,  1.43451470e-03,  2.80000000e-02
   18247, -2.26667579e-03,  1.05696829e-03,  2.80000000e-02
   18248, -2.41578050e-03,  6.47306439e-04,  2.80000000e-02
   18249, -2.49148294e-03,  2.17976515e-04,  2.80000000e-02
   18250, -2.49148294e-03, -2.17976515e-04,  2.80000000e-02
   18251, -2.41578050e-03, -6.47306439e-04,  2.80000000e-02
   18252, -2.26667579e-03, -1.05696829e-03,  2.80000000e-02
   18253, -2.04869929e-03, -1.43451470e-03,  2.80000000e-02
   18254, -1.76847411e-03, -1.76847411e-03,  2.80000000e-02
   18255, -2.04869929e-03,  1.43451470e-03,  3.00000000e-02
   18256, -2.26667579e-03,  1.05696829e-03,  3.00000000e-02
   18257, -2.41578050e-03,  6.47306439e-04,  3.00000000e-02
   18258, -2.49148294e-03,  2.17976515e-04,  3.00000000e-02
   18259, -2.49148294e-03, -2.17976515e-04,  3.00000000e-02
   18260, -2.41578050e-03, -6.47306439e-04,  3.00000000e-02
   18261, -2.26667579e-03, -1.05696829e-03,  3.00000000e-02
   18262, -2.04869929e-03, -1.43451470e-03,  3.00000000e-02
   18263, -1.76847411e-03, -1.76847411e-03,  3.00000000e-02
   18264, -1.43451470e-03, -2.04869929e-03,  0.00000000e+00
   18265, -1.05696829e-03, -2.26667579e-03,  0.00000000e+00
   18266, -6.47306439e-04, -2.41578050e-03,  0.00000000e+00
   18267, -2.17976515e-04, -2.49148294e-03,  0.00000000e+00
   18268,  2.17976515e-04, -2.49148294e-03,  0.00000000e+00
   18269,  6.47306439e-04, -2.41578050e-03,  0.00000000e+00
   18270,  1.05696829e-03, -2.26667579e-03,  0.00000000e+00
   18271,  1.43451470e-03, -2.04869929e-03,  0.00000000e+00
   18272, -1.43451470e-03, -2.04869929e-03,  2.00000000e-03
   18273, -1.05696829e-03, -2.26667579e-03,  2.00000000e-03
   18274, -6.47306439e-04, -2.41578050e-03,  2.00000000e-03
   18275, -2.17976515e-04, -2.49148294e-03,  2.00000000e-03
   18276,  2.17976515e-04, -2.49148294e-03,  2.00000000e-03
   18277,  6.47306439e-04, -2.41578050e-03,  2.00000000e-03
   18278,  1.05696829e-03, -2.26667579e-03,  2.00000000e-03
   18279,  1.43451470e-03, -2.04869929e-03,  2.00000000e-03
   18280, -1.43451470e-03, -2.04869929e-03,  4.00000000e-03
   18281, -1.05696829e-03, -2.26667579e-03,  4.00000000e-03
   18282, -6.47306439e-04, -2.41578050e-03,  4.00000000e-03
   18283, -2.17976515e-04, -2.49148294e-03,  4.00000000e-03
   18284,  2.17976515e-04, -2.49148294e-03,  4.00000000e-03
   18285,  6.47306439e-04, -2.41578050e-03,  4.00000000e-03
   18286,  1.05696829e-03, -2.26667579e-03,  4.00000000e-03
   18287,  1.43451470e-03, -2.04869929e-03,  4.00000000e-03
   18288, -1.43451470e-03, -2.04869929e-03,  6.00000000e-03
   18289, -1.05696829e-03, -2.26667579e-03,  6.00000000e-03
   18290, -6.47306439e-04, -2.41578050e-03,  6.00000000e-03
   18291, -2.17976515e-04, -2.49148294e-03,  6.00000000e-03
   18292,  2.17976515e-04, -2.49148294e-03,  6.00000000e-03
   18293,  6.47306439e-04, -2.41578050e-03,  6.00000000e-03
   18294,  1.05696829e-03, -2.26667579e-03,  6.00000000e-03
   18295,  1.43451470e-03, -2.04869929e-03,  6.00000000e-03
   18296, -1.43451470e-03, -2.04869929e-03,  8.00000000e-03
   18297, -1.05696829e-03, -2.26667579e-03,  8.00000000e-03
   18298, -6.47306439e-04, -2.41578050e-03,  8.00000000e-03
   18299, -2.17976515e-04, -2.49148294e-03,  8.00000000e-03
   18300,  2.17976515e-04, -2.49148294e-03,  8.00000000e-03
   18301,  6.47306439e-04, -2.41578050e-03,  8.00000000e-03
   18302,  1.05696829e-03, -2.26667579e-03,  8.00000000e-03
   18303,  1.43451470e-03, -2.04869929e-03,  8.00000000e-03
   18304, -1.43451470e-03, -2.04869929e-03,  1.00000000e-02
   18305, -1.05696829e-03, -2.26667579e-03,  1.00000000e-02
   18306, -6.47306439e-04, -2.41578050e-03,  1.00000000e-02
   18307, -2.17976515e-04, -2.49148294e-03,  1.00000000e-02
   18308,  2.17976515e-04, -2.49148294e-03,  1.00000000e-02
   18309,  6.47306439e-04, -2.41578050e-03,  1.00000000e-02
   18310,  1.05696829e-03, -2.26667579e-03,  1.00000000e-02
   18311,  1.43451470e-03, -2.04869929e-03,  1.00000000e-02
   18312, -1.43451470e-03, -2.04869929e-03,  1.20000000e-02
   18313, -1.05696829e-03, -2.26667579e-03,  1.20000000e-02
   18314, -6.47306439e-04, -2.41578050e-03,  1.20000000e-02
   18315, -2.17976515e-04, -2.49148294e-03,  1.20000000e-02
   18316,  2.17976515e-04, -2.49148294e-03,  1.20000000e-02
   18317,  6.47306439e-04, -2.41578050e-03,  1.20000000e-02
   18318,  1.05696829e-03, -2.26667579e-03,  1.20000000e-02
   18319,  1.43451470e-03, -2.04869929e-03,  1.20000000e-02
   18320, -1.43451470e-03, -2.04869929e-03,  1.40000000e-02
   18321, -1.05696829e-03, -2.26667579e-03,  1.40000000e-02
   18322, -6.47306439e-04, -2.41578050e-03,  1.40000000e-02
   18323, -2.17976515e-04, -2.49148294e-03,  1.40000000e-02
   18324,  2.17976515e-04, -2.49148294e-03,  1.40000000e-02
   18325,  6.47306439e-04, -2.41578050e-03,  1.40000000e-02
   18326,  1.05696829e-03, -2.26667579e-03,  1.40000000e-02
   18327,  1.43451470e-03, -2.04869929e-03,  1.40000000e-02
   18328, -1.43451470e-03, -2.04869929e-03,  1.60000000e-02
   18329, -1.05696829e-03, -2.26667579e-03,  1.60000000e-02
   18330, -6.47306439e-04, -2.41578050e-03,  1.60000000e-02
   18331, -2.17976515e-04, -2.49148294e-03,  1.60000000e-02
   18332,  2.17976515e-04, -2.49148294e-03,  1.60000000e-02
   18333,  6.47306439e-04, -2.41578050e-03,  1.60000000e-02
   18334,  1.05696829e-03, -2.26667579e-03,  1.60000000e-02
   18335,  1.43451470e-03, -2.04869929e-03,  1.60000000e-02
   18336, -1.43451470e-03, -2.04869929e-03,  1.80000000e-02
   18337, -1.05696829e-03, -2.26667579e-03,  1.80000000e-02
   18338, -6.47306439e-04, -2.41578050e-03,  1.80000000e-02
   18339, -2.17976515e-04, -2.49148294e-03,  1.80000000e-02
   18340,  2.17976515e-04, -2.49148294e-03,  1.80000000e-02
   18341,  6.47306439e-04, -2.41578050e-03,  1.80000000e-02
   18342,  1.05696829e-03, -2.26667579e-03,  1.80000000e-02
   18343,  1.43451470e-03, -2.04869929e-03,  1.80000000e-02
   18344, -1.43451470e-03, -2.04869929e-03,  2.00000000e-02
   18345, -1.05696829e-03, -2.26667579e-03,  2.00000000e-02
   18346, -6.47306439e-04, -2.41578050e-03,  2.00000000e-02
   18347, -2.17976515e-04, -2.49148294e-03,  2.00000000e-02
   18348,  2.17976515e-04, -2.49148294e-03,  2.00000000e-02
   18349,  6.47306439e-04, -2.41578050e-03,  2.00000000e-02
   18350,  1.05696829e-03, -2.26667579e-03,  2.00000000e-02
   18351,  1.43451470e-03, -2.04869929e-03,  2.00000000e-02
   18352, -1.43451470e-03, -2.04869929e-03,  2.20000000e-02
   18353, -1.05696829e-03, -2.26667579e-03,  2.20000000e-02
   18354, -6.47306439e-04, -2.41578050e-03,  2.20000000e-02
   18355, -2.17976515e-04, -2.49148294e-03,  2.20000000e-02
   18356,  2.17976515e-04, -2.49148294e-03,  2.20000000e-02
   18357,  6.47306439e-04, -2.41578050e-03,  2.20000000e-02
   18358,  1.05696829e-03, -2.26667579e-03,  2.20000000e-02
   18359,  1.43451470e-03, -2.04869929e-03,  2.20000000e-02
   18360, -1.43451470e-03, -2.04869929e-03,  2.40000000e-02
   18361, -1.05696829e-03, -2.26667579e-03,  2.40000000e-02
   18362, -6.47306439e-04, -2.41578050e-03,  2.40000000e-02
   18363, -2.17976515e-04, -2.49148294e-03,  2.40000000e-02
   18364,  2.17976515e-04, -2.49148294e-03,  2.40000000e-02
   18365,  6.47306439e-04, -2.41578050e-03,  2.40000000e-02
   18366,  1.05696829e-03, -2.26667579e-03,  2.40000000e-02
   18367,  1.43451470e-03, -2.04869929e-03,  2.40000000e-02
   18368, -1.43451470e-03, -2.04869929e-03,  2.60000000e-02
   18369, -1.05696829e-03, -2.26667579e-03,  2.60000000e-02
   18370, -6.47306439e-04, -2.41578050e-03,  2.60000000e-02
   18371, -2.17976515e-04, -2.49148294e-03,  2.60000000e-02
   18372,  2.17976515e-04, -2.49148294e-03,  2.60000000e-02
   18373,  6.47306439e-04, -2.41578050e-03,  2.60000000e-02
   18374,  1.05696829e-03, -2.26667579e-03,  2.60000000e-02
   18375,  1.43451470e-03, -2.04869929e-03,  2.60000000e-02
   18376, -1.43451470e-03, -2.04869929e-03,  2.80000000e-02
   18377, -1.05696829e-03, -2.26667579e-03,  2.80000000e-02
   18378, -6.47306439e-04, -2.41578050e-03,  2.80000000e-02
   18379, -2.17976515e-04, -2.49148294e-03,  2.80000000e-02
   18380,  2.17976515e-04, -2.49148294e-03,  2.80000000e-02
   18381,  6.47306439e-04, -2.41578050e-03,  2.80000000e-02
   18382,  1.05696829e-03, -2.26667579e-03,  2.80000000e-02
   18383,  1.43451470e-03, -2.04869929e-03,  2.80000000e-02
   18384, -1.43451470e-03, -2.04869929e-03,  3.00000000e-02
   18385, -1.05696829e-03, -2.26667579e-03,  3.00000000e-02
   18386, -6.47306439e-04, -2.41578050e-03,  3.00000000e-02
   18387, -2.17976515e-04, -2.49148294e-03,  3.00000000e-02
   18388,  2.17976515e-04, -2.49148294e-03,  3.00000000e-02
   18389,  6.47306439e-04, -2.41578050e-03,  3.00000000e-02
   18390,  1.05696829e-03, -2.26667579e-03,  3.00000000e-02
   18391,  1.43451470e-03, -2.04869929e-03,  3.00000000e-02
*ELEMENT, TYPE=SPRINGA, ELSET=WK_0
   16588,    12547,    17841
*SPRING, ELSET=WK_0

8.715574e-02
*ELEMENT, TYPE=SPRINGA, ELSET=WK_1
   16589,    12550,    17842
*SPRING, ELSET=WK_1

8.715574e-02
*ELEMENT, TYPE=SPRINGA, ELSET=WK_2
   16590,    12553,    17843
*SPRING, ELSET=WK_2

8.715574e-02
*ELEMENT, TYPE=SPRINGA, ELSET=WK_3
   16591,    12556,    17844
*SPRING, ELSET=WK_3

8.715574e-02
*ELEMENT, TYPE=SPRINGA, ELSET=WK_4
   16592,    12559,    17845
*SPRING, ELSET=WK_4

8.715574e-02
*ELEMENT, TYPE=SPRINGA, ELSET=WK_5
   16593,    12562,    17846
*SPRING, ELSET=WK_5

8.715574e-02
*ELEMENT, TYPE=SPRINGA, ELSET=WK_6
   16594,    12565,    17847
*SPRING, ELSET=WK_6

8.715574e-02
*ELEMENT, TYPE=SPRINGA, ELSET=WK_7
   16595,    12568,    17848
*SPRING, ELSET=WK_7

8.715574e-02
*ELEMENT, TYPE=SPRINGA, ELSET=WK_8
   16596,    12571,    17849
*SPRING, ELSET=WK_8

8.715574e-02
*ELEMENT, TYPE=SPRINGA, ELSET=WK_9
   16597,    12574,    17850
*SPRING, ELSET=WK_9

8.715574e-02
*ELEMENT, TYPE=SPRINGA, ELSET=WK_10
   16598,    12577,    17851
*SPRING, ELSET=WK_10

1.743115e-01
*ELEMENT, TYPE=SPRINGA, ELSET=WK_11
   16599,    12580,    17852
*SPRING, ELSET=WK_11

1.743115e-01
*ELEMENT, TYPE=SPRINGA, ELSET=WK_12
   16600,    12583,    17853
*SPRING, ELSET=WK_12

1.743115e-01
*ELEMENT, TYPE=SPRINGA, ELSET=WK_13
   16601,    12586,    17854
*SPRING, ELSET=WK_13

1.743115e-01
*ELEMENT, TYPE=SPRINGA, ELSET=WK_14
   16602,    12589,    17855
*SPRING, ELSET=WK_14

1.743115e-01
*ELEMENT, TYPE=SPRINGA, ELSET=WK_15
   16603,    12592,    17856
*SPRING, ELSET=WK_15

1.743115e-01
*ELEMENT, TYPE=SPRINGA, ELSET=WK_16
   16604,    12595,    17857
*SPRING, ELSET=WK_16

1.743115e-01
*ELEMENT, TYPE=SPRINGA, ELSET=WK_17
   16605,    12598,    17858
*SPRING, ELSET=WK_17

1.743115e-01
*ELEMENT, TYPE=SPRINGA, ELSET=WK_18
   16606,    12601,    17859
*SPRING, ELSET=WK_18

1.743115e-01
*ELEMENT, TYPE=SPRINGA, ELSET=WK_19
   16607,    12604,    17860
*SPRING, ELSET=WK_19

1.743115e-01
*ELEMENT, TYPE=SPRINGA, ELSET=WK_20
   16608,    12607,    17861
*SPRING, ELSET=WK_20

1.743115e-01
*ELEMENT, TYPE=SPRINGA, ELSET=WK_21
   16609,    12610,    17862
*SPRING, ELSET=WK_21

1.743115e-01
*ELEMENT, TYPE=SPRINGA, ELSET=WK_22
   16610,    12613,    17863
*SPRING, ELSET=WK_22

1.743115e-01
*ELEMENT, TYPE=SPRINGA, ELSET=WK_23
   16611,    12616,    17864
*SPRING, ELSET=WK_23

1.743115e-01
*ELEMENT, TYPE=SPRINGA, ELSET=WK_24
   16612,    12619,    17865
*SPRING, ELSET=WK_24

1.743115e-01
*ELEMENT, TYPE=SPRINGA, ELSET=WK_25
   16613,    12622,    17866
*SPRING, ELSET=WK_25

1.743115e-01
*ELEMENT, TYPE=SPRINGA, ELSET=WK_26
   16614,    12625,    17867
*SPRING, ELSET=WK_26

1.743115e-01
*ELEMENT, TYPE=SPRINGA, ELSET=WK_27
   16615,    12628,    17868
*SPRING, ELSET=WK_27

1.743115e-01
*ELEMENT, TYPE=SPRINGA, ELSET=WK_28
   16616,    12631,    17869
*SPRING, ELSET=WK_28

1.743115e-01
*ELEMENT, TYPE=SPRINGA, ELSET=WK_29
   16617,    12634,    17870
*SPRING, ELSET=WK_29

1.743115e-01
*ELEMENT, TYPE=SPRINGA, ELSET=WK_30
   16618,    12637,    17871
*SPRING, ELSET=WK_30

1.743115e-01
*ELEMENT, TYPE=SPRINGA, ELSET=WK_31
   16619,    12640,    17872
*SPRING, ELSET=WK_31

1.743115e-01
*ELEMENT, TYPE=SPRINGA, ELSET=WK_32
   16620,    12643,    17873
*SPRING, ELSET=WK_32

1.743115e-01
*ELEMENT, TYPE=SPRINGA, ELSET=WK_33
   16621,    12646,    17874
*SPRING, ELSET=WK_33

1.743115e-01
*ELEMENT, TYPE=SPRINGA, ELSET=WK_34
   16622,    12649,    17875
*SPRING, ELSET=WK_34

1.743115e-01
*ELEMENT, TYPE=SPRINGA, ELSET=WK_35
   16623,    12652,    17876
*SPRING, ELSET=WK_35

1.743115e-01
*ELEMENT, TYPE=SPRINGA, ELSET=WK_36
   16624,    12655,    17877
*SPRING, ELSET=WK_36

1.743115e-01
*ELEMENT, TYPE=SPRINGA, ELSET=WK_37
   16625,    12658,    17878
*SPRING, ELSET=WK_37

1.743115e-01
*ELEMENT, TYPE=SPRINGA, ELSET=WK_38
   16626,    12661,    17879
*SPRING, ELSET=WK_38

1.743115e-01
*ELEMENT, TYPE=SPRINGA, ELSET=WK_39
   16627,    12664,    17880
*SPRING, ELSET=WK_39

1.743115e-01
*ELEMENT, TYPE=SPRINGA, ELSET=WK_40
   16628,    12667,    17881
*SPRING, ELSET=WK_40

1.743115e-01
*ELEMENT, TYPE=SPRINGA, ELSET=WK_41
   16629,    12670,    17882
*SPRING, ELSET=WK_41

1.743115e-01
*ELEMENT, TYPE=SPRINGA, ELSET=WK_42
   16630,    12673,    17883
*SPRING, ELSET=WK_42

1.743115e-01
*ELEMENT, TYPE=SPRINGA, ELSET=WK_43
   16631,    12676,    17884
*SPRING, ELSET=WK_43

1.743115e-01
*ELEMENT, TYPE=SPRINGA, ELSET=WK_44
   16632,    12679,    17885
*SPRING, ELSET=WK_44

1.743115e-01
*ELEMENT, TYPE=SPRINGA, ELSET=WK_45
   16633,    12682,    17886
*SPRING, ELSET=WK_45

1.743115e-01
*ELEMENT, TYPE=SPRINGA, ELSET=WK_46
   16634,    12685,    17887
*SPRING, ELSET=WK_46

1.743115e-01
*ELEMENT, TYPE=SPRINGA, ELSET=WK_47
   16635,    12688,    17888
*SPRING, ELSET=WK_47

1.743115e-01
*ELEMENT, TYPE=SPRINGA, ELSET=WK_48
   16636,    12691,    17889
*SPRING, ELSET=WK_48

1.743115e-01
*ELEMENT, TYPE=SPRINGA, ELSET=WK_49
   16637,    12694,    17890
*SPRING, ELSET=WK_49

1.743115e-01
*ELEMENT, TYPE=SPRINGA, ELSET=WK_50
   16638,    12697,    17891
*SPRING, ELSET=WK_50

1.743115e-01
*ELEMENT, TYPE=SPRINGA, ELSET=WK_51
   16639,    12700,    17892
*SPRING, ELSET=WK_51

1.743115e-01
*ELEMENT, TYPE=SPRINGA, ELSET=WK_52
   16640,    12703,    17893
*SPRING, ELSET=WK_52

1.743115e-01
*ELEMENT, TYPE=SPRINGA, ELSET=WK_53
   16641,    12718,    17894
*SPRING, ELSET=WK_53

1.743115e-01
*ELEMENT, TYPE=SPRINGA, ELSET=WK_54
   16642,    12721,    17895
*SPRING, ELSET=WK_54

1.743115e-01
*ELEMENT, TYPE=SPRINGA, ELSET=WK_55
   16643,    12724,    17896
*SPRING, ELSET=WK_55

1.743115e-01
*ELEMENT, TYPE=SPRINGA, ELSET=WK_56
   16644,    12727,    17897
*SPRING, ELSET=WK_56

1.743115e-01
*ELEMENT, TYPE=SPRINGA, ELSET=WK_57
   16645,    12730,    17898
*SPRING, ELSET=WK_57

1.743115e-01
*ELEMENT, TYPE=SPRINGA, ELSET=WK_58
   16646,    12733,    17899
*SPRING, ELSET=WK_58

1.743115e-01
*ELEMENT, TYPE=SPRINGA, ELSET=WK_59
   16647,    12748,    17900
*SPRING, ELSET=WK_59

1.743115e-01
*ELEMENT, TYPE=SPRINGA, ELSET=WK_60
   16648,    12751,    17901
*SPRING, ELSET=WK_60

1.743115e-01
*ELEMENT, TYPE=SPRINGA, ELSET=WK_61
   16649,    12754,    17902
*SPRING, ELSET=WK_61

1.743115e-01
*ELEMENT, TYPE=SPRINGA, ELSET=WK_62
   16650,    12757,    17903
*SPRING, ELSET=WK_62

1.743115e-01
*ELEMENT, TYPE=SPRINGA, ELSET=WK_63
   16651,    12760,    17904
*SPRING, ELSET=WK_63

1.743115e-01
*ELEMENT, TYPE=SPRINGA, ELSET=WK_64
   16652,    12763,    17905
*SPRING, ELSET=WK_64

1.743115e-01
*ELEMENT, TYPE=SPRINGA, ELSET=WK_65
   16653,    12778,    17906
*SPRING, ELSET=WK_65

1.743115e-01
*ELEMENT, TYPE=SPRINGA, ELSET=WK_66
   16654,    12781,    17907
*SPRING, ELSET=WK_66

1.743115e-01
*ELEMENT, TYPE=SPRINGA, ELSET=WK_67
   16655,    12784,    17908
*SPRING, ELSET=WK_67

1.743115e-01
*ELEMENT, TYPE=SPRINGA, ELSET=WK_68
   16656,    12787,    17909
*SPRING, ELSET=WK_68

1.743115e-01
*ELEMENT, TYPE=SPRINGA, ELSET=WK_69
   16657,    12790,    17910
*SPRING, ELSET=WK_69

1.743115e-01
*ELEMENT, TYPE=SPRINGA, ELSET=WK_70
   16658,    12793,    17911
*SPRING, ELSET=WK_70

1.743115e-01
*ELEMENT, TYPE=SPRINGA, ELSET=WK_71
   16659,    12808,    17912
*SPRING, ELSET=WK_71

1.743115e-01
*ELEMENT, TYPE=SPRINGA, ELSET=WK_72
   16660,    12811,    17913
*SPRING, ELSET=WK_72

1.743115e-01
*ELEMENT, TYPE=SPRINGA, ELSET=WK_73
   16661,    12814,    17914
*SPRING, ELSET=WK_73

1.743115e-01
*ELEMENT, TYPE=SPRINGA, ELSET=WK_74
   16662,    12817,    17915
*SPRING, ELSET=WK_74

1.743115e-01
*ELEMENT, TYPE=SPRINGA, ELSET=WK_75
   16663,    12820,    17916
*SPRING, ELSET=WK_75

1.743115e-01
*ELEMENT, TYPE=SPRINGA, ELSET=WK_76
   16664,    12823,    17917
*SPRING, ELSET=WK_76

1.743115e-01
*ELEMENT, TYPE=SPRINGA, ELSET=WK_77
   16665,    12838,    17918
*SPRING, ELSET=WK_77

1.743115e-01
*ELEMENT, TYPE=SPRINGA, ELSET=WK_78
   16666,    12841,    17919
*SPRING, ELSET=WK_78

1.743115e-01
*ELEMENT, TYPE=SPRINGA, ELSET=WK_79
   16667,    12844,    17920
*SPRING, ELSET=WK_79

1.743115e-01
*ELEMENT, TYPE=SPRINGA, ELSET=WK_80
   16668,    12847,    17921
*SPRING, ELSET=WK_80

1.743115e-01
*ELEMENT, TYPE=SPRINGA, ELSET=WK_81
   16669,    12850,    17922
*SPRING, ELSET=WK_81

1.743115e-01
*ELEMENT, TYPE=SPRINGA, ELSET=WK_82
   16670,    12853,    17923
*SPRING, ELSET=WK_82

1.743115e-01
*ELEMENT, TYPE=SPRINGA, ELSET=WK_83
   16671,    12868,    17924
*SPRING, ELSET=WK_83

1.743115e-01
*ELEMENT, TYPE=SPRINGA, ELSET=WK_84
   16672,    12871,    17925
*SPRING, ELSET=WK_84

1.743115e-01
*ELEMENT, TYPE=SPRINGA, ELSET=WK_85
   16673,    12874,    17926
*SPRING, ELSET=WK_85

1.743115e-01
*ELEMENT, TYPE=SPRINGA, ELSET=WK_86
   16674,    12877,    17927
*SPRING, ELSET=WK_86

1.743115e-01
*ELEMENT, TYPE=SPRINGA, ELSET=WK_87
   16675,    12880,    17928
*SPRING, ELSET=WK_87

1.743115e-01
*ELEMENT, TYPE=SPRINGA, ELSET=WK_88
   16676,    12883,    17929
*SPRING, ELSET=WK_88

1.743115e-01
*ELEMENT, TYPE=SPRINGA, ELSET=WK_89
   16677,    12886,    17930
*SPRING, ELSET=WK_89

8.715574e-02
*ELEMENT, TYPE=SPRINGA, ELSET=WK_90
   16678,    12892,    17931
*SPRING, ELSET=WK_90

4.357787e-02
*ELEMENT, TYPE=SPRINGA, ELSET=WK_91
   16679,    12895,    17932
*SPRING, ELSET=WK_91

1.307336e-01
*ELEMENT, TYPE=SPRINGA, ELSET=WK_92
   16680,    12898,    17933
*SPRING, ELSET=WK_92

1.743115e-01
*ELEMENT, TYPE=SPRINGA, ELSET=WK_93
   16681,    12901,    17934
*SPRING, ELSET=WK_93

1.743115e-01
*ELEMENT, TYPE=SPRINGA, ELSET=WK_94
   16682,    12904,    17935
*SPRING, ELSET=WK_94

1.743115e-01
*ELEMENT, TYPE=SPRINGA, ELSET=WK_95
   16683,    12907,    17936
*SPRING, ELSET=WK_95

1.743115e-01
*ELEMENT, TYPE=SPRINGA, ELSET=WK_96
   16684,    12910,    17937
*SPRING, ELSET=WK_96

1.743115e-01
*ELEMENT, TYPE=SPRINGA, ELSET=WK_97
   16685,    12913,    17938
*SPRING, ELSET=WK_97

1.743115e-01
*ELEMENT, TYPE=SPRINGA, ELSET=WK_98
   16686,    12916,    17939
*SPRING, ELSET=WK_98

1.307336e-01
*ELEMENT, TYPE=SPRINGA, ELSET=WK_99
   16687,    12919,    17940
*SPRING, ELSET=WK_99

8.715574e-02
*ELEMENT, TYPE=SPRINGA, ELSET=WK_100
   16688,    12922,    17941
*SPRING, ELSET=WK_100

8.715574e-02
*ELEMENT, TYPE=SPRINGA, ELSET=WK_101
   16689,    12925,    17942
*SPRING, ELSET=WK_101

1.307336e-01
*ELEMENT, TYPE=SPRINGA, ELSET=WK_102
   16690,    12928,    17943
*SPRING, ELSET=WK_102

1.743115e-01
*ELEMENT, TYPE=SPRINGA, ELSET=WK_103
   16691,    12931,    17944
*SPRING, ELSET=WK_103

1.743115e-01
*ELEMENT, TYPE=SPRINGA, ELSET=WK_104
   16692,    12934,    17945
*SPRING, ELSET=WK_104

1.743115e-01
*ELEMENT, TYPE=SPRINGA, ELSET=WK_105
   16693,    12937,    17946
*SPRING, ELSET=WK_105

1.743115e-01
*ELEMENT, TYPE=SPRINGA, ELSET=WK_106
   16694,    12940,    17947
*SPRING, ELSET=WK_106

1.743115e-01
*ELEMENT, TYPE=SPRINGA, ELSET=WK_107
   16695,    12943,    17948
*SPRING, ELSET=WK_107

1.743115e-01
*ELEMENT, TYPE=SPRINGA, ELSET=WK_108
   16696,    12946,    17949
*SPRING, ELSET=WK_108

1.743115e-01
*ELEMENT, TYPE=SPRINGA, ELSET=WK_109
   16697,    12949,    17950
*SPRING, ELSET=WK_109

1.743115e-01
*ELEMENT, TYPE=SPRINGA, ELSET=WK_110
   16698,    12952,    17951
*SPRING, ELSET=WK_110

1.743115e-01
*ELEMENT, TYPE=SPRINGA, ELSET=WK_111
   16699,    12955,    17952
*SPRING, ELSET=WK_111

1.743115e-01
*ELEMENT, TYPE=SPRINGA, ELSET=WK_112
   16700,    12958,    17953
*SPRING, ELSET=WK_112

1.743115e-01
*ELEMENT, TYPE=SPRINGA, ELSET=WK_113
   16701,    12961,    17954
*SPRING, ELSET=WK_113

1.743115e-01
*ELEMENT, TYPE=SPRINGA, ELSET=WK_114
   16702,    12964,    17955
*SPRING, ELSET=WK_114

1.743115e-01
*ELEMENT, TYPE=SPRINGA, ELSET=WK_115
   16703,    12967,    17956
*SPRING, ELSET=WK_115

1.743115e-01
*ELEMENT, TYPE=SPRINGA, ELSET=WK_116
   16704,    12970,    17957
*SPRING, ELSET=WK_116

1.743115e-01
*ELEMENT, TYPE=SPRINGA, ELSET=WK_117
   16705,    12973,    17958
*SPRING, ELSET=WK_117

1.743115e-01
*ELEMENT, TYPE=SPRINGA, ELSET=WK_118
   16706,    12976,    17959
*SPRING, ELSET=WK_118

1.743115e-01
*ELEMENT, TYPE=SPRINGA, ELSET=WK_119
   16707,    12979,    17960
*SPRING, ELSET=WK_119

1.743115e-01
*ELEMENT, TYPE=SPRINGA, ELSET=WK_120
   16708,    12982,    17961
*SPRING, ELSET=WK_120

1.743115e-01
*ELEMENT, TYPE=SPRINGA, ELSET=WK_121
   16709,    12985,    17962
*SPRING, ELSET=WK_121

1.743115e-01
*ELEMENT, TYPE=SPRINGA, ELSET=WK_122
   16710,    12988,    17963
*SPRING, ELSET=WK_122

1.743115e-01
*ELEMENT, TYPE=SPRINGA, ELSET=WK_123
   16711,    12991,    17964
*SPRING, ELSET=WK_123

1.743115e-01
*ELEMENT, TYPE=SPRINGA, ELSET=WK_124
   16712,    12994,    17965
*SPRING, ELSET=WK_124

1.743115e-01
*ELEMENT, TYPE=SPRINGA, ELSET=WK_125
   16713,    12997,    17966
*SPRING, ELSET=WK_125

8.715574e-02
*ELEMENT, TYPE=SPRINGA, ELSET=WK_126
   16714,    13000,    17967
*SPRING, ELSET=WK_126

8.715574e-02
*ELEMENT, TYPE=SPRINGA, ELSET=WK_127
   16715,    13003,    17968
*SPRING, ELSET=WK_127

8.715574e-02
*ELEMENT, TYPE=SPRINGA, ELSET=WK_128
   16716,    13006,    17969
*SPRING, ELSET=WK_128

8.715574e-02
*ELEMENT, TYPE=SPRINGA, ELSET=WK_129
   16717,    13009,    17970
*SPRING, ELSET=WK_129

8.715574e-02
*ELEMENT, TYPE=SPRINGA, ELSET=WK_130
   16718,    13012,    17971
*SPRING, ELSET=WK_130

8.715574e-02
*ELEMENT, TYPE=SPRINGA, ELSET=WK_131
   16719,    13015,    17972
*SPRING, ELSET=WK_131

8.715574e-02
*ELEMENT, TYPE=SPRINGA, ELSET=WK_132
   16720,    13018,    17973
*SPRING, ELSET=WK_132

8.715574e-02
*ELEMENT, TYPE=SPRINGA, ELSET=WK_133
   16721,    13021,    17974
*SPRING, ELSET=WK_133

8.715574e-02
*ELEMENT, TYPE=SPRINGA, ELSET=WK_134
   16722,    13024,    17975
*SPRING, ELSET=WK_134

8.715574e-02
*ELEMENT, TYPE=SPRINGA, ELSET=WK_135
   16723,    13027,    17976
*SPRING, ELSET=WK_135

8.715574e-02
*ELEMENT, TYPE=SPRINGA, ELSET=WK_136
   16724,    13030,    17977
*SPRING, ELSET=WK_136

8.715574e-02
*ELEMENT, TYPE=SPRINGA, ELSET=WK_137
   16725,    13033,    17978
*SPRING, ELSET=WK_137

8.715574e-02
*ELEMENT, TYPE=SPRINGA, ELSET=WK_138
   16726,    13036,    17979
*SPRING, ELSET=WK_138

8.715574e-02
*ELEMENT, TYPE=SPRINGA, ELSET=WK_139
   16727,    13039,    17980
*SPRING, ELSET=WK_139

8.715574e-02
*ELEMENT, TYPE=SPRINGA, ELSET=WK_140
   16728,    13042,    17981
*SPRING, ELSET=WK_140

8.715574e-02
*ELEMENT, TYPE=SPRINGA, ELSET=WK_141
   16729,    13045,    17982
*SPRING, ELSET=WK_141

8.715574e-02
*ELEMENT, TYPE=SPRINGA, ELSET=WK_142
   16730,    13048,    17983
*SPRING, ELSET=WK_142

8.715574e-02
*ELEMENT, TYPE=SPRINGA, ELSET=WK_143
   16731,    13051,    17984
*SPRING, ELSET=WK_143

8.715574e-02
*ELEMENT, TYPE=SPRINGA, ELSET=WK_144
   16732,    13054,    17985
*SPRING, ELSET=WK_144

1.743115e-01
*ELEMENT, TYPE=SPRINGA, ELSET=WK_145
   16733,    13057,    17986
*SPRING, ELSET=WK_145

1.743115e-01
*ELEMENT, TYPE=SPRINGA, ELSET=WK_146
   16734,    13060,    17987
*SPRING, ELSET=WK_146

1.743115e-01
*ELEMENT, TYPE=SPRINGA, ELSET=WK_147
   16735,    13063,    17988
*SPRING, ELSET=WK_147

1.743115e-01
*ELEMENT, TYPE=SPRINGA, ELSET=WK_148
   16736,    13066,    17989
*SPRING, ELSET=WK_148

1.743115e-01
*ELEMENT, TYPE=SPRINGA, ELSET=WK_149
   16737,    13069,    17990
*SPRING, ELSET=WK_149

1.743115e-01
*ELEMENT, TYPE=SPRINGA, ELSET=WK_150
   16738,    13072,    17991
*SPRING, ELSET=WK_150

1.743115e-01
*ELEMENT, TYPE=SPRINGA, ELSET=WK_151
   16739,    13075,    17992
*SPRING, ELSET=WK_151

1.743115e-01
*ELEMENT, TYPE=SPRINGA, ELSET=WK_152
   16740,    13078,    17993
*SPRING, ELSET=WK_152

1.743115e-01
*ELEMENT, TYPE=SPRINGA, ELSET=WK_153
   16741,    13081,    17994
*SPRING, ELSET=WK_153

1.743115e-01
*ELEMENT, TYPE=SPRINGA, ELSET=WK_154
   16742,    13084,    17995
*SPRING, ELSET=WK_154

1.743115e-01
*ELEMENT, TYPE=SPRINGA, ELSET=WK_155
   16743,    13087,    17996
*SPRING, ELSET=WK_155

1.743115e-01
*ELEMENT, TYPE=SPRINGA, ELSET=WK_156
   16744,    13090,    17997
*SPRING, ELSET=WK_156

1.743115e-01
*ELEMENT, TYPE=SPRINGA, ELSET=WK_157
   16745,    13093,    17998
*SPRING, ELSET=WK_157

1.743115e-01
*ELEMENT, TYPE=SPRINGA, ELSET=WK_158
   16746,    13096,    17999
*SPRING, ELSET=WK_158

1.743115e-01
*ELEMENT, TYPE=SPRINGA, ELSET=WK_159
   16747,    13099,    18000
*SPRING, ELSET=WK_159

1.743115e-01
*ELEMENT, TYPE=SPRINGA, ELSET=WK_160
   16748,    13102,    18001
*SPRING, ELSET=WK_160

1.743115e-01
*ELEMENT, TYPE=SPRINGA, ELSET=WK_161
   16749,    13105,    18002
*SPRING, ELSET=WK_161

1.743115e-01
*ELEMENT, TYPE=SPRINGA, ELSET=WK_162
   16750,    13108,    18003
*SPRING, ELSET=WK_162

1.743115e-01
*ELEMENT, TYPE=SPRINGA, ELSET=WK_163
   16751,    13111,    18004
*SPRING, ELSET=WK_163

1.743115e-01
*ELEMENT, TYPE=SPRINGA, ELSET=WK_164
   16752,    13114,    18005
*SPRING, ELSET=WK_164

1.743115e-01
*ELEMENT, TYPE=SPRINGA, ELSET=WK_165
   16753,    13117,    18006
*SPRING, ELSET=WK_165

1.743115e-01
*ELEMENT, TYPE=SPRINGA, ELSET=WK_166
   16754,    13120,    18007
*SPRING, ELSET=WK_166

1.743115e-01
*ELEMENT, TYPE=SPRINGA, ELSET=WK_167
   16755,    13123,    18008
*SPRING, ELSET=WK_167

1.743115e-01
*ELEMENT, TYPE=SPRINGA, ELSET=WK_168
   16756,    13126,    18009
*SPRING, ELSET=WK_168

1.743115e-01
*ELEMENT, TYPE=SPRINGA, ELSET=WK_169
   16757,    13129,    18010
*SPRING, ELSET=WK_169

1.743115e-01
*ELEMENT, TYPE=SPRINGA, ELSET=WK_170
   16758,    13132,    18011
*SPRING, ELSET=WK_170

1.743115e-01
*ELEMENT, TYPE=SPRINGA, ELSET=WK_171
   16759,    13135,    18012
*SPRING, ELSET=WK_171

1.743115e-01
*ELEMENT, TYPE=SPRINGA, ELSET=WK_172
   16760,    13138,    18013
*SPRING, ELSET=WK_172

1.743115e-01
*ELEMENT, TYPE=SPRINGA, ELSET=WK_173
   16761,    13141,    18014
*SPRING, ELSET=WK_173

1.743115e-01
*ELEMENT, TYPE=SPRINGA, ELSET=WK_174
   16762,    13144,    18015
*SPRING, ELSET=WK_174

1.743115e-01
*ELEMENT, TYPE=SPRINGA, ELSET=WK_175
   16763,    13147,    18016
*SPRING, ELSET=WK_175

1.743115e-01
*ELEMENT, TYPE=SPRINGA, ELSET=WK_176
   16764,    13150,    18017
*SPRING, ELSET=WK_176

1.743115e-01
*ELEMENT, TYPE=SPRINGA, ELSET=WK_177
   16765,    13153,    18018
*SPRING, ELSET=WK_177

1.743115e-01
*ELEMENT, TYPE=SPRINGA, ELSET=WK_178
   16766,    13156,    18019
*SPRING, ELSET=WK_178

1.743115e-01
*ELEMENT, TYPE=SPRINGA, ELSET=WK_179
   16767,    13159,    18020
*SPRING, ELSET=WK_179

1.743115e-01
*ELEMENT, TYPE=SPRINGA, ELSET=WK_180
   16768,    13162,    18021
*SPRING, ELSET=WK_180

1.743115e-01
*ELEMENT, TYPE=SPRINGA, ELSET=WK_181
   16769,    13165,    18022
*SPRING, ELSET=WK_181

1.743115e-01
*ELEMENT, TYPE=SPRINGA, ELSET=WK_182
   16770,    13168,    18023
*SPRING, ELSET=WK_182

1.743115e-01
*ELEMENT, TYPE=SPRINGA, ELSET=WK_183
   16771,    13171,    18024
*SPRING, ELSET=WK_183

1.743115e-01
*ELEMENT, TYPE=SPRINGA, ELSET=WK_184
   16772,    13174,    18025
*SPRING, ELSET=WK_184

1.743115e-01
*ELEMENT, TYPE=SPRINGA, ELSET=WK_185
   16773,    13177,    18026
*SPRING, ELSET=WK_185

1.743115e-01
*ELEMENT, TYPE=SPRINGA, ELSET=WK_186
   16774,    13180,    18027
*SPRING, ELSET=WK_186

1.743115e-01
*ELEMENT, TYPE=SPRINGA, ELSET=WK_187
   16775,    13183,    18028
*SPRING, ELSET=WK_187

1.743115e-01
*ELEMENT, TYPE=SPRINGA, ELSET=WK_188
   16776,    13186,    18029
*SPRING, ELSET=WK_188

1.743115e-01
*ELEMENT, TYPE=SPRINGA, ELSET=WK_189
   16777,    13189,    18030
*SPRING, ELSET=WK_189

1.743115e-01
*ELEMENT, TYPE=SPRINGA, ELSET=WK_190
   16778,    13192,    18031
*SPRING, ELSET=WK_190

1.743115e-01
*ELEMENT, TYPE=SPRINGA, ELSET=WK_191
   16779,    13195,    18032
*SPRING, ELSET=WK_191

1.743115e-01
*ELEMENT, TYPE=SPRINGA, ELSET=WK_192
   16780,    13198,    18033
*SPRING, ELSET=WK_192

1.743115e-01
*ELEMENT, TYPE=SPRINGA, ELSET=WK_193
   16781,    13201,    18034
*SPRING, ELSET=WK_193

1.743115e-01
*ELEMENT, TYPE=SPRINGA, ELSET=WK_194
   16782,    13204,    18035
*SPRING, ELSET=WK_194

1.743115e-01
*ELEMENT, TYPE=SPRINGA, ELSET=WK_195
   16783,    13207,    18036
*SPRING, ELSET=WK_195

1.743115e-01
*ELEMENT, TYPE=SPRINGA, ELSET=WK_196
   16784,    13210,    18037
*SPRING, ELSET=WK_196

1.743115e-01
*ELEMENT, TYPE=SPRINGA, ELSET=WK_197
   16785,    13213,    18038
*SPRING, ELSET=WK_197

1.743115e-01
*ELEMENT, TYPE=SPRINGA, ELSET=WK_198
   16786,    13216,    18039
*SPRING, ELSET=WK_198

1.743115e-01
*ELEMENT, TYPE=SPRINGA, ELSET=WK_199
   16787,    13219,    18040
*SPRING, ELSET=WK_199

1.743115e-01
*ELEMENT, TYPE=SPRINGA, ELSET=WK_200
   16788,    13222,    18041
*SPRING, ELSET=WK_200

1.743115e-01
*ELEMENT, TYPE=SPRINGA, ELSET=WK_201
   16789,    13225,    18042
*SPRING, ELSET=WK_201

1.743115e-01
*ELEMENT, TYPE=SPRINGA, ELSET=WK_202
   16790,    13228,    18043
*SPRING, ELSET=WK_202

1.743115e-01
*ELEMENT, TYPE=SPRINGA, ELSET=WK_203
   16791,    13231,    18044
*SPRING, ELSET=WK_203

1.743115e-01
*ELEMENT, TYPE=SPRINGA, ELSET=WK_204
   16792,    13234,    18045
*SPRING, ELSET=WK_204

1.743115e-01
*ELEMENT, TYPE=SPRINGA, ELSET=WK_205
   16793,    13237,    18046
*SPRING, ELSET=WK_205

1.743115e-01
*ELEMENT, TYPE=SPRINGA, ELSET=WK_206
   16794,    13240,    18047
*SPRING, ELSET=WK_206

1.743115e-01
*ELEMENT, TYPE=SPRINGA, ELSET=WK_207
   16795,    13243,    18048
*SPRING, ELSET=WK_207

1.743115e-01
*ELEMENT, TYPE=SPRINGA, ELSET=WK_208
   16796,    13246,    18049
*SPRING, ELSET=WK_208

1.743115e-01
*ELEMENT, TYPE=SPRINGA, ELSET=WK_209
   16797,    13249,    18050
*SPRING, ELSET=WK_209

1.743115e-01
*ELEMENT, TYPE=SPRINGA, ELSET=WK_210
   16798,    13252,    18051
*SPRING, ELSET=WK_210

1.743115e-01
*ELEMENT, TYPE=SPRINGA, ELSET=WK_211
   16799,    13255,    18052
*SPRING, ELSET=WK_211

1.743115e-01
*ELEMENT, TYPE=SPRINGA, ELSET=WK_212
   16800,    13258,    18053
*SPRING, ELSET=WK_212

1.743115e-01
*ELEMENT, TYPE=SPRINGA, ELSET=WK_213
   16801,    13261,    18054
*SPRING, ELSET=WK_213

1.743115e-01
*ELEMENT, TYPE=SPRINGA, ELSET=WK_214
   16802,    13264,    18055
*SPRING, ELSET=WK_214

1.743115e-01
*ELEMENT, TYPE=SPRINGA, ELSET=WK_215
   16803,    13267,    18056
*SPRING, ELSET=WK_215

1.743115e-01
*ELEMENT, TYPE=SPRINGA, ELSET=WK_216
   16804,    13270,    18057
*SPRING, ELSET=WK_216

1.743115e-01
*ELEMENT, TYPE=SPRINGA, ELSET=WK_217
   16805,    13273,    18058
*SPRING, ELSET=WK_217

1.743115e-01
*ELEMENT, TYPE=SPRINGA, ELSET=WK_218
   16806,    13276,    18059
*SPRING, ELSET=WK_218

1.743115e-01
*ELEMENT, TYPE=SPRINGA, ELSET=WK_219
   16807,    13279,    18060
*SPRING, ELSET=WK_219

1.743115e-01
*ELEMENT, TYPE=SPRINGA, ELSET=WK_220
   16808,    13282,    18061
*SPRING, ELSET=WK_220

1.743115e-01
*ELEMENT, TYPE=SPRINGA, ELSET=WK_221
   16809,    13285,    18062
*SPRING, ELSET=WK_221

1.743115e-01
*ELEMENT, TYPE=SPRINGA, ELSET=WK_222
   16810,    13288,    18063
*SPRING, ELSET=WK_222

1.743115e-01
*ELEMENT, TYPE=SPRINGA, ELSET=WK_223
   16811,    13291,    18064
*SPRING, ELSET=WK_223

1.743115e-01
*ELEMENT, TYPE=SPRINGA, ELSET=WK_224
   16812,    13294,    18065
*SPRING, ELSET=WK_224

1.743115e-01
*ELEMENT, TYPE=SPRINGA, ELSET=WK_225
   16813,    13297,    18066
*SPRING, ELSET=WK_225

1.743115e-01
*ELEMENT, TYPE=SPRINGA, ELSET=WK_226
   16814,    13300,    18067
*SPRING, ELSET=WK_226

1.743115e-01
*ELEMENT, TYPE=SPRINGA, ELSET=WK_227
   16815,    13303,    18068
*SPRING, ELSET=WK_227

1.743115e-01
*ELEMENT, TYPE=SPRINGA, ELSET=WK_228
   16816,    13306,    18069
*SPRING, ELSET=WK_228

1.743115e-01
*ELEMENT, TYPE=SPRINGA, ELSET=WK_229
   16817,    13309,    18070
*SPRING, ELSET=WK_229

1.743115e-01
*ELEMENT, TYPE=SPRINGA, ELSET=WK_230
   16818,    13312,    18071
*SPRING, ELSET=WK_230

1.743115e-01
*ELEMENT, TYPE=SPRINGA, ELSET=WK_231
   16819,    13315,    18072
*SPRING, ELSET=WK_231

1.743115e-01
*ELEMENT, TYPE=SPRINGA, ELSET=WK_232
   16820,    13318,    18073
*SPRING, ELSET=WK_232

1.743115e-01
*ELEMENT, TYPE=SPRINGA, ELSET=WK_233
   16821,    13321,    18074
*SPRING, ELSET=WK_233

1.743115e-01
*ELEMENT, TYPE=SPRINGA, ELSET=WK_234
   16822,    13324,    18075
*SPRING, ELSET=WK_234

1.743115e-01
*ELEMENT, TYPE=SPRINGA, ELSET=WK_235
   16823,    13327,    18076
*SPRING, ELSET=WK_235

1.743115e-01
*ELEMENT, TYPE=SPRINGA, ELSET=WK_236
   16824,    13330,    18077
*SPRING, ELSET=WK_236

1.743115e-01
*ELEMENT, TYPE=SPRINGA, ELSET=WK_237
   16825,    13333,    18078
*SPRING, ELSET=WK_237

1.743115e-01
*ELEMENT, TYPE=SPRINGA, ELSET=WK_238
   16826,    13336,    18079
*SPRING, ELSET=WK_238

1.743115e-01
*ELEMENT, TYPE=SPRINGA, ELSET=WK_239
   16827,    13339,    18080
*SPRING, ELSET=WK_239

1.743115e-01
*ELEMENT, TYPE=SPRINGA, ELSET=WK_240
   16828,    13342,    18081
*SPRING, ELSET=WK_240

1.743115e-01
*ELEMENT, TYPE=SPRINGA, ELSET=WK_241
   16829,    13345,    18082
*SPRING, ELSET=WK_241

1.743115e-01
*ELEMENT, TYPE=SPRINGA, ELSET=WK_242
   16830,    13348,    18083
*SPRING, ELSET=WK_242

1.743115e-01
*ELEMENT, TYPE=SPRINGA, ELSET=WK_243
   16831,    13351,    18084
*SPRING, ELSET=WK_243

1.743115e-01
*ELEMENT, TYPE=SPRINGA, ELSET=WK_244
   16832,    13354,    18085
*SPRING, ELSET=WK_244

1.743115e-01
*ELEMENT, TYPE=SPRINGA, ELSET=WK_245
   16833,    13357,    18086
*SPRING, ELSET=WK_245

1.743115e-01
*ELEMENT, TYPE=SPRINGA, ELSET=WK_246
   16834,    13360,    18087
*SPRING, ELSET=WK_246

1.743115e-01
*ELEMENT, TYPE=SPRINGA, ELSET=WK_247
   16835,    13363,    18088
*SPRING, ELSET=WK_247

1.743115e-01
*ELEMENT, TYPE=SPRINGA, ELSET=WK_248
   16836,    13366,    18089
*SPRING, ELSET=WK_248

1.743115e-01
*ELEMENT, TYPE=SPRINGA, ELSET=WK_249
   16837,    13369,    18090
*SPRING, ELSET=WK_249

1.743115e-01
*ELEMENT, TYPE=SPRINGA, ELSET=WK_250
   16838,    13372,    18091
*SPRING, ELSET=WK_250

1.743115e-01
*ELEMENT, TYPE=SPRINGA, ELSET=WK_251
   16839,    13375,    18092
*SPRING, ELSET=WK_251

1.743115e-01
*ELEMENT, TYPE=SPRINGA, ELSET=WK_252
   16840,    13378,    18093
*SPRING, ELSET=WK_252

1.743115e-01
*ELEMENT, TYPE=SPRINGA, ELSET=WK_253
   16841,    13381,    18094
*SPRING, ELSET=WK_253

1.743115e-01
*ELEMENT, TYPE=SPRINGA, ELSET=WK_254
   16842,    13384,    18095
*SPRING, ELSET=WK_254

1.743115e-01
*ELEMENT, TYPE=SPRINGA, ELSET=WK_255
   16843,    13387,    18096
*SPRING, ELSET=WK_255

1.743115e-01
*ELEMENT, TYPE=SPRINGA, ELSET=WK_256
   16844,    13390,    18097
*SPRING, ELSET=WK_256

1.743115e-01
*ELEMENT, TYPE=SPRINGA, ELSET=WK_257
   16845,    13393,    18098
*SPRING, ELSET=WK_257

1.743115e-01
*ELEMENT, TYPE=SPRINGA, ELSET=WK_258
   16846,    13396,    18099
*SPRING, ELSET=WK_258

1.743115e-01
*ELEMENT, TYPE=SPRINGA, ELSET=WK_259
   16847,    13399,    18100
*SPRING, ELSET=WK_259

1.743115e-01
*ELEMENT, TYPE=SPRINGA, ELSET=WK_260
   16848,    13402,    18101
*SPRING, ELSET=WK_260

1.743115e-01
*ELEMENT, TYPE=SPRINGA, ELSET=WK_261
   16849,    13405,    18102
*SPRING, ELSET=WK_261

1.743115e-01
*ELEMENT, TYPE=SPRINGA, ELSET=WK_262
   16850,    13408,    18103
*SPRING, ELSET=WK_262

1.743115e-01
*ELEMENT, TYPE=SPRINGA, ELSET=WK_263
   16851,    13411,    18104
*SPRING, ELSET=WK_263

1.743115e-01
*ELEMENT, TYPE=SPRINGA, ELSET=WK_264
   16852,    13414,    18105
*SPRING, ELSET=WK_264

1.743115e-01
*ELEMENT, TYPE=SPRINGA, ELSET=WK_265
   16853,    13417,    18106
*SPRING, ELSET=WK_265

1.743115e-01
*ELEMENT, TYPE=SPRINGA, ELSET=WK_266
   16854,    13420,    18107
*SPRING, ELSET=WK_266

1.743115e-01
*ELEMENT, TYPE=SPRINGA, ELSET=WK_267
   16855,    13423,    18108
*SPRING, ELSET=WK_267

1.743115e-01
*ELEMENT, TYPE=SPRINGA, ELSET=WK_268
   16856,    13426,    18109
*SPRING, ELSET=WK_268

1.743115e-01
*ELEMENT, TYPE=SPRINGA, ELSET=WK_269
   16857,    13429,    18110
*SPRING, ELSET=WK_269

1.743115e-01
*ELEMENT, TYPE=SPRINGA, ELSET=WK_270
   16858,    13432,    18111
*SPRING, ELSET=WK_270

8.715574e-02
*ELEMENT, TYPE=SPRINGA, ELSET=WK_271
   16859,    13435,    18112
*SPRING, ELSET=WK_271

8.715574e-02
*ELEMENT, TYPE=SPRINGA, ELSET=WK_272
   16860,    13438,    18113
*SPRING, ELSET=WK_272

8.715574e-02
*ELEMENT, TYPE=SPRINGA, ELSET=WK_273
   16861,    13441,    18114
*SPRING, ELSET=WK_273

8.715574e-02
*ELEMENT, TYPE=SPRINGA, ELSET=WK_274
   16862,    13444,    18115
*SPRING, ELSET=WK_274

8.715574e-02
*ELEMENT, TYPE=SPRINGA, ELSET=WK_275
   16863,    13447,    18116
*SPRING, ELSET=WK_275

8.715574e-02
*ELEMENT, TYPE=SPRINGA, ELSET=WK_276
   16864,    13450,    18117
*SPRING, ELSET=WK_276

8.715574e-02
*ELEMENT, TYPE=SPRINGA, ELSET=WK_277
   16865,    13453,    18118
*SPRING, ELSET=WK_277

8.715574e-02
*ELEMENT, TYPE=SPRINGA, ELSET=WK_278
   16866,    13456,    18119
*SPRING, ELSET=WK_278

8.715574e-02
*ELEMENT, TYPE=SPRINGA, ELSET=WK_279
   16867,    13459,    18120
*SPRING, ELSET=WK_279

8.715574e-02
*ELEMENT, TYPE=SPRINGA, ELSET=WK_280
   16868,    13462,    18121
*SPRING, ELSET=WK_280

8.715574e-02
*ELEMENT, TYPE=SPRINGA, ELSET=WK_281
   16869,    13465,    18122
*SPRING, ELSET=WK_281

8.715574e-02
*ELEMENT, TYPE=SPRINGA, ELSET=WK_282
   16870,    13468,    18123
*SPRING, ELSET=WK_282

8.715574e-02
*ELEMENT, TYPE=SPRINGA, ELSET=WK_283
   16871,    13471,    18124
*SPRING, ELSET=WK_283

8.715574e-02
*ELEMENT, TYPE=SPRINGA, ELSET=WK_284
   16872,    13474,    18125
*SPRING, ELSET=WK_284

8.715574e-02
*ELEMENT, TYPE=SPRINGA, ELSET=WK_285
   16873,    13477,    18126
*SPRING, ELSET=WK_285

8.715574e-02
*ELEMENT, TYPE=SPRINGA, ELSET=WK_286
   16874,    13480,    18127
*SPRING, ELSET=WK_286

8.715574e-02
*ELEMENT, TYPE=SPRINGA, ELSET=WK_287
   16875,    13483,    18128
*SPRING, ELSET=WK_287

8.715574e-02
*ELEMENT, TYPE=SPRINGA, ELSET=WK_288
   16876,    13486,    18129
*SPRING, ELSET=WK_288

1.743115e-01
*ELEMENT, TYPE=SPRINGA, ELSET=WK_289
   16877,    13489,    18130
*SPRING, ELSET=WK_289

1.743115e-01
*ELEMENT, TYPE=SPRINGA, ELSET=WK_290
   16878,    13492,    18131
*SPRING, ELSET=WK_290

1.743115e-01
*ELEMENT, TYPE=SPRINGA, ELSET=WK_291
   16879,    13495,    18132
*SPRING, ELSET=WK_291

1.743115e-01
*ELEMENT, TYPE=SPRINGA, ELSET=WK_292
   16880,    13498,    18133
*SPRING, ELSET=WK_292

1.743115e-01
*ELEMENT, TYPE=SPRINGA, ELSET=WK_293
   16881,    13501,    18134
*SPRING, ELSET=WK_293

1.743115e-01
*ELEMENT, TYPE=SPRINGA, ELSET=WK_294
   16882,    13504,    18135
*SPRING, ELSET=WK_294

1.743115e-01
*ELEMENT, TYPE=SPRINGA, ELSET=WK_295
   16883,    13507,    18136
*SPRING, ELSET=WK_295

1.743115e-01
*ELEMENT, TYPE=SPRINGA, ELSET=WK_296
   16884,    13510,    18137
*SPRING, ELSET=WK_296

1.743115e-01
*ELEMENT, TYPE=SPRINGA, ELSET=WK_297
   16885,    13513,    18138
*SPRING, ELSET=WK_297

1.743115e-01
*ELEMENT, TYPE=SPRINGA, ELSET=WK_298
   16886,    13516,    18139
*SPRING, ELSET=WK_298

1.743115e-01
*ELEMENT, TYPE=SPRINGA, ELSET=WK_299
   16887,    13519,    18140
*SPRING, ELSET=WK_299

1.743115e-01
*ELEMENT, TYPE=SPRINGA, ELSET=WK_300
   16888,    13522,    18141
*SPRING, ELSET=WK_300

1.743115e-01
*ELEMENT, TYPE=SPRINGA, ELSET=WK_301
   16889,    13525,    18142
*SPRING, ELSET=WK_301

1.743115e-01
*ELEMENT, TYPE=SPRINGA, ELSET=WK_302
   16890,    13528,    18143
*SPRING, ELSET=WK_302

1.743115e-01
*ELEMENT, TYPE=SPRINGA, ELSET=WK_303
   16891,    13531,    18144
*SPRING, ELSET=WK_303

1.743115e-01
*ELEMENT, TYPE=SPRINGA, ELSET=WK_304
   16892,    13534,    18145
*SPRING, ELSET=WK_304

1.743115e-01
*ELEMENT, TYPE=SPRINGA, ELSET=WK_305
   16893,    13537,    18146
*SPRING, ELSET=WK_305

1.743115e-01
*ELEMENT, TYPE=SPRINGA, ELSET=WK_306
   16894,    13540,    18147
*SPRING, ELSET=WK_306

1.743115e-01
*ELEMENT, TYPE=SPRINGA, ELSET=WK_307
   16895,    13543,    18148
*SPRING, ELSET=WK_307

1.743115e-01
*ELEMENT, TYPE=SPRINGA, ELSET=WK_308
   16896,    13546,    18149
*SPRING, ELSET=WK_308

1.743115e-01
*ELEMENT, TYPE=SPRINGA, ELSET=WK_309
   16897,    13549,    18150
*SPRING, ELSET=WK_309

1.743115e-01
*ELEMENT, TYPE=SPRINGA, ELSET=WK_310
   16898,    13552,    18151
*SPRING, ELSET=WK_310

1.743115e-01
*ELEMENT, TYPE=SPRINGA, ELSET=WK_311
   16899,    13555,    18152
*SPRING, ELSET=WK_311

1.743115e-01
*ELEMENT, TYPE=SPRINGA, ELSET=WK_312
   16900,    13558,    18153
*SPRING, ELSET=WK_312

1.743115e-01
*ELEMENT, TYPE=SPRINGA, ELSET=WK_313
   16901,    13561,    18154
*SPRING, ELSET=WK_313

1.743115e-01
*ELEMENT, TYPE=SPRINGA, ELSET=WK_314
   16902,    13564,    18155
*SPRING, ELSET=WK_314

1.743115e-01
*ELEMENT, TYPE=SPRINGA, ELSET=WK_315
   16903,    13567,    18156
*SPRING, ELSET=WK_315

1.743115e-01
*ELEMENT, TYPE=SPRINGA, ELSET=WK_316
   16904,    13570,    18157
*SPRING, ELSET=WK_316

1.743115e-01
*ELEMENT, TYPE=SPRINGA, ELSET=WK_317
   16905,    13573,    18158
*SPRING, ELSET=WK_317

1.743115e-01
*ELEMENT, TYPE=SPRINGA, ELSET=WK_318
   16906,    13576,    18159
*SPRING, ELSET=WK_318

1.743115e-01
*ELEMENT, TYPE=SPRINGA, ELSET=WK_319
   16907,    13579,    18160
*SPRING, ELSET=WK_319

1.743115e-01
*ELEMENT, TYPE=SPRINGA, ELSET=WK_320
   16908,    13582,    18161
*SPRING, ELSET=WK_320

1.743115e-01
*ELEMENT, TYPE=SPRINGA, ELSET=WK_321
   16909,    13585,    18162
*SPRING, ELSET=WK_321

1.743115e-01
*ELEMENT, TYPE=SPRINGA, ELSET=WK_322
   16910,    13588,    18163
*SPRING, ELSET=WK_322

1.743115e-01
*ELEMENT, TYPE=SPRINGA, ELSET=WK_323
   16911,    13591,    18164
*SPRING, ELSET=WK_323

1.743115e-01
*ELEMENT, TYPE=SPRINGA, ELSET=WK_324
   16912,    13594,    18165
*SPRING, ELSET=WK_324

1.743115e-01
*ELEMENT, TYPE=SPRINGA, ELSET=WK_325
   16913,    13597,    18166
*SPRING, ELSET=WK_325

1.743115e-01
*ELEMENT, TYPE=SPRINGA, ELSET=WK_326
   16914,    13600,    18167
*SPRING, ELSET=WK_326

1.743115e-01
*ELEMENT, TYPE=SPRINGA, ELSET=WK_327
   16915,    13603,    18168
*SPRING, ELSET=WK_327

1.743115e-01
*ELEMENT, TYPE=SPRINGA, ELSET=WK_328
   16916,    13606,    18169
*SPRING, ELSET=WK_328

1.743115e-01
*ELEMENT, TYPE=SPRINGA, ELSET=WK_329
   16917,    13609,    18170
*SPRING, ELSET=WK_329

1.743115e-01
*ELEMENT, TYPE=SPRINGA, ELSET=WK_330
   16918,    13612,    18171
*SPRING, ELSET=WK_330

1.743115e-01
*ELEMENT, TYPE=SPRINGA, ELSET=WK_331
   16919,    13615,    18172
*SPRING, ELSET=WK_331

1.743115e-01
*ELEMENT, TYPE=SPRINGA, ELSET=WK_332
   16920,    13618,    18173
*SPRING, ELSET=WK_332

1.743115e-01
*ELEMENT, TYPE=SPRINGA, ELSET=WK_333
   16921,    13621,    18174
*SPRING, ELSET=WK_333

1.743115e-01
*ELEMENT, TYPE=SPRINGA, ELSET=WK_334
   16922,    13624,    18175
*SPRING, ELSET=WK_334

1.743115e-01
*ELEMENT, TYPE=SPRINGA, ELSET=WK_335
   16923,    13627,    18176
*SPRING, ELSET=WK_335

1.743115e-01
*ELEMENT, TYPE=SPRINGA, ELSET=WK_336
   16924,    13630,    18177
*SPRING, ELSET=WK_336

1.743115e-01
*ELEMENT, TYPE=SPRINGA, ELSET=WK_337
   16925,    13633,    18178
*SPRING, ELSET=WK_337

1.743115e-01
*ELEMENT, TYPE=SPRINGA, ELSET=WK_338
   16926,    13636,    18179
*SPRING, ELSET=WK_338

1.743115e-01
*ELEMENT, TYPE=SPRINGA, ELSET=WK_339
   16927,    13639,    18180
*SPRING, ELSET=WK_339

1.743115e-01
*ELEMENT, TYPE=SPRINGA, ELSET=WK_340
   16928,    13642,    18181
*SPRING, ELSET=WK_340

1.743115e-01
*ELEMENT, TYPE=SPRINGA, ELSET=WK_341
   16929,    13645,    18182
*SPRING, ELSET=WK_341

1.743115e-01
*ELEMENT, TYPE=SPRINGA, ELSET=WK_342
   16930,    13648,    18183
*SPRING, ELSET=WK_342

1.743115e-01
*ELEMENT, TYPE=SPRINGA, ELSET=WK_343
   16931,    13651,    18184
*SPRING, ELSET=WK_343

1.743115e-01
*ELEMENT, TYPE=SPRINGA, ELSET=WK_344
   16932,    13654,    18185
*SPRING, ELSET=WK_344

1.743115e-01
*ELEMENT, TYPE=SPRINGA, ELSET=WK_345
   16933,    13657,    18186
*SPRING, ELSET=WK_345

1.743115e-01
*ELEMENT, TYPE=SPRINGA, ELSET=WK_346
   16934,    13660,    18187
*SPRING, ELSET=WK_346

1.743115e-01
*ELEMENT, TYPE=SPRINGA, ELSET=WK_347
   16935,    13663,    18188
*SPRING, ELSET=WK_347

1.743115e-01
*ELEMENT, TYPE=SPRINGA, ELSET=WK_348
   16936,    13666,    18189
*SPRING, ELSET=WK_348

1.743115e-01
*ELEMENT, TYPE=SPRINGA, ELSET=WK_349
   16937,    13669,    18190
*SPRING, ELSET=WK_349

1.743115e-01
*ELEMENT, TYPE=SPRINGA, ELSET=WK_350
   16938,    13672,    18191
*SPRING, ELSET=WK_350

1.743115e-01
*ELEMENT, TYPE=SPRINGA, ELSET=WK_351
   16939,    13675,    18192
*SPRING, ELSET=WK_351

1.743115e-01
*ELEMENT, TYPE=SPRINGA, ELSET=WK_352
   16940,    13678,    18193
*SPRING, ELSET=WK_352

1.743115e-01
*ELEMENT, TYPE=SPRINGA, ELSET=WK_353
   16941,    13681,    18194
*SPRING, ELSET=WK_353

1.743115e-01
*ELEMENT, TYPE=SPRINGA, ELSET=WK_354
   16942,    13684,    18195
*SPRING, ELSET=WK_354

1.743115e-01
*ELEMENT, TYPE=SPRINGA, ELSET=WK_355
   16943,    13687,    18196
*SPRING, ELSET=WK_355

1.743115e-01
*ELEMENT, TYPE=SPRINGA, ELSET=WK_356
   16944,    13690,    18197
*SPRING, ELSET=WK_356

1.743115e-01
*ELEMENT, TYPE=SPRINGA, ELSET=WK_357
   16945,    13693,    18198
*SPRING, ELSET=WK_357

1.743115e-01
*ELEMENT, TYPE=SPRINGA, ELSET=WK_358
   16946,    13696,    18199
*SPRING, ELSET=WK_358

1.743115e-01
*ELEMENT, TYPE=SPRINGA, ELSET=WK_359
   16947,    13699,    18200
*SPRING, ELSET=WK_359

1.743115e-01
*ELEMENT, TYPE=SPRINGA, ELSET=WK_360
   16948,    13702,    18201
*SPRING, ELSET=WK_360

1.743115e-01
*ELEMENT, TYPE=SPRINGA, ELSET=WK_361
   16949,    13705,    18202
*SPRING, ELSET=WK_361

1.743115e-01
*ELEMENT, TYPE=SPRINGA, ELSET=WK_362
   16950,    13708,    18203
*SPRING, ELSET=WK_362

1.743115e-01
*ELEMENT, TYPE=SPRINGA, ELSET=WK_363
   16951,    13711,    18204
*SPRING, ELSET=WK_363

1.743115e-01
*ELEMENT, TYPE=SPRINGA, ELSET=WK_364
   16952,    13714,    18205
*SPRING, ELSET=WK_364

1.743115e-01
*ELEMENT, TYPE=SPRINGA, ELSET=WK_365
   16953,    13717,    18206
*SPRING, ELSET=WK_365

1.743115e-01
*ELEMENT, TYPE=SPRINGA, ELSET=WK_366
   16954,    13720,    18207
*SPRING, ELSET=WK_366

1.743115e-01
*ELEMENT, TYPE=SPRINGA, ELSET=WK_367
   16955,    13723,    18208
*SPRING, ELSET=WK_367

1.743115e-01
*ELEMENT, TYPE=SPRINGA, ELSET=WK_368
   16956,    13726,    18209
*SPRING, ELSET=WK_368

1.743115e-01
*ELEMENT, TYPE=SPRINGA, ELSET=WK_369
   16957,    13729,    18210
*SPRING, ELSET=WK_369

1.743115e-01
*ELEMENT, TYPE=SPRINGA, ELSET=WK_370
   16958,    13732,    18211
*SPRING, ELSET=WK_370

1.743115e-01
*ELEMENT, TYPE=SPRINGA, ELSET=WK_371
   16959,    13735,    18212
*SPRING, ELSET=WK_371

1.743115e-01
*ELEMENT, TYPE=SPRINGA, ELSET=WK_372
   16960,    13738,    18213
*SPRING, ELSET=WK_372

1.743115e-01
*ELEMENT, TYPE=SPRINGA, ELSET=WK_373
   16961,    13741,    18214
*SPRING, ELSET=WK_373

1.743115e-01
*ELEMENT, TYPE=SPRINGA, ELSET=WK_374
   16962,    13744,    18215
*SPRING, ELSET=WK_374

1.743115e-01
*ELEMENT, TYPE=SPRINGA, ELSET=WK_375
   16963,    13747,    18216
*SPRING, ELSET=WK_375

1.743115e-01
*ELEMENT, TYPE=SPRINGA, ELSET=WK_376
   16964,    13750,    18217
*SPRING, ELSET=WK_376

1.743115e-01
*ELEMENT, TYPE=SPRINGA, ELSET=WK_377
   16965,    13753,    18218
*SPRING, ELSET=WK_377

1.743115e-01
*ELEMENT, TYPE=SPRINGA, ELSET=WK_378
   16966,    13756,    18219
*SPRING, ELSET=WK_378

1.743115e-01
*ELEMENT, TYPE=SPRINGA, ELSET=WK_379
   16967,    13759,    18220
*SPRING, ELSET=WK_379

1.743115e-01
*ELEMENT, TYPE=SPRINGA, ELSET=WK_380
   16968,    13762,    18221
*SPRING, ELSET=WK_380

1.743115e-01
*ELEMENT, TYPE=SPRINGA, ELSET=WK_381
   16969,    13765,    18222
*SPRING, ELSET=WK_381

1.743115e-01
*ELEMENT, TYPE=SPRINGA, ELSET=WK_382
   16970,    13768,    18223
*SPRING, ELSET=WK_382

1.743115e-01
*ELEMENT, TYPE=SPRINGA, ELSET=WK_383
   16971,    13771,    18224
*SPRING, ELSET=WK_383

1.743115e-01
*ELEMENT, TYPE=SPRINGA, ELSET=WK_384
   16972,    13774,    18225
*SPRING, ELSET=WK_384

1.743115e-01
*ELEMENT, TYPE=SPRINGA, ELSET=WK_385
   16973,    13777,    18226
*SPRING, ELSET=WK_385

1.743115e-01
*ELEMENT, TYPE=SPRINGA, ELSET=WK_386
   16974,    13780,    18227
*SPRING, ELSET=WK_386

1.743115e-01
*ELEMENT, TYPE=SPRINGA, ELSET=WK_387
   16975,    13783,    18228
*SPRING, ELSET=WK_387

1.743115e-01
*ELEMENT, TYPE=SPRINGA, ELSET=WK_388
   16976,    13786,    18229
*SPRING, ELSET=WK_388

1.743115e-01
*ELEMENT, TYPE=SPRINGA, ELSET=WK_389
   16977,    13789,    18230
*SPRING, ELSET=WK_389

1.743115e-01
*ELEMENT, TYPE=SPRINGA, ELSET=WK_390
   16978,    13792,    18231
*SPRING, ELSET=WK_390

1.743115e-01
*ELEMENT, TYPE=SPRINGA, ELSET=WK_391
   16979,    13795,    18232
*SPRING, ELSET=WK_391

1.743115e-01
*ELEMENT, TYPE=SPRINGA, ELSET=WK_392
   16980,    13798,    18233
*SPRING, ELSET=WK_392

1.743115e-01
*ELEMENT, TYPE=SPRINGA, ELSET=WK_393
   16981,    13801,    18234
*SPRING, ELSET=WK_393

1.743115e-01
*ELEMENT, TYPE=SPRINGA, ELSET=WK_394
   16982,    13804,    18235
*SPRING, ELSET=WK_394

1.743115e-01
*ELEMENT, TYPE=SPRINGA, ELSET=WK_395
   16983,    13807,    18236
*SPRING, ELSET=WK_395

1.743115e-01
*ELEMENT, TYPE=SPRINGA, ELSET=WK_396
   16984,    13810,    18237
*SPRING, ELSET=WK_396

1.743115e-01
*ELEMENT, TYPE=SPRINGA, ELSET=WK_397
   16985,    13813,    18238
*SPRING, ELSET=WK_397

1.743115e-01
*ELEMENT, TYPE=SPRINGA, ELSET=WK_398
   16986,    13816,    18239
*SPRING, ELSET=WK_398

1.743115e-01
*ELEMENT, TYPE=SPRINGA, ELSET=WK_399
   16987,    13819,    18240
*SPRING, ELSET=WK_399

1.743115e-01
*ELEMENT, TYPE=SPRINGA, ELSET=WK_400
   16988,    13822,    18241
*SPRING, ELSET=WK_400

1.743115e-01
*ELEMENT, TYPE=SPRINGA, ELSET=WK_401
   16989,    13825,    18242
*SPRING, ELSET=WK_401

1.743115e-01
*ELEMENT, TYPE=SPRINGA, ELSET=WK_402
   16990,    13828,    18243
*SPRING, ELSET=WK_402

1.743115e-01
*ELEMENT, TYPE=SPRINGA, ELSET=WK_403
   16991,    13831,    18244
*SPRING, ELSET=WK_403

1.743115e-01
*ELEMENT, TYPE=SPRINGA, ELSET=WK_404
   16992,    13834,    18245
*SPRING, ELSET=WK_404

1.743115e-01
*ELEMENT, TYPE=SPRINGA, ELSET=WK_405
   16993,    13837,    18246
*SPRING, ELSET=WK_405

1.743115e-01
*ELEMENT, TYPE=SPRINGA, ELSET=WK_406
   16994,    13840,    18247
*SPRING, ELSET=WK_406

1.743115e-01
*ELEMENT, TYPE=SPRINGA, ELSET=WK_407
   16995,    13843,    18248
*SPRING, ELSET=WK_407

1.743115e-01
*ELEMENT, TYPE=SPRINGA, ELSET=WK_408
   16996,    13846,    18249
*SPRING, ELSET=WK_408

1.743115e-01
*ELEMENT, TYPE=SPRINGA, ELSET=WK_409
   16997,    13849,    18250
*SPRING, ELSET=WK_409

1.743115e-01
*ELEMENT, TYPE=SPRINGA, ELSET=WK_410
   16998,    13852,    18251
*SPRING, ELSET=WK_410

1.743115e-01
*ELEMENT, TYPE=SPRINGA, ELSET=WK_411
   16999,    13855,    18252
*SPRING, ELSET=WK_411

1.743115e-01
*ELEMENT, TYPE=SPRINGA, ELSET=WK_412
   17000,    13858,    18253
*SPRING, ELSET=WK_412

1.743115e-01
*ELEMENT, TYPE=SPRINGA, ELSET=WK_413
   17001,    13861,    18254
*SPRING, ELSET=WK_413

1.743115e-01
*ELEMENT, TYPE=SPRINGA, ELSET=WK_414
   17002,    13864,    18255
*SPRING, ELSET=WK_414

8.715574e-02
*ELEMENT, TYPE=SPRINGA, ELSET=WK_415
   17003,    13867,    18256
*SPRING, ELSET=WK_415

8.715574e-02
*ELEMENT, TYPE=SPRINGA, ELSET=WK_416
   17004,    13870,    18257
*SPRING, ELSET=WK_416

8.715574e-02
*ELEMENT, TYPE=SPRINGA, ELSET=WK_417
   17005,    13873,    18258
*SPRING, ELSET=WK_417

8.715574e-02
*ELEMENT, TYPE=SPRINGA, ELSET=WK_418
   17006,    13876,    18259
*SPRING, ELSET=WK_418

8.715574e-02
*ELEMENT, TYPE=SPRINGA, ELSET=WK_419
   17007,    13879,    18260
*SPRING, ELSET=WK_419

8.715574e-02
*ELEMENT, TYPE=SPRINGA, ELSET=WK_420
   17008,    13882,    18261
*SPRING, ELSET=WK_420

8.715574e-02
*ELEMENT, TYPE=SPRINGA, ELSET=WK_421
   17009,    13885,    18262
*SPRING, ELSET=WK_421

8.715574e-02
*ELEMENT, TYPE=SPRINGA, ELSET=WK_422
   17010,    13888,    18263
*SPRING, ELSET=WK_422

8.715574e-02
*ELEMENT, TYPE=SPRINGA, ELSET=WK_423
   17011,    13891,    18264
*SPRING, ELSET=WK_423

8.715574e-02
*ELEMENT, TYPE=SPRINGA, ELSET=WK_424
   17012,    13894,    18265
*SPRING, ELSET=WK_424

8.715574e-02
*ELEMENT, TYPE=SPRINGA, ELSET=WK_425
   17013,    13897,    18266
*SPRING, ELSET=WK_425

8.715574e-02
*ELEMENT, TYPE=SPRINGA, ELSET=WK_426
   17014,    13900,    18267
*SPRING, ELSET=WK_426

8.715574e-02
*ELEMENT, TYPE=SPRINGA, ELSET=WK_427
   17015,    13903,    18268
*SPRING, ELSET=WK_427

8.715574e-02
*ELEMENT, TYPE=SPRINGA, ELSET=WK_428
   17016,    13906,    18269
*SPRING, ELSET=WK_428

8.715574e-02
*ELEMENT, TYPE=SPRINGA, ELSET=WK_429
   17017,    13909,    18270
*SPRING, ELSET=WK_429

8.715574e-02
*ELEMENT, TYPE=SPRINGA, ELSET=WK_430
   17018,    13912,    18271
*SPRING, ELSET=WK_430

8.715574e-02
*ELEMENT, TYPE=SPRINGA, ELSET=WK_431
   17019,    13915,    18272
*SPRING, ELSET=WK_431

1.743115e-01
*ELEMENT, TYPE=SPRINGA, ELSET=WK_432
   17020,    13918,    18273
*SPRING, ELSET=WK_432

1.743115e-01
*ELEMENT, TYPE=SPRINGA, ELSET=WK_433
   17021,    13921,    18274
*SPRING, ELSET=WK_433

1.743115e-01
*ELEMENT, TYPE=SPRINGA, ELSET=WK_434
   17022,    13924,    18275
*SPRING, ELSET=WK_434

1.743115e-01
*ELEMENT, TYPE=SPRINGA, ELSET=WK_435
   17023,    13927,    18276
*SPRING, ELSET=WK_435

1.743115e-01
*ELEMENT, TYPE=SPRINGA, ELSET=WK_436
   17024,    13930,    18277
*SPRING, ELSET=WK_436

1.743115e-01
*ELEMENT, TYPE=SPRINGA, ELSET=WK_437
   17025,    13933,    18278
*SPRING, ELSET=WK_437

1.743115e-01
*ELEMENT, TYPE=SPRINGA, ELSET=WK_438
   17026,    13936,    18279
*SPRING, ELSET=WK_438

1.743115e-01
*ELEMENT, TYPE=SPRINGA, ELSET=WK_439
   17027,    13939,    18280
*SPRING, ELSET=WK_439

1.743115e-01
*ELEMENT, TYPE=SPRINGA, ELSET=WK_440
   17028,    13942,    18281
*SPRING, ELSET=WK_440

1.743115e-01
*ELEMENT, TYPE=SPRINGA, ELSET=WK_441
   17029,    13945,    18282
*SPRING, ELSET=WK_441

1.743115e-01
*ELEMENT, TYPE=SPRINGA, ELSET=WK_442
   17030,    13948,    18283
*SPRING, ELSET=WK_442

1.743115e-01
*ELEMENT, TYPE=SPRINGA, ELSET=WK_443
   17031,    13951,    18284
*SPRING, ELSET=WK_443

1.743115e-01
*ELEMENT, TYPE=SPRINGA, ELSET=WK_444
   17032,    13954,    18285
*SPRING, ELSET=WK_444

1.743115e-01
*ELEMENT, TYPE=SPRINGA, ELSET=WK_445
   17033,    13957,    18286
*SPRING, ELSET=WK_445

1.743115e-01
*ELEMENT, TYPE=SPRINGA, ELSET=WK_446
   17034,    13960,    18287
*SPRING, ELSET=WK_446

1.743115e-01
*ELEMENT, TYPE=SPRINGA, ELSET=WK_447
   17035,    13963,    18288
*SPRING, ELSET=WK_447

1.743115e-01
*ELEMENT, TYPE=SPRINGA, ELSET=WK_448
   17036,    13966,    18289
*SPRING, ELSET=WK_448

1.743115e-01
*ELEMENT, TYPE=SPRINGA, ELSET=WK_449
   17037,    13969,    18290
*SPRING, ELSET=WK_449

1.743115e-01
*ELEMENT, TYPE=SPRINGA, ELSET=WK_450
   17038,    13972,    18291
*SPRING, ELSET=WK_450

1.743115e-01
*ELEMENT, TYPE=SPRINGA, ELSET=WK_451
   17039,    13975,    18292
*SPRING, ELSET=WK_451

1.743115e-01
*ELEMENT, TYPE=SPRINGA, ELSET=WK_452
   17040,    13978,    18293
*SPRING, ELSET=WK_452

1.743115e-01
*ELEMENT, TYPE=SPRINGA, ELSET=WK_453
   17041,    13981,    18294
*SPRING, ELSET=WK_453

1.743115e-01
*ELEMENT, TYPE=SPRINGA, ELSET=WK_454
   17042,    13984,    18295
*SPRING, ELSET=WK_454

1.743115e-01
*ELEMENT, TYPE=SPRINGA, ELSET=WK_455
   17043,    13987,    18296
*SPRING, ELSET=WK_455

1.743115e-01
*ELEMENT, TYPE=SPRINGA, ELSET=WK_456
   17044,    13990,    18297
*SPRING, ELSET=WK_456

1.743115e-01
*ELEMENT, TYPE=SPRINGA, ELSET=WK_457
   17045,    13993,    18298
*SPRING, ELSET=WK_457

1.743115e-01
*ELEMENT, TYPE=SPRINGA, ELSET=WK_458
   17046,    13996,    18299
*SPRING, ELSET=WK_458

1.743115e-01
*ELEMENT, TYPE=SPRINGA, ELSET=WK_459
   17047,    13999,    18300
*SPRING, ELSET=WK_459

1.743115e-01
*ELEMENT, TYPE=SPRINGA, ELSET=WK_460
   17048,    14002,    18301
*SPRING, ELSET=WK_460

1.743115e-01
*ELEMENT, TYPE=SPRINGA, ELSET=WK_461
   17049,    14005,    18302
*SPRING, ELSET=WK_461

1.743115e-01
*ELEMENT, TYPE=SPRINGA, ELSET=WK_462
   17050,    14008,    18303
*SPRING, ELSET=WK_462

1.743115e-01
*ELEMENT, TYPE=SPRINGA, ELSET=WK_463
   17051,    14011,    18304
*SPRING, ELSET=WK_463

1.743115e-01
*ELEMENT, TYPE=SPRINGA, ELSET=WK_464
   17052,    14014,    18305
*SPRING, ELSET=WK_464

1.743115e-01
*ELEMENT, TYPE=SPRINGA, ELSET=WK_465
   17053,    14017,    18306
*SPRING, ELSET=WK_465

1.743115e-01
*ELEMENT, TYPE=SPRINGA, ELSET=WK_466
   17054,    14020,    18307
*SPRING, ELSET=WK_466

1.743115e-01
*ELEMENT, TYPE=SPRINGA, ELSET=WK_467
   17055,    14023,    18308
*SPRING, ELSET=WK_467

1.743115e-01
*ELEMENT, TYPE=SPRINGA, ELSET=WK_468
   17056,    14026,    18309
*SPRING, ELSET=WK_468

1.743115e-01
*ELEMENT, TYPE=SPRINGA, ELSET=WK_469
   17057,    14029,    18310
*SPRING, ELSET=WK_469

1.743115e-01
*ELEMENT, TYPE=SPRINGA, ELSET=WK_470
   17058,    14032,    18311
*SPRING, ELSET=WK_470

1.743115e-01
*ELEMENT, TYPE=SPRINGA, ELSET=WK_471
   17059,    14035,    18312
*SPRING, ELSET=WK_471

1.743115e-01
*ELEMENT, TYPE=SPRINGA, ELSET=WK_472
   17060,    14038,    18313
*SPRING, ELSET=WK_472

1.743115e-01
*ELEMENT, TYPE=SPRINGA, ELSET=WK_473
   17061,    14041,    18314
*SPRING, ELSET=WK_473

1.743115e-01
*ELEMENT, TYPE=SPRINGA, ELSET=WK_474
   17062,    14044,    18315
*SPRING, ELSET=WK_474

1.743115e-01
*ELEMENT, TYPE=SPRINGA, ELSET=WK_475
   17063,    14047,    18316
*SPRING, ELSET=WK_475

1.743115e-01
*ELEMENT, TYPE=SPRINGA, ELSET=WK_476
   17064,    14050,    18317
*SPRING, ELSET=WK_476

1.743115e-01
*ELEMENT, TYPE=SPRINGA, ELSET=WK_477
   17065,    14053,    18318
*SPRING, ELSET=WK_477

1.743115e-01
*ELEMENT, TYPE=SPRINGA, ELSET=WK_478
   17066,    14056,    18319
*SPRING, ELSET=WK_478

1.743115e-01
*ELEMENT, TYPE=SPRINGA, ELSET=WK_479
   17067,    14059,    18320
*SPRING, ELSET=WK_479

1.743115e-01
*ELEMENT, TYPE=SPRINGA, ELSET=WK_480
   17068,    14062,    18321
*SPRING, ELSET=WK_480

1.743115e-01
*ELEMENT, TYPE=SPRINGA, ELSET=WK_481
   17069,    14065,    18322
*SPRING, ELSET=WK_481

1.743115e-01
*ELEMENT, TYPE=SPRINGA, ELSET=WK_482
   17070,    14068,    18323
*SPRING, ELSET=WK_482

1.743115e-01
*ELEMENT, TYPE=SPRINGA, ELSET=WK_483
   17071,    14071,    18324
*SPRING, ELSET=WK_483

1.743115e-01
*ELEMENT, TYPE=SPRINGA, ELSET=WK_484
   17072,    14074,    18325
*SPRING, ELSET=WK_484

1.743115e-01
*ELEMENT, TYPE=SPRINGA, ELSET=WK_485
   17073,    14077,    18326
*SPRING, ELSET=WK_485

1.743115e-01
*ELEMENT, TYPE=SPRINGA, ELSET=WK_486
   17074,    14080,    18327
*SPRING, ELSET=WK_486

1.743115e-01
*ELEMENT, TYPE=SPRINGA, ELSET=WK_487
   17075,    14083,    18328
*SPRING, ELSET=WK_487

1.743115e-01
*ELEMENT, TYPE=SPRINGA, ELSET=WK_488
   17076,    14086,    18329
*SPRING, ELSET=WK_488

1.743115e-01
*ELEMENT, TYPE=SPRINGA, ELSET=WK_489
   17077,    14089,    18330
*SPRING, ELSET=WK_489

1.743115e-01
*ELEMENT, TYPE=SPRINGA, ELSET=WK_490
   17078,    14092,    18331
*SPRING, ELSET=WK_490

1.743115e-01
*ELEMENT, TYPE=SPRINGA, ELSET=WK_491
   17079,    14095,    18332
*SPRING, ELSET=WK_491

1.743115e-01
*ELEMENT, TYPE=SPRINGA, ELSET=WK_492
   17080,    14098,    18333
*SPRING, ELSET=WK_492

1.743115e-01
*ELEMENT, TYPE=SPRINGA, ELSET=WK_493
   17081,    14101,    18334
*SPRING, ELSET=WK_493

1.743115e-01
*ELEMENT, TYPE=SPRINGA, ELSET=WK_494
   17082,    14104,    18335
*SPRING, ELSET=WK_494

1.743115e-01
*ELEMENT, TYPE=SPRINGA, ELSET=WK_495
   17083,    14107,    18336
*SPRING, ELSET=WK_495

1.743115e-01
*ELEMENT, TYPE=SPRINGA, ELSET=WK_496
   17084,    14110,    18337
*SPRING, ELSET=WK_496

1.743115e-01
*ELEMENT, TYPE=SPRINGA, ELSET=WK_497
   17085,    14113,    18338
*SPRING, ELSET=WK_497

1.743115e-01
*ELEMENT, TYPE=SPRINGA, ELSET=WK_498
   17086,    14116,    18339
*SPRING, ELSET=WK_498

1.743115e-01
*ELEMENT, TYPE=SPRINGA, ELSET=WK_499
   17087,    14119,    18340
*SPRING, ELSET=WK_499

1.743115e-01
*ELEMENT, TYPE=SPRINGA, ELSET=WK_500
   17088,    14122,    18341
*SPRING, ELSET=WK_500

1.743115e-01
*ELEMENT, TYPE=SPRINGA, ELSET=WK_501
   17089,    14125,    18342
*SPRING, ELSET=WK_501

1.743115e-01
*ELEMENT, TYPE=SPRINGA, ELSET=WK_502
   17090,    14128,    18343
*SPRING, ELSET=WK_502

1.743115e-01
*ELEMENT, TYPE=SPRINGA, ELSET=WK_503
   17091,    14131,    18344
*SPRING, ELSET=WK_503

1.743115e-01
*ELEMENT, TYPE=SPRINGA, ELSET=WK_504
   17092,    14134,    18345
*SPRING, ELSET=WK_504

1.743115e-01
*ELEMENT, TYPE=SPRINGA, ELSET=WK_505
   17093,    14137,    18346
*SPRING, ELSET=WK_505

1.743115e-01
*ELEMENT, TYPE=SPRINGA, ELSET=WK_506
   17094,    14140,    18347
*SPRING, ELSET=WK_506

1.743115e-01
*ELEMENT, TYPE=SPRINGA, ELSET=WK_507
   17095,    14143,    18348
*SPRING, ELSET=WK_507

1.743115e-01
*ELEMENT, TYPE=SPRINGA, ELSET=WK_508
   17096,    14146,    18349
*SPRING, ELSET=WK_508

1.743115e-01
*ELEMENT, TYPE=SPRINGA, ELSET=WK_509
   17097,    14149,    18350
*SPRING, ELSET=WK_509

1.743115e-01
*ELEMENT, TYPE=SPRINGA, ELSET=WK_510
   17098,    14152,    18351
*SPRING, ELSET=WK_510

1.743115e-01
*ELEMENT, TYPE=SPRINGA, ELSET=WK_511
   17099,    14155,    18352
*SPRING, ELSET=WK_511

1.743115e-01
*ELEMENT, TYPE=SPRINGA, ELSET=WK_512
   17100,    14158,    18353
*SPRING, ELSET=WK_512

1.743115e-01
*ELEMENT, TYPE=SPRINGA, ELSET=WK_513
   17101,    14161,    18354
*SPRING, ELSET=WK_513

1.743115e-01
*ELEMENT, TYPE=SPRINGA, ELSET=WK_514
   17102,    14164,    18355
*SPRING, ELSET=WK_514

1.743115e-01
*ELEMENT, TYPE=SPRINGA, ELSET=WK_515
   17103,    14167,    18356
*SPRING, ELSET=WK_515

1.743115e-01
*ELEMENT, TYPE=SPRINGA, ELSET=WK_516
   17104,    14170,    18357
*SPRING, ELSET=WK_516

1.743115e-01
*ELEMENT, TYPE=SPRINGA, ELSET=WK_517
   17105,    14173,    18358
*SPRING, ELSET=WK_517

1.743115e-01
*ELEMENT, TYPE=SPRINGA, ELSET=WK_518
   17106,    14176,    18359
*SPRING, ELSET=WK_518

1.743115e-01
*ELEMENT, TYPE=SPRINGA, ELSET=WK_519
   17107,    14179,    18360
*SPRING, ELSET=WK_519

1.743115e-01
*ELEMENT, TYPE=SPRINGA, ELSET=WK_520
   17108,    14182,    18361
*SPRING, ELSET=WK_520

1.743115e-01
*ELEMENT, TYPE=SPRINGA, ELSET=WK_521
   17109,    14185,    18362
*SPRING, ELSET=WK_521

1.743115e-01
*ELEMENT, TYPE=SPRINGA, ELSET=WK_522
   17110,    14188,    18363
*SPRING, ELSET=WK_522

1.743115e-01
*ELEMENT, TYPE=SPRINGA, ELSET=WK_523
   17111,    14191,    18364
*SPRING, ELSET=WK_523

1.743115e-01
*ELEMENT, TYPE=SPRINGA, ELSET=WK_524
   17112,    14194,    18365
*SPRING, ELSET=WK_524

1.743115e-01
*ELEMENT, TYPE=SPRINGA, ELSET=WK_525
   17113,    14197,    18366
*SPRING, ELSET=WK_525

1.743115e-01
*ELEMENT, TYPE=SPRINGA, ELSET=WK_526
   17114,    14200,    18367
*SPRING, ELSET=WK_526

1.743115e-01
*ELEMENT, TYPE=SPRINGA, ELSET=WK_527
   17115,    14203,    18368
*SPRING, ELSET=WK_527

1.743115e-01
*ELEMENT, TYPE=SPRINGA, ELSET=WK_528
   17116,    14206,    18369
*SPRING, ELSET=WK_528

1.743115e-01
*ELEMENT, TYPE=SPRINGA, ELSET=WK_529
   17117,    14209,    18370
*SPRING, ELSET=WK_529

1.743115e-01
*ELEMENT, TYPE=SPRINGA, ELSET=WK_530
   17118,    14212,    18371
*SPRING, ELSET=WK_530

1.743115e-01
*ELEMENT, TYPE=SPRINGA, ELSET=WK_531
   17119,    14215,    18372
*SPRING, ELSET=WK_531

1.743115e-01
*ELEMENT, TYPE=SPRINGA, ELSET=WK_532
   17120,    14218,    18373
*SPRING, ELSET=WK_532

1.743115e-01
*ELEMENT, TYPE=SPRINGA, ELSET=WK_533
   17121,    14221,    18374
*SPRING, ELSET=WK_533

1.743115e-01
*ELEMENT, TYPE=SPRINGA, ELSET=WK_534
   17122,    14224,    18375
*SPRING, ELSET=WK_534

1.743115e-01
*ELEMENT, TYPE=SPRINGA, ELSET=WK_535
   17123,    14227,    18376
*SPRING, ELSET=WK_535

1.743115e-01
*ELEMENT, TYPE=SPRINGA, ELSET=WK_536
   17124,    14230,    18377
*SPRING, ELSET=WK_536

1.743115e-01
*ELEMENT, TYPE=SPRINGA, ELSET=WK_537
   17125,    14233,    18378
*SPRING, ELSET=WK_537

1.743115e-01
*ELEMENT, TYPE=SPRINGA, ELSET=WK_538
   17126,    14236,    18379
*SPRING, ELSET=WK_538

1.743115e-01
*ELEMENT, TYPE=SPRINGA, ELSET=WK_539
   17127,    14239,    18380
*SPRING, ELSET=WK_539

1.743115e-01
*ELEMENT, TYPE=SPRINGA, ELSET=WK_540
   17128,    14242,    18381
*SPRING, ELSET=WK_540

1.743115e-01
*ELEMENT, TYPE=SPRINGA, ELSET=WK_541
   17129,    14245,    18382
*SPRING, ELSET=WK_541

1.743115e-01
*ELEMENT, TYPE=SPRINGA, ELSET=WK_542
   17130,    14248,    18383
*SPRING, ELSET=WK_542

1.743115e-01
*ELEMENT, TYPE=SPRINGA, ELSET=WK_543
   17131,    14251,    18384
*SPRING, ELSET=WK_543

8.715574e-02
*ELEMENT, TYPE=SPRINGA, ELSET=WK_544
   17132,    14254,    18385
*SPRING, ELSET=WK_544

8.715574e-02
*ELEMENT, TYPE=SPRINGA, ELSET=WK_545
   17133,    14257,    18386
*SPRING, ELSET=WK_545

8.715574e-02
*ELEMENT, TYPE=SPRINGA, ELSET=WK_546
   17134,    14260,    18387
*SPRING, ELSET=WK_546

8.715574e-02
*ELEMENT, TYPE=SPRINGA, ELSET=WK_547
   17135,    14263,    18388
*SPRING, ELSET=WK_547

8.715574e-02
*ELEMENT, TYPE=SPRINGA, ELSET=WK_548
   17136,    14266,    18389
*SPRING, ELSET=WK_548

8.715574e-02
*ELEMENT, TYPE=SPRINGA, ELSET=WK_549
   17137,    14269,    18390
*SPRING, ELSET=WK_549

8.715574e-02
*ELEMENT, TYPE=SPRINGA, ELSET=WK_550
   17138,    14272,    18391
*SPRING, ELSET=WK_550

8.715574e-02
*BOUNDARY
GHOST_WINKLER, 1, 3, 0
