** Winkler foundation springs em dura_outer (excluindo perturbation_strip)
** Gerado automaticamente por foam_polymesh_to_ccx_inp.py
** k_winkler = 2.000e+05 Pa/m, 249 springs
*NODE, NSET=GHOST_WINKLER
    6566,  1.76847411e-03, -1.76847411e-03,  0.00000000e+00
    6567,  2.16592956e-03, -1.25050002e-03,  0.00000000e+00
    6568,  2.41578050e-03, -6.47306439e-04,  0.00000000e+00
    6569,  2.50100000e-03,  2.22133423e-19,  0.00000000e+00
    6570,  2.41578050e-03,  6.47306439e-04,  0.00000000e+00
    6571,  2.16592956e-03,  1.25050002e-03,  0.00000000e+00
    6572,  1.76847411e-03,  1.76847411e-03,  0.00000000e+00
    6573,  1.76847411e-03, -1.76847411e-03,  3.00000000e-03
    6574,  2.16592956e-03, -1.25050002e-03,  3.00000000e-03
    6575,  2.41578050e-03, -6.47306439e-04,  3.00000000e-03
    6576,  2.50100000e-03,  2.22133423e-19,  3.00000000e-03
    6577,  2.41578050e-03,  6.47306439e-04,  3.00000000e-03
    6578,  2.16592956e-03,  1.25050002e-03,  3.00000000e-03
    6579,  1.76847411e-03,  1.76847411e-03,  3.00000000e-03
    6580,  1.76847411e-03, -1.76847411e-03,  6.00000000e-03
    6581,  2.16592956e-03, -1.25050002e-03,  6.00000000e-03
    6582,  2.41578050e-03, -6.47306439e-04,  6.00000000e-03
    6583,  2.50100000e-03,  2.22133423e-19,  6.00000000e-03
    6584,  2.41578050e-03,  6.47306439e-04,  6.00000000e-03
    6585,  2.16592956e-03,  1.25050002e-03,  6.00000000e-03
    6586,  1.76847411e-03,  1.76847411e-03,  6.00000000e-03
    6587,  1.76847411e-03, -1.76847411e-03,  9.00000000e-03
    6588,  2.16592956e-03, -1.25050002e-03,  9.00000000e-03
    6589,  2.16592956e-03,  1.25050002e-03,  9.00000000e-03
    6590,  1.76847411e-03,  1.76847411e-03,  9.00000000e-03
    6591,  1.76847411e-03, -1.76847411e-03,  1.20000000e-02
    6592,  2.16592956e-03, -1.25050002e-03,  1.20000000e-02
    6593,  2.16592956e-03,  1.25050002e-03,  1.20000000e-02
    6594,  1.76847411e-03,  1.76847411e-03,  1.20000000e-02
    6595,  1.76847411e-03, -1.76847411e-03,  1.50000000e-02
    6596,  2.16592956e-03, -1.25050002e-03,  1.50000000e-02
    6597,  2.16592956e-03,  1.25050002e-03,  1.50000000e-02
    6598,  1.76847411e-03,  1.76847411e-03,  1.50000000e-02
    6599,  1.76847411e-03, -1.76847411e-03,  1.80000000e-02
    6600,  2.16592956e-03, -1.25050002e-03,  1.80000000e-02
    6601,  2.16592956e-03,  1.25050002e-03,  1.80000000e-02
    6602,  1.76847411e-03,  1.76847411e-03,  1.80000000e-02
    6603,  1.76847411e-03, -1.76847411e-03,  2.10000000e-02
    6604,  2.16592956e-03, -1.25050002e-03,  2.10000000e-02
    6605,  2.16592956e-03,  1.25050002e-03,  2.10000000e-02
    6606,  1.76847411e-03,  1.76847411e-03,  2.10000000e-02
    6607,  1.76847411e-03, -1.76847411e-03,  2.40000000e-02
    6608,  2.16592956e-03, -1.25050002e-03,  2.40000000e-02
    6609,  2.41578050e-03, -6.47306439e-04,  2.40000000e-02
    6610,  2.50100000e-03,  2.22133423e-19,  2.40000000e-02
    6611,  2.41578050e-03,  6.47306439e-04,  2.40000000e-02
    6612,  2.16592956e-03,  1.25050002e-03,  2.40000000e-02
    6613,  1.76847411e-03,  1.76847411e-03,  2.40000000e-02
    6614,  1.76847411e-03, -1.76847411e-03,  2.70000000e-02
    6615,  2.16592956e-03, -1.25050002e-03,  2.70000000e-02
    6616,  2.41578050e-03, -6.47306439e-04,  2.70000000e-02
    6617,  2.50100000e-03,  2.22133423e-19,  2.70000000e-02
    6618,  2.41578050e-03,  6.47306439e-04,  2.70000000e-02
    6619,  2.16592956e-03,  1.25050002e-03,  2.70000000e-02
    6620,  1.76847411e-03,  1.76847411e-03,  2.70000000e-02
    6621,  1.76847411e-03, -1.76847411e-03,  3.00000000e-02
    6622,  2.16592956e-03, -1.25050002e-03,  3.00000000e-02
    6623,  2.41578050e-03, -6.47306439e-04,  3.00000000e-02
    6624,  2.50100000e-03,  2.22133423e-19,  3.00000000e-02
    6625,  2.41578050e-03,  6.47306439e-04,  3.00000000e-02
    6626,  2.16592956e-03,  1.25050002e-03,  3.00000000e-02
    6627,  1.76847411e-03,  1.76847411e-03,  3.00000000e-02
    6628,  1.25050002e-03,  2.16592956e-03,  0.00000000e+00
    6629,  6.47306439e-04,  2.41578050e-03,  0.00000000e+00
    6630,  2.22133423e-19,  2.50100000e-03,  0.00000000e+00
    6631, -6.47306439e-04,  2.41578050e-03,  0.00000000e+00
    6632, -1.25050002e-03,  2.16592956e-03,  0.00000000e+00
    6633, -1.76847411e-03,  1.76847411e-03,  0.00000000e+00
    6634,  1.25050002e-03,  2.16592956e-03,  3.00000000e-03
    6635,  6.47306439e-04,  2.41578050e-03,  3.00000000e-03
    6636,  2.22133423e-19,  2.50100000e-03,  3.00000000e-03
    6637, -6.47306439e-04,  2.41578050e-03,  3.00000000e-03
    6638, -1.25050002e-03,  2.16592956e-03,  3.00000000e-03
    6639, -1.76847411e-03,  1.76847411e-03,  3.00000000e-03
    6640,  1.25050002e-03,  2.16592956e-03,  6.00000000e-03
    6641,  6.47306439e-04,  2.41578050e-03,  6.00000000e-03
    6642,  2.22133423e-19,  2.50100000e-03,  6.00000000e-03
    6643, -6.47306439e-04,  2.41578050e-03,  6.00000000e-03
    6644, -1.25050002e-03,  2.16592956e-03,  6.00000000e-03
    6645, -1.76847411e-03,  1.76847411e-03,  6.00000000e-03
    6646,  1.25050002e-03,  2.16592956e-03,  9.00000000e-03
    6647,  6.47306439e-04,  2.41578050e-03,  9.00000000e-03
    6648,  2.22133423e-19,  2.50100000e-03,  9.00000000e-03
    6649, -6.47306439e-04,  2.41578050e-03,  9.00000000e-03
    6650, -1.25050002e-03,  2.16592956e-03,  9.00000000e-03
    6651, -1.76847411e-03,  1.76847411e-03,  9.00000000e-03
    6652,  1.25050002e-03,  2.16592956e-03,  1.20000000e-02
    6653,  6.47306439e-04,  2.41578050e-03,  1.20000000e-02
    6654,  2.22133423e-19,  2.50100000e-03,  1.20000000e-02
    6655, -6.47306439e-04,  2.41578050e-03,  1.20000000e-02
    6656, -1.25050002e-03,  2.16592956e-03,  1.20000000e-02
    6657, -1.76847411e-03,  1.76847411e-03,  1.20000000e-02
    6658,  1.25050002e-03,  2.16592956e-03,  1.50000000e-02
    6659,  6.47306439e-04,  2.41578050e-03,  1.50000000e-02
    6660,  2.22133423e-19,  2.50100000e-03,  1.50000000e-02
    6661, -6.47306439e-04,  2.41578050e-03,  1.50000000e-02
    6662, -1.25050002e-03,  2.16592956e-03,  1.50000000e-02
    6663, -1.76847411e-03,  1.76847411e-03,  1.50000000e-02
    6664,  1.25050002e-03,  2.16592956e-03,  1.80000000e-02
    6665,  6.47306439e-04,  2.41578050e-03,  1.80000000e-02
    6666,  2.22133423e-19,  2.50100000e-03,  1.80000000e-02
    6667, -6.47306439e-04,  2.41578050e-03,  1.80000000e-02
    6668, -1.25050002e-03,  2.16592956e-03,  1.80000000e-02
    6669, -1.76847411e-03,  1.76847411e-03,  1.80000000e-02
    6670,  1.25050002e-03,  2.16592956e-03,  2.10000000e-02
    6671,  6.47306439e-04,  2.41578050e-03,  2.10000000e-02
    6672,  2.22133423e-19,  2.50100000e-03,  2.10000000e-02
    6673, -6.47306439e-04,  2.41578050e-03,  2.10000000e-02
    6674, -1.25050002e-03,  2.16592956e-03,  2.10000000e-02
    6675, -1.76847411e-03,  1.76847411e-03,  2.10000000e-02
    6676,  1.25050002e-03,  2.16592956e-03,  2.40000000e-02
    6677,  6.47306439e-04,  2.41578050e-03,  2.40000000e-02
    6678,  2.22133423e-19,  2.50100000e-03,  2.40000000e-02
    6679, -6.47306439e-04,  2.41578050e-03,  2.40000000e-02
    6680, -1.25050002e-03,  2.16592956e-03,  2.40000000e-02
    6681, -1.76847411e-03,  1.76847411e-03,  2.40000000e-02
    6682,  1.25050002e-03,  2.16592956e-03,  2.70000000e-02
    6683,  6.47306439e-04,  2.41578050e-03,  2.70000000e-02
    6684,  2.22133423e-19,  2.50100000e-03,  2.70000000e-02
    6685, -6.47306439e-04,  2.41578050e-03,  2.70000000e-02
    6686, -1.25050002e-03,  2.16592956e-03,  2.70000000e-02
    6687, -1.76847411e-03,  1.76847411e-03,  2.70000000e-02
    6688,  1.25050002e-03,  2.16592956e-03,  3.00000000e-02
    6689,  6.47306439e-04,  2.41578050e-03,  3.00000000e-02
    6690,  2.22133423e-19,  2.50100000e-03,  3.00000000e-02
    6691, -6.47306439e-04,  2.41578050e-03,  3.00000000e-02
    6692, -1.25050002e-03,  2.16592956e-03,  3.00000000e-02
    6693, -1.76847411e-03,  1.76847411e-03,  3.00000000e-02
    6694, -2.16592956e-03,  1.25050002e-03,  0.00000000e+00
    6695, -2.41578050e-03,  6.47306439e-04,  0.00000000e+00
    6696, -2.50100000e-03,  2.22133423e-19,  0.00000000e+00
    6697, -2.41578050e-03, -6.47306439e-04,  0.00000000e+00
    6698, -2.16592956e-03, -1.25050002e-03,  0.00000000e+00
    6699, -1.76847411e-03, -1.76847411e-03,  0.00000000e+00
    6700, -2.16592956e-03,  1.25050002e-03,  3.00000000e-03
    6701, -2.41578050e-03,  6.47306439e-04,  3.00000000e-03
    6702, -2.50100000e-03,  2.22133423e-19,  3.00000000e-03
    6703, -2.41578050e-03, -6.47306439e-04,  3.00000000e-03
    6704, -2.16592956e-03, -1.25050002e-03,  3.00000000e-03
    6705, -1.76847411e-03, -1.76847411e-03,  3.00000000e-03
    6706, -2.16592956e-03,  1.25050002e-03,  6.00000000e-03
    6707, -2.41578050e-03,  6.47306439e-04,  6.00000000e-03
    6708, -2.50100000e-03,  2.22133423e-19,  6.00000000e-03
    6709, -2.41578050e-03, -6.47306439e-04,  6.00000000e-03
    6710, -2.16592956e-03, -1.25050002e-03,  6.00000000e-03
    6711, -1.76847411e-03, -1.76847411e-03,  6.00000000e-03
    6712, -2.16592956e-03,  1.25050002e-03,  9.00000000e-03
    6713, -2.41578050e-03,  6.47306439e-04,  9.00000000e-03
    6714, -2.50100000e-03,  2.22133423e-19,  9.00000000e-03
    6715, -2.41578050e-03, -6.47306439e-04,  9.00000000e-03
    6716, -2.16592956e-03, -1.25050002e-03,  9.00000000e-03
    6717, -1.76847411e-03, -1.76847411e-03,  9.00000000e-03
    6718, -2.16592956e-03,  1.25050002e-03,  1.20000000e-02
    6719, -2.41578050e-03,  6.47306439e-04,  1.20000000e-02
    6720, -2.50100000e-03,  2.22133423e-19,  1.20000000e-02
    6721, -2.41578050e-03, -6.47306439e-04,  1.20000000e-02
    6722, -2.16592956e-03, -1.25050002e-03,  1.20000000e-02
    6723, -1.76847411e-03, -1.76847411e-03,  1.20000000e-02
    6724, -2.16592956e-03,  1.25050002e-03,  1.50000000e-02
    6725, -2.41578050e-03,  6.47306439e-04,  1.50000000e-02
    6726, -2.50100000e-03,  2.22133423e-19,  1.50000000e-02
    6727, -2.41578050e-03, -6.47306439e-04,  1.50000000e-02
    6728, -2.16592956e-03, -1.25050002e-03,  1.50000000e-02
    6729, -1.76847411e-03, -1.76847411e-03,  1.50000000e-02
    6730, -2.16592956e-03,  1.25050002e-03,  1.80000000e-02
    6731, -2.41578050e-03,  6.47306439e-04,  1.80000000e-02
    6732, -2.50100000e-03,  2.22133423e-19,  1.80000000e-02
    6733, -2.41578050e-03, -6.47306439e-04,  1.80000000e-02
    6734, -2.16592956e-03, -1.25050002e-03,  1.80000000e-02
    6735, -1.76847411e-03, -1.76847411e-03,  1.80000000e-02
    6736, -2.16592956e-03,  1.25050002e-03,  2.10000000e-02
    6737, -2.41578050e-03,  6.47306439e-04,  2.10000000e-02
    6738, -2.50100000e-03,  2.22133423e-19,  2.10000000e-02
    6739, -2.41578050e-03, -6.47306439e-04,  2.10000000e-02
    6740, -2.16592956e-03, -1.25050002e-03,  2.10000000e-02
    6741, -1.76847411e-03, -1.76847411e-03,  2.10000000e-02
    6742, -2.16592956e-03,  1.25050002e-03,  2.40000000e-02
    6743, -2.41578050e-03,  6.47306439e-04,  2.40000000e-02
    6744, -2.50100000e-03,  2.22133423e-19,  2.40000000e-02
    6745, -2.41578050e-03, -6.47306439e-04,  2.40000000e-02
    6746, -2.16592956e-03, -1.25050002e-03,  2.40000000e-02
    6747, -1.76847411e-03, -1.76847411e-03,  2.40000000e-02
    6748, -2.16592956e-03,  1.25050002e-03,  2.70000000e-02
    6749, -2.41578050e-03,  6.47306439e-04,  2.70000000e-02
    6750, -2.50100000e-03,  2.22133423e-19,  2.70000000e-02
    6751, -2.41578050e-03, -6.47306439e-04,  2.70000000e-02
    6752, -2.16592956e-03, -1.25050002e-03,  2.70000000e-02
    6753, -1.76847411e-03, -1.76847411e-03,  2.70000000e-02
    6754, -2.16592956e-03,  1.25050002e-03,  3.00000000e-02
    6755, -2.41578050e-03,  6.47306439e-04,  3.00000000e-02
    6756, -2.50100000e-03,  2.22133423e-19,  3.00000000e-02
    6757, -2.41578050e-03, -6.47306439e-04,  3.00000000e-02
    6758, -2.16592956e-03, -1.25050002e-03,  3.00000000e-02
    6759, -1.76847411e-03, -1.76847411e-03,  3.00000000e-02
    6760, -1.25050002e-03, -2.16592956e-03,  0.00000000e+00
    6761, -6.47306439e-04, -2.41578050e-03,  0.00000000e+00
    6762, -2.22133423e-19, -2.50100000e-03,  0.00000000e+00
    6763,  6.47306439e-04, -2.41578050e-03,  0.00000000e+00
    6764,  1.25050002e-03, -2.16592956e-03,  0.00000000e+00
    6765, -1.25050002e-03, -2.16592956e-03,  3.00000000e-03
    6766, -6.47306439e-04, -2.41578050e-03,  3.00000000e-03
    6767, -2.22133423e-19, -2.50100000e-03,  3.00000000e-03
    6768,  6.47306439e-04, -2.41578050e-03,  3.00000000e-03
    6769,  1.25050002e-03, -2.16592956e-03,  3.00000000e-03
    6770, -1.25050002e-03, -2.16592956e-03,  6.00000000e-03
    6771, -6.47306439e-04, -2.41578050e-03,  6.00000000e-03
    6772, -2.22133423e-19, -2.50100000e-03,  6.00000000e-03
    6773,  6.47306439e-04, -2.41578050e-03,  6.00000000e-03
    6774,  1.25050002e-03, -2.16592956e-03,  6.00000000e-03
    6775, -1.25050002e-03, -2.16592956e-03,  9.00000000e-03
    6776, -6.47306439e-04, -2.41578050e-03,  9.00000000e-03
    6777, -2.22133423e-19, -2.50100000e-03,  9.00000000e-03
    6778,  6.47306439e-04, -2.41578050e-03,  9.00000000e-03
    6779,  1.25050002e-03, -2.16592956e-03,  9.00000000e-03
    6780, -1.25050002e-03, -2.16592956e-03,  1.20000000e-02
    6781, -6.47306439e-04, -2.41578050e-03,  1.20000000e-02
    6782, -2.22133423e-19, -2.50100000e-03,  1.20000000e-02
    6783,  6.47306439e-04, -2.41578050e-03,  1.20000000e-02
    6784,  1.25050002e-03, -2.16592956e-03,  1.20000000e-02
    6785, -1.25050002e-03, -2.16592956e-03,  1.50000000e-02
    6786, -6.47306439e-04, -2.41578050e-03,  1.50000000e-02
    6787, -2.22133423e-19, -2.50100000e-03,  1.50000000e-02
    6788,  6.47306439e-04, -2.41578050e-03,  1.50000000e-02
    6789,  1.25050002e-03, -2.16592956e-03,  1.50000000e-02
    6790, -1.25050002e-03, -2.16592956e-03,  1.80000000e-02
    6791, -6.47306439e-04, -2.41578050e-03,  1.80000000e-02
    6792, -2.22133423e-19, -2.50100000e-03,  1.80000000e-02
    6793,  6.47306439e-04, -2.41578050e-03,  1.80000000e-02
    6794,  1.25050002e-03, -2.16592956e-03,  1.80000000e-02
    6795, -1.25050002e-03, -2.16592956e-03,  2.10000000e-02
    6796, -6.47306439e-04, -2.41578050e-03,  2.10000000e-02
    6797, -2.22133423e-19, -2.50100000e-03,  2.10000000e-02
    6798,  6.47306439e-04, -2.41578050e-03,  2.10000000e-02
    6799,  1.25050002e-03, -2.16592956e-03,  2.10000000e-02
    6800, -1.25050002e-03, -2.16592956e-03,  2.40000000e-02
    6801, -6.47306439e-04, -2.41578050e-03,  2.40000000e-02
    6802, -2.22133423e-19, -2.50100000e-03,  2.40000000e-02
    6803,  6.47306439e-04, -2.41578050e-03,  2.40000000e-02
    6804,  1.25050002e-03, -2.16592956e-03,  2.40000000e-02
    6805, -1.25050002e-03, -2.16592956e-03,  2.70000000e-02
    6806, -6.47306439e-04, -2.41578050e-03,  2.70000000e-02
    6807, -2.22133423e-19, -2.50100000e-03,  2.70000000e-02
    6808,  6.47306439e-04, -2.41578050e-03,  2.70000000e-02
    6809,  1.25050002e-03, -2.16592956e-03,  2.70000000e-02
    6810, -1.25050002e-03, -2.16592956e-03,  3.00000000e-02
    6811, -6.47306439e-04, -2.41578050e-03,  3.00000000e-02
    6812, -2.22133423e-19, -2.50100000e-03,  3.00000000e-02
    6813,  6.47306439e-04, -2.41578050e-03,  3.00000000e-02
    6814,  1.25050002e-03, -2.16592956e-03,  3.00000000e-02
*ELEMENT, TYPE=SPRINGA, ELSET=WK_0
    5905,     4503,     6566
*SPRING, ELSET=WK_0

1.957893e-01
*ELEMENT, TYPE=SPRINGA, ELSET=WK_1
    5906,     4507,     6567
*SPRING, ELSET=WK_1

1.957893e-01
*ELEMENT, TYPE=SPRINGA, ELSET=WK_2
    5907,     4511,     6568
*SPRING, ELSET=WK_2

1.957893e-01
*ELEMENT, TYPE=SPRINGA, ELSET=WK_3
    5908,     4515,     6569
*SPRING, ELSET=WK_3

1.957893e-01
*ELEMENT, TYPE=SPRINGA, ELSET=WK_4
    5909,     4519,     6570
*SPRING, ELSET=WK_4

1.957893e-01
*ELEMENT, TYPE=SPRINGA, ELSET=WK_5
    5910,     4523,     6571
*SPRING, ELSET=WK_5

1.957893e-01
*ELEMENT, TYPE=SPRINGA, ELSET=WK_6
    5911,     4527,     6572
*SPRING, ELSET=WK_6

1.957893e-01
*ELEMENT, TYPE=SPRINGA, ELSET=WK_7
    5912,     4531,     6573
*SPRING, ELSET=WK_7

3.915786e-01
*ELEMENT, TYPE=SPRINGA, ELSET=WK_8
    5913,     4535,     6574
*SPRING, ELSET=WK_8

3.915786e-01
*ELEMENT, TYPE=SPRINGA, ELSET=WK_9
    5914,     4539,     6575
*SPRING, ELSET=WK_9

3.915786e-01
*ELEMENT, TYPE=SPRINGA, ELSET=WK_10
    5915,     4543,     6576
*SPRING, ELSET=WK_10

3.915786e-01
*ELEMENT, TYPE=SPRINGA, ELSET=WK_11
    5916,     4547,     6577
*SPRING, ELSET=WK_11

3.915786e-01
*ELEMENT, TYPE=SPRINGA, ELSET=WK_12
    5917,     4551,     6578
*SPRING, ELSET=WK_12

3.915786e-01
*ELEMENT, TYPE=SPRINGA, ELSET=WK_13
    5918,     4555,     6579
*SPRING, ELSET=WK_13

3.915786e-01
*ELEMENT, TYPE=SPRINGA, ELSET=WK_14
    5919,     4559,     6580
*SPRING, ELSET=WK_14

3.915786e-01
*ELEMENT, TYPE=SPRINGA, ELSET=WK_15
    5920,     4563,     6581
*SPRING, ELSET=WK_15

3.915786e-01
*ELEMENT, TYPE=SPRINGA, ELSET=WK_16
    5921,     4567,     6582
*SPRING, ELSET=WK_16

3.915786e-01
*ELEMENT, TYPE=SPRINGA, ELSET=WK_17
    5922,     4571,     6583
*SPRING, ELSET=WK_17

3.915786e-01
*ELEMENT, TYPE=SPRINGA, ELSET=WK_18
    5923,     4575,     6584
*SPRING, ELSET=WK_18

3.915786e-01
*ELEMENT, TYPE=SPRINGA, ELSET=WK_19
    5924,     4579,     6585
*SPRING, ELSET=WK_19

3.915786e-01
*ELEMENT, TYPE=SPRINGA, ELSET=WK_20
    5925,     4583,     6586
*SPRING, ELSET=WK_20

3.915786e-01
*ELEMENT, TYPE=SPRINGA, ELSET=WK_21
    5926,     4587,     6587
*SPRING, ELSET=WK_21

3.915786e-01
*ELEMENT, TYPE=SPRINGA, ELSET=WK_22
    5927,     4591,     6588
*SPRING, ELSET=WK_22

3.915786e-01
*ELEMENT, TYPE=SPRINGA, ELSET=WK_23
    5928,     4607,     6589
*SPRING, ELSET=WK_23

3.915786e-01
*ELEMENT, TYPE=SPRINGA, ELSET=WK_24
    5929,     4611,     6590
*SPRING, ELSET=WK_24

3.915786e-01
*ELEMENT, TYPE=SPRINGA, ELSET=WK_25
    5930,     4615,     6591
*SPRING, ELSET=WK_25

3.915786e-01
*ELEMENT, TYPE=SPRINGA, ELSET=WK_26
    5931,     4619,     6592
*SPRING, ELSET=WK_26

3.915786e-01
*ELEMENT, TYPE=SPRINGA, ELSET=WK_27
    5932,     4635,     6593
*SPRING, ELSET=WK_27

3.915786e-01
*ELEMENT, TYPE=SPRINGA, ELSET=WK_28
    5933,     4639,     6594
*SPRING, ELSET=WK_28

3.915786e-01
*ELEMENT, TYPE=SPRINGA, ELSET=WK_29
    5934,     4643,     6595
*SPRING, ELSET=WK_29

3.915786e-01
*ELEMENT, TYPE=SPRINGA, ELSET=WK_30
    5935,     4647,     6596
*SPRING, ELSET=WK_30

3.915786e-01
*ELEMENT, TYPE=SPRINGA, ELSET=WK_31
    5936,     4663,     6597
*SPRING, ELSET=WK_31

3.915786e-01
*ELEMENT, TYPE=SPRINGA, ELSET=WK_32
    5937,     4667,     6598
*SPRING, ELSET=WK_32

3.915786e-01
*ELEMENT, TYPE=SPRINGA, ELSET=WK_33
    5938,     4671,     6599
*SPRING, ELSET=WK_33

3.915786e-01
*ELEMENT, TYPE=SPRINGA, ELSET=WK_34
    5939,     4675,     6600
*SPRING, ELSET=WK_34

3.915786e-01
*ELEMENT, TYPE=SPRINGA, ELSET=WK_35
    5940,     4691,     6601
*SPRING, ELSET=WK_35

3.915786e-01
*ELEMENT, TYPE=SPRINGA, ELSET=WK_36
    5941,     4695,     6602
*SPRING, ELSET=WK_36

3.915786e-01
*ELEMENT, TYPE=SPRINGA, ELSET=WK_37
    5942,     4699,     6603
*SPRING, ELSET=WK_37

3.915786e-01
*ELEMENT, TYPE=SPRINGA, ELSET=WK_38
    5943,     4703,     6604
*SPRING, ELSET=WK_38

3.915786e-01
*ELEMENT, TYPE=SPRINGA, ELSET=WK_39
    5944,     4719,     6605
*SPRING, ELSET=WK_39

3.915786e-01
*ELEMENT, TYPE=SPRINGA, ELSET=WK_40
    5945,     4723,     6606
*SPRING, ELSET=WK_40

3.915786e-01
*ELEMENT, TYPE=SPRINGA, ELSET=WK_41
    5946,     4727,     6607
*SPRING, ELSET=WK_41

3.915786e-01
*ELEMENT, TYPE=SPRINGA, ELSET=WK_42
    5947,     4731,     6608
*SPRING, ELSET=WK_42

3.915786e-01
*ELEMENT, TYPE=SPRINGA, ELSET=WK_43
    5948,     4735,     6609
*SPRING, ELSET=WK_43

2.936839e-01
*ELEMENT, TYPE=SPRINGA, ELSET=WK_44
    5949,     4739,     6610
*SPRING, ELSET=WK_44

1.957893e-01
*ELEMENT, TYPE=SPRINGA, ELSET=WK_45
    5950,     4743,     6611
*SPRING, ELSET=WK_45

2.936839e-01
*ELEMENT, TYPE=SPRINGA, ELSET=WK_46
    5951,     4747,     6612
*SPRING, ELSET=WK_46

3.915786e-01
*ELEMENT, TYPE=SPRINGA, ELSET=WK_47
    5952,     4751,     6613
*SPRING, ELSET=WK_47

3.915786e-01
*ELEMENT, TYPE=SPRINGA, ELSET=WK_48
    5953,     4755,     6614
*SPRING, ELSET=WK_48

3.915786e-01
*ELEMENT, TYPE=SPRINGA, ELSET=WK_49
    5954,     4759,     6615
*SPRING, ELSET=WK_49

3.915786e-01
*ELEMENT, TYPE=SPRINGA, ELSET=WK_50
    5955,     4763,     6616
*SPRING, ELSET=WK_50

3.915786e-01
*ELEMENT, TYPE=SPRINGA, ELSET=WK_51
    5956,     4767,     6617
*SPRING, ELSET=WK_51

3.915786e-01
*ELEMENT, TYPE=SPRINGA, ELSET=WK_52
    5957,     4771,     6618
*SPRING, ELSET=WK_52

3.915786e-01
*ELEMENT, TYPE=SPRINGA, ELSET=WK_53
    5958,     4775,     6619
*SPRING, ELSET=WK_53

3.915786e-01
*ELEMENT, TYPE=SPRINGA, ELSET=WK_54
    5959,     4779,     6620
*SPRING, ELSET=WK_54

3.915786e-01
*ELEMENT, TYPE=SPRINGA, ELSET=WK_55
    5960,     4783,     6621
*SPRING, ELSET=WK_55

1.957893e-01
*ELEMENT, TYPE=SPRINGA, ELSET=WK_56
    5961,     4787,     6622
*SPRING, ELSET=WK_56

1.957893e-01
*ELEMENT, TYPE=SPRINGA, ELSET=WK_57
    5962,     4791,     6623
*SPRING, ELSET=WK_57

1.957893e-01
*ELEMENT, TYPE=SPRINGA, ELSET=WK_58
    5963,     4795,     6624
*SPRING, ELSET=WK_58

1.957893e-01
*ELEMENT, TYPE=SPRINGA, ELSET=WK_59
    5964,     4799,     6625
*SPRING, ELSET=WK_59

1.957893e-01
*ELEMENT, TYPE=SPRINGA, ELSET=WK_60
    5965,     4803,     6626
*SPRING, ELSET=WK_60

1.957893e-01
*ELEMENT, TYPE=SPRINGA, ELSET=WK_61
    5966,     4807,     6627
*SPRING, ELSET=WK_61

1.957893e-01
*ELEMENT, TYPE=SPRINGA, ELSET=WK_62
    5967,     4811,     6628
*SPRING, ELSET=WK_62

1.957893e-01
*ELEMENT, TYPE=SPRINGA, ELSET=WK_63
    5968,     4815,     6629
*SPRING, ELSET=WK_63

1.957893e-01
*ELEMENT, TYPE=SPRINGA, ELSET=WK_64
    5969,     4819,     6630
*SPRING, ELSET=WK_64

1.957893e-01
*ELEMENT, TYPE=SPRINGA, ELSET=WK_65
    5970,     4823,     6631
*SPRING, ELSET=WK_65

1.957893e-01
*ELEMENT, TYPE=SPRINGA, ELSET=WK_66
    5971,     4827,     6632
*SPRING, ELSET=WK_66

1.957893e-01
*ELEMENT, TYPE=SPRINGA, ELSET=WK_67
    5972,     4831,     6633
*SPRING, ELSET=WK_67

1.957893e-01
*ELEMENT, TYPE=SPRINGA, ELSET=WK_68
    5973,     4835,     6634
*SPRING, ELSET=WK_68

3.915786e-01
*ELEMENT, TYPE=SPRINGA, ELSET=WK_69
    5974,     4839,     6635
*SPRING, ELSET=WK_69

3.915786e-01
*ELEMENT, TYPE=SPRINGA, ELSET=WK_70
    5975,     4843,     6636
*SPRING, ELSET=WK_70

3.915786e-01
*ELEMENT, TYPE=SPRINGA, ELSET=WK_71
    5976,     4847,     6637
*SPRING, ELSET=WK_71

3.915786e-01
*ELEMENT, TYPE=SPRINGA, ELSET=WK_72
    5977,     4851,     6638
*SPRING, ELSET=WK_72

3.915786e-01
*ELEMENT, TYPE=SPRINGA, ELSET=WK_73
    5978,     4855,     6639
*SPRING, ELSET=WK_73

3.915786e-01
*ELEMENT, TYPE=SPRINGA, ELSET=WK_74
    5979,     4859,     6640
*SPRING, ELSET=WK_74

3.915786e-01
*ELEMENT, TYPE=SPRINGA, ELSET=WK_75
    5980,     4863,     6641
*SPRING, ELSET=WK_75

3.915786e-01
*ELEMENT, TYPE=SPRINGA, ELSET=WK_76
    5981,     4867,     6642
*SPRING, ELSET=WK_76

3.915786e-01
*ELEMENT, TYPE=SPRINGA, ELSET=WK_77
    5982,     4871,     6643
*SPRING, ELSET=WK_77

3.915786e-01
*ELEMENT, TYPE=SPRINGA, ELSET=WK_78
    5983,     4875,     6644
*SPRING, ELSET=WK_78

3.915786e-01
*ELEMENT, TYPE=SPRINGA, ELSET=WK_79
    5984,     4879,     6645
*SPRING, ELSET=WK_79

3.915786e-01
*ELEMENT, TYPE=SPRINGA, ELSET=WK_80
    5985,     4883,     6646
*SPRING, ELSET=WK_80

3.915786e-01
*ELEMENT, TYPE=SPRINGA, ELSET=WK_81
    5986,     4887,     6647
*SPRING, ELSET=WK_81

3.915786e-01
*ELEMENT, TYPE=SPRINGA, ELSET=WK_82
    5987,     4891,     6648
*SPRING, ELSET=WK_82

3.915786e-01
*ELEMENT, TYPE=SPRINGA, ELSET=WK_83
    5988,     4895,     6649
*SPRING, ELSET=WK_83

3.915786e-01
*ELEMENT, TYPE=SPRINGA, ELSET=WK_84
    5989,     4899,     6650
*SPRING, ELSET=WK_84

3.915786e-01
*ELEMENT, TYPE=SPRINGA, ELSET=WK_85
    5990,     4903,     6651
*SPRING, ELSET=WK_85

3.915786e-01
*ELEMENT, TYPE=SPRINGA, ELSET=WK_86
    5991,     4907,     6652
*SPRING, ELSET=WK_86

3.915786e-01
*ELEMENT, TYPE=SPRINGA, ELSET=WK_87
    5992,     4911,     6653
*SPRING, ELSET=WK_87

3.915786e-01
*ELEMENT, TYPE=SPRINGA, ELSET=WK_88
    5993,     4915,     6654
*SPRING, ELSET=WK_88

3.915786e-01
*ELEMENT, TYPE=SPRINGA, ELSET=WK_89
    5994,     4919,     6655
*SPRING, ELSET=WK_89

3.915786e-01
*ELEMENT, TYPE=SPRINGA, ELSET=WK_90
    5995,     4923,     6656
*SPRING, ELSET=WK_90

3.915786e-01
*ELEMENT, TYPE=SPRINGA, ELSET=WK_91
    5996,     4927,     6657
*SPRING, ELSET=WK_91

3.915786e-01
*ELEMENT, TYPE=SPRINGA, ELSET=WK_92
    5997,     4931,     6658
*SPRING, ELSET=WK_92

3.915786e-01
*ELEMENT, TYPE=SPRINGA, ELSET=WK_93
    5998,     4935,     6659
*SPRING, ELSET=WK_93

3.915786e-01
*ELEMENT, TYPE=SPRINGA, ELSET=WK_94
    5999,     4939,     6660
*SPRING, ELSET=WK_94

3.915786e-01
*ELEMENT, TYPE=SPRINGA, ELSET=WK_95
    6000,     4943,     6661
*SPRING, ELSET=WK_95

3.915786e-01
*ELEMENT, TYPE=SPRINGA, ELSET=WK_96
    6001,     4947,     6662
*SPRING, ELSET=WK_96

3.915786e-01
*ELEMENT, TYPE=SPRINGA, ELSET=WK_97
    6002,     4951,     6663
*SPRING, ELSET=WK_97

3.915786e-01
*ELEMENT, TYPE=SPRINGA, ELSET=WK_98
    6003,     4955,     6664
*SPRING, ELSET=WK_98

3.915786e-01
*ELEMENT, TYPE=SPRINGA, ELSET=WK_99
    6004,     4959,     6665
*SPRING, ELSET=WK_99

3.915786e-01
*ELEMENT, TYPE=SPRINGA, ELSET=WK_100
    6005,     4963,     6666
*SPRING, ELSET=WK_100

3.915786e-01
*ELEMENT, TYPE=SPRINGA, ELSET=WK_101
    6006,     4967,     6667
*SPRING, ELSET=WK_101

3.915786e-01
*ELEMENT, TYPE=SPRINGA, ELSET=WK_102
    6007,     4971,     6668
*SPRING, ELSET=WK_102

3.915786e-01
*ELEMENT, TYPE=SPRINGA, ELSET=WK_103
    6008,     4975,     6669
*SPRING, ELSET=WK_103

3.915786e-01
*ELEMENT, TYPE=SPRINGA, ELSET=WK_104
    6009,     4979,     6670
*SPRING, ELSET=WK_104

3.915786e-01
*ELEMENT, TYPE=SPRINGA, ELSET=WK_105
    6010,     4983,     6671
*SPRING, ELSET=WK_105

3.915786e-01
*ELEMENT, TYPE=SPRINGA, ELSET=WK_106
    6011,     4987,     6672
*SPRING, ELSET=WK_106

3.915786e-01
*ELEMENT, TYPE=SPRINGA, ELSET=WK_107
    6012,     4991,     6673
*SPRING, ELSET=WK_107

3.915786e-01
*ELEMENT, TYPE=SPRINGA, ELSET=WK_108
    6013,     4995,     6674
*SPRING, ELSET=WK_108

3.915786e-01
*ELEMENT, TYPE=SPRINGA, ELSET=WK_109
    6014,     4999,     6675
*SPRING, ELSET=WK_109

3.915786e-01
*ELEMENT, TYPE=SPRINGA, ELSET=WK_110
    6015,     5003,     6676
*SPRING, ELSET=WK_110

3.915786e-01
*ELEMENT, TYPE=SPRINGA, ELSET=WK_111
    6016,     5007,     6677
*SPRING, ELSET=WK_111

3.915786e-01
*ELEMENT, TYPE=SPRINGA, ELSET=WK_112
    6017,     5011,     6678
*SPRING, ELSET=WK_112

3.915786e-01
*ELEMENT, TYPE=SPRINGA, ELSET=WK_113
    6018,     5015,     6679
*SPRING, ELSET=WK_113

3.915786e-01
*ELEMENT, TYPE=SPRINGA, ELSET=WK_114
    6019,     5019,     6680
*SPRING, ELSET=WK_114

3.915786e-01
*ELEMENT, TYPE=SPRINGA, ELSET=WK_115
    6020,     5023,     6681
*SPRING, ELSET=WK_115

3.915786e-01
*ELEMENT, TYPE=SPRINGA, ELSET=WK_116
    6021,     5027,     6682
*SPRING, ELSET=WK_116

3.915786e-01
*ELEMENT, TYPE=SPRINGA, ELSET=WK_117
    6022,     5031,     6683
*SPRING, ELSET=WK_117

3.915786e-01
*ELEMENT, TYPE=SPRINGA, ELSET=WK_118
    6023,     5035,     6684
*SPRING, ELSET=WK_118

3.915786e-01
*ELEMENT, TYPE=SPRINGA, ELSET=WK_119
    6024,     5039,     6685
*SPRING, ELSET=WK_119

3.915786e-01
*ELEMENT, TYPE=SPRINGA, ELSET=WK_120
    6025,     5043,     6686
*SPRING, ELSET=WK_120

3.915786e-01
*ELEMENT, TYPE=SPRINGA, ELSET=WK_121
    6026,     5047,     6687
*SPRING, ELSET=WK_121

3.915786e-01
*ELEMENT, TYPE=SPRINGA, ELSET=WK_122
    6027,     5051,     6688
*SPRING, ELSET=WK_122

1.957893e-01
*ELEMENT, TYPE=SPRINGA, ELSET=WK_123
    6028,     5055,     6689
*SPRING, ELSET=WK_123

1.957893e-01
*ELEMENT, TYPE=SPRINGA, ELSET=WK_124
    6029,     5059,     6690
*SPRING, ELSET=WK_124

1.957893e-01
*ELEMENT, TYPE=SPRINGA, ELSET=WK_125
    6030,     5063,     6691
*SPRING, ELSET=WK_125

1.957893e-01
*ELEMENT, TYPE=SPRINGA, ELSET=WK_126
    6031,     5067,     6692
*SPRING, ELSET=WK_126

1.957893e-01
*ELEMENT, TYPE=SPRINGA, ELSET=WK_127
    6032,     5071,     6693
*SPRING, ELSET=WK_127

1.957893e-01
*ELEMENT, TYPE=SPRINGA, ELSET=WK_128
    6033,     5075,     6694
*SPRING, ELSET=WK_128

1.957893e-01
*ELEMENT, TYPE=SPRINGA, ELSET=WK_129
    6034,     5079,     6695
*SPRING, ELSET=WK_129

1.957893e-01
*ELEMENT, TYPE=SPRINGA, ELSET=WK_130
    6035,     5083,     6696
*SPRING, ELSET=WK_130

1.957893e-01
*ELEMENT, TYPE=SPRINGA, ELSET=WK_131
    6036,     5087,     6697
*SPRING, ELSET=WK_131

1.957893e-01
*ELEMENT, TYPE=SPRINGA, ELSET=WK_132
    6037,     5091,     6698
*SPRING, ELSET=WK_132

1.957893e-01
*ELEMENT, TYPE=SPRINGA, ELSET=WK_133
    6038,     5095,     6699
*SPRING, ELSET=WK_133

1.957893e-01
*ELEMENT, TYPE=SPRINGA, ELSET=WK_134
    6039,     5099,     6700
*SPRING, ELSET=WK_134

3.915786e-01
*ELEMENT, TYPE=SPRINGA, ELSET=WK_135
    6040,     5103,     6701
*SPRING, ELSET=WK_135

3.915786e-01
*ELEMENT, TYPE=SPRINGA, ELSET=WK_136
    6041,     5107,     6702
*SPRING, ELSET=WK_136

3.915786e-01
*ELEMENT, TYPE=SPRINGA, ELSET=WK_137
    6042,     5111,     6703
*SPRING, ELSET=WK_137

3.915786e-01
*ELEMENT, TYPE=SPRINGA, ELSET=WK_138
    6043,     5115,     6704
*SPRING, ELSET=WK_138

3.915786e-01
*ELEMENT, TYPE=SPRINGA, ELSET=WK_139
    6044,     5119,     6705
*SPRING, ELSET=WK_139

3.915786e-01
*ELEMENT, TYPE=SPRINGA, ELSET=WK_140
    6045,     5123,     6706
*SPRING, ELSET=WK_140

3.915786e-01
*ELEMENT, TYPE=SPRINGA, ELSET=WK_141
    6046,     5127,     6707
*SPRING, ELSET=WK_141

2.936839e-01
*ELEMENT, TYPE=SPRINGA, ELSET=WK_142
    6047,     5131,     6708
*SPRING, ELSET=WK_142

1.957893e-01
*ELEMENT, TYPE=SPRINGA, ELSET=WK_143
    6048,     5135,     6709
*SPRING, ELSET=WK_143

2.936839e-01
*ELEMENT, TYPE=SPRINGA, ELSET=WK_144
    6049,     5139,     6710
*SPRING, ELSET=WK_144

3.915786e-01
*ELEMENT, TYPE=SPRINGA, ELSET=WK_145
    6050,     5143,     6711
*SPRING, ELSET=WK_145

3.915786e-01
*ELEMENT, TYPE=SPRINGA, ELSET=WK_146
    6051,     5147,     6712
*SPRING, ELSET=WK_146

3.915786e-01
*ELEMENT, TYPE=SPRINGA, ELSET=WK_147
    6052,     5151,     6713
*SPRING, ELSET=WK_147

2.936839e-01
*ELEMENT, TYPE=SPRINGA, ELSET=WK_148
    6053,     5155,     6714
*SPRING, ELSET=WK_148

1.957893e-01
*ELEMENT, TYPE=SPRINGA, ELSET=WK_149
    6054,     5159,     6715
*SPRING, ELSET=WK_149

2.936839e-01
*ELEMENT, TYPE=SPRINGA, ELSET=WK_150
    6055,     5163,     6716
*SPRING, ELSET=WK_150

3.915786e-01
*ELEMENT, TYPE=SPRINGA, ELSET=WK_151
    6056,     5167,     6717
*SPRING, ELSET=WK_151

3.915786e-01
*ELEMENT, TYPE=SPRINGA, ELSET=WK_152
    6057,     5171,     6718
*SPRING, ELSET=WK_152

3.915786e-01
*ELEMENT, TYPE=SPRINGA, ELSET=WK_153
    6058,     5175,     6719
*SPRING, ELSET=WK_153

3.915786e-01
*ELEMENT, TYPE=SPRINGA, ELSET=WK_154
    6059,     5179,     6720
*SPRING, ELSET=WK_154

3.915786e-01
*ELEMENT, TYPE=SPRINGA, ELSET=WK_155
    6060,     5183,     6721
*SPRING, ELSET=WK_155

3.915786e-01
*ELEMENT, TYPE=SPRINGA, ELSET=WK_156
    6061,     5187,     6722
*SPRING, ELSET=WK_156

3.915786e-01
*ELEMENT, TYPE=SPRINGA, ELSET=WK_157
    6062,     5191,     6723
*SPRING, ELSET=WK_157

3.915786e-01
*ELEMENT, TYPE=SPRINGA, ELSET=WK_158
    6063,     5195,     6724
*SPRING, ELSET=WK_158

3.915786e-01
*ELEMENT, TYPE=SPRINGA, ELSET=WK_159
    6064,     5199,     6725
*SPRING, ELSET=WK_159

3.915786e-01
*ELEMENT, TYPE=SPRINGA, ELSET=WK_160
    6065,     5203,     6726
*SPRING, ELSET=WK_160

3.915786e-01
*ELEMENT, TYPE=SPRINGA, ELSET=WK_161
    6066,     5207,     6727
*SPRING, ELSET=WK_161

3.915786e-01
*ELEMENT, TYPE=SPRINGA, ELSET=WK_162
    6067,     5211,     6728
*SPRING, ELSET=WK_162

3.915786e-01
*ELEMENT, TYPE=SPRINGA, ELSET=WK_163
    6068,     5215,     6729
*SPRING, ELSET=WK_163

3.915786e-01
*ELEMENT, TYPE=SPRINGA, ELSET=WK_164
    6069,     5219,     6730
*SPRING, ELSET=WK_164

3.915786e-01
*ELEMENT, TYPE=SPRINGA, ELSET=WK_165
    6070,     5223,     6731
*SPRING, ELSET=WK_165

3.915786e-01
*ELEMENT, TYPE=SPRINGA, ELSET=WK_166
    6071,     5227,     6732
*SPRING, ELSET=WK_166

3.915786e-01
*ELEMENT, TYPE=SPRINGA, ELSET=WK_167
    6072,     5231,     6733
*SPRING, ELSET=WK_167

3.915786e-01
*ELEMENT, TYPE=SPRINGA, ELSET=WK_168
    6073,     5235,     6734
*SPRING, ELSET=WK_168

3.915786e-01
*ELEMENT, TYPE=SPRINGA, ELSET=WK_169
    6074,     5239,     6735
*SPRING, ELSET=WK_169

3.915786e-01
*ELEMENT, TYPE=SPRINGA, ELSET=WK_170
    6075,     5243,     6736
*SPRING, ELSET=WK_170

3.915786e-01
*ELEMENT, TYPE=SPRINGA, ELSET=WK_171
    6076,     5247,     6737
*SPRING, ELSET=WK_171

3.915786e-01
*ELEMENT, TYPE=SPRINGA, ELSET=WK_172
    6077,     5251,     6738
*SPRING, ELSET=WK_172

3.915786e-01
*ELEMENT, TYPE=SPRINGA, ELSET=WK_173
    6078,     5255,     6739
*SPRING, ELSET=WK_173

3.915786e-01
*ELEMENT, TYPE=SPRINGA, ELSET=WK_174
    6079,     5259,     6740
*SPRING, ELSET=WK_174

3.915786e-01
*ELEMENT, TYPE=SPRINGA, ELSET=WK_175
    6080,     5263,     6741
*SPRING, ELSET=WK_175

3.915786e-01
*ELEMENT, TYPE=SPRINGA, ELSET=WK_176
    6081,     5267,     6742
*SPRING, ELSET=WK_176

3.915786e-01
*ELEMENT, TYPE=SPRINGA, ELSET=WK_177
    6082,     5271,     6743
*SPRING, ELSET=WK_177

3.915786e-01
*ELEMENT, TYPE=SPRINGA, ELSET=WK_178
    6083,     5275,     6744
*SPRING, ELSET=WK_178

3.915786e-01
*ELEMENT, TYPE=SPRINGA, ELSET=WK_179
    6084,     5279,     6745
*SPRING, ELSET=WK_179

3.915786e-01
*ELEMENT, TYPE=SPRINGA, ELSET=WK_180
    6085,     5283,     6746
*SPRING, ELSET=WK_180

3.915786e-01
*ELEMENT, TYPE=SPRINGA, ELSET=WK_181
    6086,     5287,     6747
*SPRING, ELSET=WK_181

3.915786e-01
*ELEMENT, TYPE=SPRINGA, ELSET=WK_182
    6087,     5291,     6748
*SPRING, ELSET=WK_182

3.915786e-01
*ELEMENT, TYPE=SPRINGA, ELSET=WK_183
    6088,     5295,     6749
*SPRING, ELSET=WK_183

3.915786e-01
*ELEMENT, TYPE=SPRINGA, ELSET=WK_184
    6089,     5299,     6750
*SPRING, ELSET=WK_184

3.915786e-01
*ELEMENT, TYPE=SPRINGA, ELSET=WK_185
    6090,     5303,     6751
*SPRING, ELSET=WK_185

3.915786e-01
*ELEMENT, TYPE=SPRINGA, ELSET=WK_186
    6091,     5307,     6752
*SPRING, ELSET=WK_186

3.915786e-01
*ELEMENT, TYPE=SPRINGA, ELSET=WK_187
    6092,     5311,     6753
*SPRING, ELSET=WK_187

3.915786e-01
*ELEMENT, TYPE=SPRINGA, ELSET=WK_188
    6093,     5315,     6754
*SPRING, ELSET=WK_188

1.957893e-01
*ELEMENT, TYPE=SPRINGA, ELSET=WK_189
    6094,     5319,     6755
*SPRING, ELSET=WK_189

1.957893e-01
*ELEMENT, TYPE=SPRINGA, ELSET=WK_190
    6095,     5323,     6756
*SPRING, ELSET=WK_190

1.957893e-01
*ELEMENT, TYPE=SPRINGA, ELSET=WK_191
    6096,     5327,     6757
*SPRING, ELSET=WK_191

1.957893e-01
*ELEMENT, TYPE=SPRINGA, ELSET=WK_192
    6097,     5331,     6758
*SPRING, ELSET=WK_192

1.957893e-01
*ELEMENT, TYPE=SPRINGA, ELSET=WK_193
    6098,     5335,     6759
*SPRING, ELSET=WK_193

1.957893e-01
*ELEMENT, TYPE=SPRINGA, ELSET=WK_194
    6099,     5339,     6760
*SPRING, ELSET=WK_194

1.957893e-01
*ELEMENT, TYPE=SPRINGA, ELSET=WK_195
    6100,     5343,     6761
*SPRING, ELSET=WK_195

1.957893e-01
*ELEMENT, TYPE=SPRINGA, ELSET=WK_196
    6101,     5347,     6762
*SPRING, ELSET=WK_196

1.957893e-01
*ELEMENT, TYPE=SPRINGA, ELSET=WK_197
    6102,     5351,     6763
*SPRING, ELSET=WK_197

1.957893e-01
*ELEMENT, TYPE=SPRINGA, ELSET=WK_198
    6103,     5355,     6764
*SPRING, ELSET=WK_198

1.957893e-01
*ELEMENT, TYPE=SPRINGA, ELSET=WK_199
    6104,     5359,     6765
*SPRING, ELSET=WK_199

3.915786e-01
*ELEMENT, TYPE=SPRINGA, ELSET=WK_200
    6105,     5363,     6766
*SPRING, ELSET=WK_200

3.915786e-01
*ELEMENT, TYPE=SPRINGA, ELSET=WK_201
    6106,     5367,     6767
*SPRING, ELSET=WK_201

3.915786e-01
*ELEMENT, TYPE=SPRINGA, ELSET=WK_202
    6107,     5371,     6768
*SPRING, ELSET=WK_202

3.915786e-01
*ELEMENT, TYPE=SPRINGA, ELSET=WK_203
    6108,     5375,     6769
*SPRING, ELSET=WK_203

3.915786e-01
*ELEMENT, TYPE=SPRINGA, ELSET=WK_204
    6109,     5379,     6770
*SPRING, ELSET=WK_204

3.915786e-01
*ELEMENT, TYPE=SPRINGA, ELSET=WK_205
    6110,     5383,     6771
*SPRING, ELSET=WK_205

3.915786e-01
*ELEMENT, TYPE=SPRINGA, ELSET=WK_206
    6111,     5387,     6772
*SPRING, ELSET=WK_206

3.915786e-01
*ELEMENT, TYPE=SPRINGA, ELSET=WK_207
    6112,     5391,     6773
*SPRING, ELSET=WK_207

3.915786e-01
*ELEMENT, TYPE=SPRINGA, ELSET=WK_208
    6113,     5395,     6774
*SPRING, ELSET=WK_208

3.915786e-01
*ELEMENT, TYPE=SPRINGA, ELSET=WK_209
    6114,     5399,     6775
*SPRING, ELSET=WK_209

3.915786e-01
*ELEMENT, TYPE=SPRINGA, ELSET=WK_210
    6115,     5403,     6776
*SPRING, ELSET=WK_210

3.915786e-01
*ELEMENT, TYPE=SPRINGA, ELSET=WK_211
    6116,     5407,     6777
*SPRING, ELSET=WK_211

3.915786e-01
*ELEMENT, TYPE=SPRINGA, ELSET=WK_212
    6117,     5411,     6778
*SPRING, ELSET=WK_212

3.915786e-01
*ELEMENT, TYPE=SPRINGA, ELSET=WK_213
    6118,     5415,     6779
*SPRING, ELSET=WK_213

3.915786e-01
*ELEMENT, TYPE=SPRINGA, ELSET=WK_214
    6119,     5419,     6780
*SPRING, ELSET=WK_214

3.915786e-01
*ELEMENT, TYPE=SPRINGA, ELSET=WK_215
    6120,     5423,     6781
*SPRING, ELSET=WK_215

3.915786e-01
*ELEMENT, TYPE=SPRINGA, ELSET=WK_216
    6121,     5427,     6782
*SPRING, ELSET=WK_216

3.915786e-01
*ELEMENT, TYPE=SPRINGA, ELSET=WK_217
    6122,     5431,     6783
*SPRING, ELSET=WK_217

3.915786e-01
*ELEMENT, TYPE=SPRINGA, ELSET=WK_218
    6123,     5435,     6784
*SPRING, ELSET=WK_218

3.915786e-01
*ELEMENT, TYPE=SPRINGA, ELSET=WK_219
    6124,     5439,     6785
*SPRING, ELSET=WK_219

3.915786e-01
*ELEMENT, TYPE=SPRINGA, ELSET=WK_220
    6125,     5443,     6786
*SPRING, ELSET=WK_220

3.915786e-01
*ELEMENT, TYPE=SPRINGA, ELSET=WK_221
    6126,     5447,     6787
*SPRING, ELSET=WK_221

3.915786e-01
*ELEMENT, TYPE=SPRINGA, ELSET=WK_222
    6127,     5451,     6788
*SPRING, ELSET=WK_222

3.915786e-01
*ELEMENT, TYPE=SPRINGA, ELSET=WK_223
    6128,     5455,     6789
*SPRING, ELSET=WK_223

3.915786e-01
*ELEMENT, TYPE=SPRINGA, ELSET=WK_224
    6129,     5459,     6790
*SPRING, ELSET=WK_224

3.915786e-01
*ELEMENT, TYPE=SPRINGA, ELSET=WK_225
    6130,     5463,     6791
*SPRING, ELSET=WK_225

3.915786e-01
*ELEMENT, TYPE=SPRINGA, ELSET=WK_226
    6131,     5467,     6792
*SPRING, ELSET=WK_226

3.915786e-01
*ELEMENT, TYPE=SPRINGA, ELSET=WK_227
    6132,     5471,     6793
*SPRING, ELSET=WK_227

3.915786e-01
*ELEMENT, TYPE=SPRINGA, ELSET=WK_228
    6133,     5475,     6794
*SPRING, ELSET=WK_228

3.915786e-01
*ELEMENT, TYPE=SPRINGA, ELSET=WK_229
    6134,     5479,     6795
*SPRING, ELSET=WK_229

3.915786e-01
*ELEMENT, TYPE=SPRINGA, ELSET=WK_230
    6135,     5483,     6796
*SPRING, ELSET=WK_230

3.915786e-01
*ELEMENT, TYPE=SPRINGA, ELSET=WK_231
    6136,     5487,     6797
*SPRING, ELSET=WK_231

3.915786e-01
*ELEMENT, TYPE=SPRINGA, ELSET=WK_232
    6137,     5491,     6798
*SPRING, ELSET=WK_232

3.915786e-01
*ELEMENT, TYPE=SPRINGA, ELSET=WK_233
    6138,     5495,     6799
*SPRING, ELSET=WK_233

3.915786e-01
*ELEMENT, TYPE=SPRINGA, ELSET=WK_234
    6139,     5499,     6800
*SPRING, ELSET=WK_234

3.915786e-01
*ELEMENT, TYPE=SPRINGA, ELSET=WK_235
    6140,     5503,     6801
*SPRING, ELSET=WK_235

3.915786e-01
*ELEMENT, TYPE=SPRINGA, ELSET=WK_236
    6141,     5507,     6802
*SPRING, ELSET=WK_236

3.915786e-01
*ELEMENT, TYPE=SPRINGA, ELSET=WK_237
    6142,     5511,     6803
*SPRING, ELSET=WK_237

3.915786e-01
*ELEMENT, TYPE=SPRINGA, ELSET=WK_238
    6143,     5515,     6804
*SPRING, ELSET=WK_238

3.915786e-01
*ELEMENT, TYPE=SPRINGA, ELSET=WK_239
    6144,     5519,     6805
*SPRING, ELSET=WK_239

3.915786e-01
*ELEMENT, TYPE=SPRINGA, ELSET=WK_240
    6145,     5523,     6806
*SPRING, ELSET=WK_240

3.915786e-01
*ELEMENT, TYPE=SPRINGA, ELSET=WK_241
    6146,     5527,     6807
*SPRING, ELSET=WK_241

3.915786e-01
*ELEMENT, TYPE=SPRINGA, ELSET=WK_242
    6147,     5531,     6808
*SPRING, ELSET=WK_242

3.915786e-01
*ELEMENT, TYPE=SPRINGA, ELSET=WK_243
    6148,     5535,     6809
*SPRING, ELSET=WK_243

3.915786e-01
*ELEMENT, TYPE=SPRINGA, ELSET=WK_244
    6149,     5539,     6810
*SPRING, ELSET=WK_244

1.957893e-01
*ELEMENT, TYPE=SPRINGA, ELSET=WK_245
    6150,     5543,     6811
*SPRING, ELSET=WK_245

1.957893e-01
*ELEMENT, TYPE=SPRINGA, ELSET=WK_246
    6151,     5547,     6812
*SPRING, ELSET=WK_246

1.957893e-01
*ELEMENT, TYPE=SPRINGA, ELSET=WK_247
    6152,     5551,     6813
*SPRING, ELSET=WK_247

1.957893e-01
*ELEMENT, TYPE=SPRINGA, ELSET=WK_248
    6153,     5555,     6814
*SPRING, ELSET=WK_248

1.957893e-01
*BOUNDARY
GHOST_WINKLER, 1, 3, 0
