*HEADING
on-caso-3-sf (CCX 2.20) - SEM FORCA FRONTAL: so carga LATERAL (P_contact), Riks
**
** ============================================================================
** on-caso-3-sf = "on-caso-3 Sem Forca (frontal)"
**
** IDENTICO ao on-caso-3 (mesma malha 8 zonas, mesmos materiais NeoHooke/orto,
** mesmo SAS solido, mesmo Winkler 200 kPa/m baseline, mesmo
** P_contact da arteria oftalmica) EXCETO por uma diferenca fisica:
**
**   >>> NAO HA NENHUMA FORCA/COMPRESSAO VINDO DA FRENTE (globo). <<<
**   >>> A UNICA carga assimetrica ativa e' o P_contact da arteria. <<<
**
** Removidos em relacao ao on-caso-3:
**   (a) o deslocamento axial prescrito Dz=-1.5 mm na ANTERIOR_GLOBO
**       (globe flattening + desbalanco gordura-EOM) -- era o MOTOR da
**       compressao axial / flambagem do on-caso-3;
**   (b) a CLOAD axial residual dos musculos extraoculares (EOM, -1e-4 N);
**   (c) a perturbacao antissimetrica artificial (PERT_A/B) na pia outer --
**       desnecessaria aqui: o proprio P_contact focal ja' e' a carga lateral
**       assimetrica que quebra a simetria (vide secao P_contact abaixo).
**
** Mantidos (todos LATERAIS):
**   - P_contact: arteria oftalmica empurrando a dura focalmente em +X,
**     z~22.5 mm (DSLOAD CONTACT_LOCAL_SURF). VARIADO 0 -> 18068 Pa.
**   - Winkler 200 kPa/m em dura_outer (fundacao da gordura orbital, baseline);
**   - engaste posterior total (canal optico) e confinamento lateral XY do
**     globo pela orbita (ANTERIOR_GLOBO 1,2=0; z LIVRE -- sem forca frontal).
**
** PERGUNTA CIENTIFICA: a pressao de contato lateral da arteria oftalmica,
** SOZINHA (sem qualquer compressao axial vinda da frente), e capaz de
** disparar a flambagem/kink do nervo? Sweep de P_contact = 0 .. 18068 Pa.
**
** ============================================================================
** Geometria (do blockMeshDict de on-caso-1): malha de PRODUCAO f100,
** 4752 hex C3D8I (5317 nos) -- IDENTICA a' do on-caso-3. 8 zonas concentricas:
**   on / pia / sas / dura / lc / sclera_peri / sclera_ring / globo
**   (valores Bruna 2026-05-28: casco E=3 MPa, LC=300 kPa, nervo=30 kPa, nu=0.49)
**
** Lei constitutiva: NEO HOOKE compressivel (CCX *HYPERELASTIC, NEO HOOKE):
**   C10 = E / [4(1+nu)]   ;   D1 = 6(1-2*nu) / E
** Elemento C3D8I (modos incompativeis) mitiga locking volumetrico em nu=0.49.
**
** ============================================================================
** Solver: *STATIC, RIKS (arc-length). Sem o Dz prescrito, o vetor de carga de
** referencia que o Riks escala (lambda) e' composto SO pelas cargas laterais:
**   P_contact (DSLOAD) + PIC (DSLOAD) + reacao do Winkler.
** ARCMAX=1.0 -> o fator maximo e' 1.0, logo P_contact_max aplicado = exatamente
** o valor injetado no sweep (nao ha overshoot). lam_final<1 no .sta sinaliza
** que a estrutura NAO suportou a carga lateral total (colapso/snap = flambagem).
**
** ============================================================================
*INCLUDE, INPUT=on-caso-3-sf_mesh.inp
*INCLUDE, INPUT=on-caso-3-sf_winkler.inp
**
** ============================================================================
** MATERIAIS (NEO HOOKE compressivel, nu=0.49 quase-incompressivel)
** Unidades SI: Pa (=N/m^2). Multiplicar por 1e-6 p/ ler em MPa.
** ============================================================================
*MATERIAL, NAME=ON_MAT
**                       C10 (Pa),  D1 (1/Pa)   [E=30 kPa, MAT_NERVO]
*HYPERELASTIC, NEO HOOKE
5.0335e+03, 4.0000e-06
*DENSITY
1000
**
*MATERIAL, NAME=SAS_MAT
** SAS solido "fluido-like": macio + ALTAMENTE compressivel (nu=0.05).
**   E  = 3 kPa, nu = 0.05 -> C10 = 714.3 Pa, D1 = 1.8e-3 1/Pa
*HYPERELASTIC, NEO HOOKE
7.1430e+02, 1.8000e-03
*DENSITY
1000
**
*MATERIAL, NAME=PIA_MAT
**                       C10 (Pa),  D1 (1/Pa)   [E=3 MPa, MAT_RIGIDO]
*HYPERELASTIC, NEO HOOKE
5.0335e+05, 4.0000e-08
*DENSITY
1100
**
*MATERIAL, NAME=DURA_MAT
** Anisotropia transversa (Holzapfel-like simplificado): E_circ = 3x E_rad/axial.
** Linear elastic ortotropico em sistema cilindrico (1=radial, 2=circ, 3=axial).
*ELASTIC, TYPE=ENGINEERING CONSTANTS
** E_r,    E_theta, E_z,     nu_rt, nu_rz, nu_tz, G_rt,    G_rz
3.000e+6, 9.000e+6, 3.000e+6, 0.30,  0.30,  0.30,  1.150e+6, 1.150e+6
** G_tz, T
1.150e+6, 0.0
*DENSITY
1100
**
*MATERIAL, NAME=LC_MAT
**                       C10 (Pa),  D1 (1/Pa)   [E=300 kPa, MAT_LC]
*HYPERELASTIC, NEO HOOKE
5.0335e+04, 4.0000e-07
*DENSITY
1100
**
*MATERIAL, NAME=SCLERA_PERI_MAT
**                       C10 (Pa),  D1 (1/Pa)   [E=3 MPa, MAT_RIGIDO]
*HYPERELASTIC, NEO HOOKE
5.0335e+05, 4.0000e-08
*DENSITY
1400
**
*MATERIAL, NAME=SCLERA_RING_MAT
**                       C10 (Pa),  D1 (1/Pa)   [E=3 MPa, MAT_RIGIDO]
*HYPERELASTIC, NEO HOOKE
5.0335e+05, 4.0000e-08
*DENSITY
1400
**
*MATERIAL, NAME=GLOBO_MAT
**                       C10 (Pa),  D1 (1/Pa)   [E=3 MPa, MAT_RIGIDO]
*HYPERELASTIC, NEO HOOKE
5.0335e+05, 4.0000e-08
*DENSITY
1400
**
*SOLID SECTION, ELSET=ON,          MATERIAL=ON_MAT
*SOLID SECTION, ELSET=PIA,         MATERIAL=PIA_MAT
*SOLID SECTION, ELSET=SAS,         MATERIAL=SAS_MAT
** Dura: precisa de ORIENTATION cilindrica para o ortotropico funcionar.
*ORIENTATION, NAME=ORI_CYL, SYSTEM=CYLINDRICAL
0.0, 0.0, 0.0, 0.0, 0.0, 1.0
*SOLID SECTION, ELSET=DURA,        MATERIAL=DURA_MAT, ORIENTATION=ORI_CYL
*SOLID SECTION, ELSET=LC,          MATERIAL=LC_MAT
*SOLID SECTION, ELSET=SCLERA_PERI, MATERIAL=SCLERA_PERI_MAT
*SOLID SECTION, ELSET=SCLERA_RING, MATERIAL=SCLERA_RING_MAT
*SOLID SECTION, ELSET=GLOBO,       MATERIAL=GLOBO_MAT
**
** ============================================================================
** STEP UNICO -- Riks arc-length escala as cargas LATERAIS (P_contact + pert).
** ============================================================================
** Sem Dz prescrito: o unico carregamento e' lateral. O Riks tras o sistema
** de equilibrio sob P_contact crescente (0 -> valor do sweep, ARCMAX=1.0).
**
*STEP, NLGEOM=YES, INC=500
*STATIC, RIKS
0.025, 1.0, 1e-5, 0.05, 1.0
**
** ====================================================================
** Engastes
** ====================================================================
** Engaste posterior (canal optico, z=0): 1,2,3=0 em todas as posteriores.
*BOUNDARY
POSTERIOR_ON,   1, 3, 0.0
POSTERIOR_PIA,  1, 3, 0.0
POSTERIOR_SAS,  1, 3, 0.0
POSTERIOR_DURA, 1, 3, 0.0
**
** Globo: confinamento LATERAL XY pela orbita (1,2=0). Eixo Z LIVRE -- NAO
** ha deslocamento prescrito nem forca axial vinda da frente (esta e' a
** diferenca central em relacao ao on-caso-3).
*BOUNDARY
ANTERIOR_GLOBO, 1, 2, 0.0
**
** ====================================================================
** [REMOVIDO] Forca frontal do on-caso-3:
**   *BOUNDARY, AMPLITUDE=DZRAMP : ANTERIOR_GLOBO 3,3,-1.5e-3  (Dz prescrito)
**   *CLOAD,    AMPLITUDE=DZRAMP : ANTERIOR_GLOBO 3, -1.0e-4   (EOM residual)
** Ambos eliminados -> nenhuma compressao/forca axial vinda do globo.
** ====================================================================
**
** ====================================================================
** [REMOVIDO] Perturbacao antissimetrica artificial (PERT_A/B, +/-15 mN)
** ====================================================================
** Objetivo do caso 'sf': testar APENAS o efeito do P_contact, sem nenhuma
** forca adicional. A perturbacao artificial foi herdada do on-caso-2/on-caso-3
** mas nao tem lugar aqui -- o proprio P_contact (~11 mN focal) ja' e' a carga
** lateral assimetrica que quebra a simetria. Removida para o caso ficar limpo.
**
** ====================================================================
** P_contact -- ARTERIA OFTALMICA pressionando a dura mater externamente
** ====================================================================
** UNICA carga "ativa" significativa deste caso: pressao focal lateral em +X,
** z~22.5 mm, na face externa da dura (patch CONTACT_LOCAL_SURF, carved-out de
** dura_outer, sem Winkler). P>0 empurra a dura radialmente para o centro do
** nervo -- a arteria oftalmica comprimindo o nervo otico lateralmente.
**
** Riks escala P_contact via lambda (0 -> valor injetado, ARCMAX=1.0). O sweep
** externo injeta o valor de referencia: 0, 4517, 9034, 13551, 18068 Pa.
*DSLOAD
CONTACT_LOCAL_SURF, P, 18068
**
** ====================================================================
** PIC (pressao intracraniana ~10 mmHg) na PAREDE INTERNA da dura
** ====================================================================
** P=1333 Pa positiva em DURA_INNER_SURF (interface dura<->sas, gerada pelo
** conversor, apontando para os elementos da DURA -> empurra a dura
** radialmente p/ FORA -> tracao circunferencial -> mata a "sanfona").
** Rota A validada no on-caso-2sP. SEM AMPLITUDE: este caso nao tem DZRAMP
** (sem Dz prescrito); o Riks rampa a PIC junto com o P_contact via lambda.
*DSLOAD
DURA_INNER_SURF, P, 1333.0
**
** Outputs por incremento (.dat)
*NODE PRINT, FREQUENCY=1, NSET=POSTERIOR_DURA, TOTALS=ONLY
RF, U
*NODE PRINT, FREQUENCY=1, NSET=POSTERIOR_PIA, TOTALS=ONLY
RF, U
*NODE PRINT, FREQUENCY=1, NSET=POSTERIOR_ON, TOTALS=ONLY
RF, U
*NODE PRINT, FREQUENCY=1, NSET=ANTERIOR_GLOBO, TOTALS=ONLY
RF, U
**
** Outputs de campo no .frd (ParaView via ccx2paraview)
*NODE FILE, FREQUENCY=5
U, RF
*EL FILE, FREQUENCY=5
S, E
**
*END STEP
