** Winkler foundation springs em dura_outer (excluindo perturbation_strip)
** Gerado automaticamente por foam_polymesh_to_ccx_inp.py
** k_winkler = 2.000e+05 Pa/m, 264 springs
*NODE, NSET=GHOST_WINKLER
    5942,  1.76847411e-03, -1.76847411e-03,  0.00000000e+00
    5943,  2.16592956e-03, -1.25050002e-03,  0.00000000e+00
    5944,  2.41578050e-03, -6.47306439e-04,  0.00000000e+00
    5945,  2.50100000e-03,  2.22133423e-19,  0.00000000e+00
    5946,  2.41578050e-03,  6.47306439e-04,  0.00000000e+00
    5947,  2.16592956e-03,  1.25050002e-03,  0.00000000e+00
    5948,  1.76847411e-03,  1.76847411e-03,  0.00000000e+00
    5949,  1.76847411e-03, -1.76847411e-03,  3.00000000e-03
    5950,  2.16592956e-03, -1.25050002e-03,  3.00000000e-03
    5951,  2.41578050e-03, -6.47306439e-04,  3.00000000e-03
    5952,  2.50100000e-03,  2.22133423e-19,  3.00000000e-03
    5953,  2.41578050e-03,  6.47306439e-04,  3.00000000e-03
    5954,  2.16592956e-03,  1.25050002e-03,  3.00000000e-03
    5955,  1.76847411e-03,  1.76847411e-03,  3.00000000e-03
    5956,  1.76847411e-03, -1.76847411e-03,  6.00000000e-03
    5957,  2.16592956e-03, -1.25050002e-03,  6.00000000e-03
    5958,  2.41578050e-03, -6.47306439e-04,  6.00000000e-03
    5959,  2.50100000e-03,  2.22133423e-19,  6.00000000e-03
    5960,  2.41578050e-03,  6.47306439e-04,  6.00000000e-03
    5961,  2.16592956e-03,  1.25050002e-03,  6.00000000e-03
    5962,  1.76847411e-03,  1.76847411e-03,  6.00000000e-03
    5963,  1.76847411e-03, -1.76847411e-03,  9.00000000e-03
    5964,  2.16592956e-03, -1.25050002e-03,  9.00000000e-03
    5965,  2.41578050e-03, -6.47306439e-04,  9.00000000e-03
    5966,  2.50100000e-03,  2.22133423e-19,  9.00000000e-03
    5967,  2.41578050e-03,  6.47306439e-04,  9.00000000e-03
    5968,  2.16592956e-03,  1.25050002e-03,  9.00000000e-03
    5969,  1.76847411e-03,  1.76847411e-03,  9.00000000e-03
    5970,  1.76847411e-03, -1.76847411e-03,  1.20000000e-02
    5971,  2.16592956e-03, -1.25050002e-03,  1.20000000e-02
    5972,  2.41578050e-03, -6.47306439e-04,  1.20000000e-02
    5973,  2.50100000e-03,  2.22133423e-19,  1.20000000e-02
    5974,  2.41578050e-03,  6.47306439e-04,  1.20000000e-02
    5975,  2.16592956e-03,  1.25050002e-03,  1.20000000e-02
    5976,  1.76847411e-03,  1.76847411e-03,  1.20000000e-02
    5977,  1.76847411e-03, -1.76847411e-03,  1.50000000e-02
    5978,  2.16592956e-03, -1.25050002e-03,  1.50000000e-02
    5979,  2.41578050e-03, -6.47306439e-04,  1.50000000e-02
    5980,  2.50100000e-03,  2.22133423e-19,  1.50000000e-02
    5981,  2.41578050e-03,  6.47306439e-04,  1.50000000e-02
    5982,  2.16592956e-03,  1.25050002e-03,  1.50000000e-02
    5983,  1.76847411e-03,  1.76847411e-03,  1.50000000e-02
    5984,  1.76847411e-03, -1.76847411e-03,  1.80000000e-02
    5985,  2.16592956e-03, -1.25050002e-03,  1.80000000e-02
    5986,  2.41578050e-03, -6.47306439e-04,  1.80000000e-02
    5987,  2.50100000e-03,  2.22133423e-19,  1.80000000e-02
    5988,  2.41578050e-03,  6.47306439e-04,  1.80000000e-02
    5989,  2.16592956e-03,  1.25050002e-03,  1.80000000e-02
    5990,  1.76847411e-03,  1.76847411e-03,  1.80000000e-02
    5991,  1.76847411e-03, -1.76847411e-03,  2.10000000e-02
    5992,  2.16592956e-03, -1.25050002e-03,  2.10000000e-02
    5993,  2.41578050e-03, -6.47306439e-04,  2.10000000e-02
    5994,  2.50100000e-03,  2.22133423e-19,  2.10000000e-02
    5995,  2.41578050e-03,  6.47306439e-04,  2.10000000e-02
    5996,  2.16592956e-03,  1.25050002e-03,  2.10000000e-02
    5997,  1.76847411e-03,  1.76847411e-03,  2.10000000e-02
    5998,  1.76847411e-03, -1.76847411e-03,  2.40000000e-02
    5999,  2.16592956e-03, -1.25050002e-03,  2.40000000e-02
    6000,  2.41578050e-03, -6.47306439e-04,  2.40000000e-02
    6001,  2.50100000e-03,  2.22133423e-19,  2.40000000e-02
    6002,  2.41578050e-03,  6.47306439e-04,  2.40000000e-02
    6003,  2.16592956e-03,  1.25050002e-03,  2.40000000e-02
    6004,  1.76847411e-03,  1.76847411e-03,  2.40000000e-02
    6005,  1.76847411e-03, -1.76847411e-03,  2.70000000e-02
    6006,  2.16592956e-03, -1.25050002e-03,  2.70000000e-02
    6007,  2.41578050e-03, -6.47306439e-04,  2.70000000e-02
    6008,  2.50100000e-03,  2.22133423e-19,  2.70000000e-02
    6009,  2.41578050e-03,  6.47306439e-04,  2.70000000e-02
    6010,  2.16592956e-03,  1.25050002e-03,  2.70000000e-02
    6011,  1.76847411e-03,  1.76847411e-03,  2.70000000e-02
    6012,  1.76847411e-03, -1.76847411e-03,  3.00000000e-02
    6013,  2.16592956e-03, -1.25050002e-03,  3.00000000e-02
    6014,  2.41578050e-03, -6.47306439e-04,  3.00000000e-02
    6015,  2.50100000e-03,  2.22133423e-19,  3.00000000e-02
    6016,  2.41578050e-03,  6.47306439e-04,  3.00000000e-02
    6017,  2.16592956e-03,  1.25050002e-03,  3.00000000e-02
    6018,  1.76847411e-03,  1.76847411e-03,  3.00000000e-02
    6019,  1.25050002e-03,  2.16592956e-03,  0.00000000e+00
    6020,  6.47306439e-04,  2.41578050e-03,  0.00000000e+00
    6021,  2.22133423e-19,  2.50100000e-03,  0.00000000e+00
    6022, -6.47306439e-04,  2.41578050e-03,  0.00000000e+00
    6023, -1.25050002e-03,  2.16592956e-03,  0.00000000e+00
    6024, -1.76847411e-03,  1.76847411e-03,  0.00000000e+00
    6025,  1.25050002e-03,  2.16592956e-03,  3.00000000e-03
    6026,  6.47306439e-04,  2.41578050e-03,  3.00000000e-03
    6027,  2.22133423e-19,  2.50100000e-03,  3.00000000e-03
    6028, -6.47306439e-04,  2.41578050e-03,  3.00000000e-03
    6029, -1.25050002e-03,  2.16592956e-03,  3.00000000e-03
    6030, -1.76847411e-03,  1.76847411e-03,  3.00000000e-03
    6031,  1.25050002e-03,  2.16592956e-03,  6.00000000e-03
    6032,  6.47306439e-04,  2.41578050e-03,  6.00000000e-03
    6033,  2.22133423e-19,  2.50100000e-03,  6.00000000e-03
    6034, -6.47306439e-04,  2.41578050e-03,  6.00000000e-03
    6035, -1.25050002e-03,  2.16592956e-03,  6.00000000e-03
    6036, -1.76847411e-03,  1.76847411e-03,  6.00000000e-03
    6037,  1.25050002e-03,  2.16592956e-03,  9.00000000e-03
    6038,  6.47306439e-04,  2.41578050e-03,  9.00000000e-03
    6039,  2.22133423e-19,  2.50100000e-03,  9.00000000e-03
    6040, -6.47306439e-04,  2.41578050e-03,  9.00000000e-03
    6041, -1.25050002e-03,  2.16592956e-03,  9.00000000e-03
    6042, -1.76847411e-03,  1.76847411e-03,  9.00000000e-03
    6043,  1.25050002e-03,  2.16592956e-03,  1.20000000e-02
    6044,  6.47306439e-04,  2.41578050e-03,  1.20000000e-02
    6045,  2.22133423e-19,  2.50100000e-03,  1.20000000e-02
    6046, -6.47306439e-04,  2.41578050e-03,  1.20000000e-02
    6047, -1.25050002e-03,  2.16592956e-03,  1.20000000e-02
    6048, -1.76847411e-03,  1.76847411e-03,  1.20000000e-02
    6049,  1.25050002e-03,  2.16592956e-03,  1.50000000e-02
    6050,  6.47306439e-04,  2.41578050e-03,  1.50000000e-02
    6051,  2.22133423e-19,  2.50100000e-03,  1.50000000e-02
    6052, -6.47306439e-04,  2.41578050e-03,  1.50000000e-02
    6053, -1.25050002e-03,  2.16592956e-03,  1.50000000e-02
    6054, -1.76847411e-03,  1.76847411e-03,  1.50000000e-02
    6055,  1.25050002e-03,  2.16592956e-03,  1.80000000e-02
    6056,  6.47306439e-04,  2.41578050e-03,  1.80000000e-02
    6057,  2.22133423e-19,  2.50100000e-03,  1.80000000e-02
    6058, -6.47306439e-04,  2.41578050e-03,  1.80000000e-02
    6059, -1.25050002e-03,  2.16592956e-03,  1.80000000e-02
    6060, -1.76847411e-03,  1.76847411e-03,  1.80000000e-02
    6061,  1.25050002e-03,  2.16592956e-03,  2.10000000e-02
    6062,  6.47306439e-04,  2.41578050e-03,  2.10000000e-02
    6063,  2.22133423e-19,  2.50100000e-03,  2.10000000e-02
    6064, -6.47306439e-04,  2.41578050e-03,  2.10000000e-02
    6065, -1.25050002e-03,  2.16592956e-03,  2.10000000e-02
    6066, -1.76847411e-03,  1.76847411e-03,  2.10000000e-02
    6067,  1.25050002e-03,  2.16592956e-03,  2.40000000e-02
    6068,  6.47306439e-04,  2.41578050e-03,  2.40000000e-02
    6069,  2.22133423e-19,  2.50100000e-03,  2.40000000e-02
    6070, -6.47306439e-04,  2.41578050e-03,  2.40000000e-02
    6071, -1.25050002e-03,  2.16592956e-03,  2.40000000e-02
    6072, -1.76847411e-03,  1.76847411e-03,  2.40000000e-02
    6073,  1.25050002e-03,  2.16592956e-03,  2.70000000e-02
    6074,  6.47306439e-04,  2.41578050e-03,  2.70000000e-02
    6075,  2.22133423e-19,  2.50100000e-03,  2.70000000e-02
    6076, -6.47306439e-04,  2.41578050e-03,  2.70000000e-02
    6077, -1.25050002e-03,  2.16592956e-03,  2.70000000e-02
    6078, -1.76847411e-03,  1.76847411e-03,  2.70000000e-02
    6079,  1.25050002e-03,  2.16592956e-03,  3.00000000e-02
    6080,  6.47306439e-04,  2.41578050e-03,  3.00000000e-02
    6081,  2.22133423e-19,  2.50100000e-03,  3.00000000e-02
    6082, -6.47306439e-04,  2.41578050e-03,  3.00000000e-02
    6083, -1.25050002e-03,  2.16592956e-03,  3.00000000e-02
    6084, -1.76847411e-03,  1.76847411e-03,  3.00000000e-02
    6085, -2.16592956e-03,  1.25050002e-03,  0.00000000e+00
    6086, -2.41578050e-03,  6.47306439e-04,  0.00000000e+00
    6087, -2.50100000e-03,  2.22133423e-19,  0.00000000e+00
    6088, -2.41578050e-03, -6.47306439e-04,  0.00000000e+00
    6089, -2.16592956e-03, -1.25050002e-03,  0.00000000e+00
    6090, -1.76847411e-03, -1.76847411e-03,  0.00000000e+00
    6091, -2.16592956e-03,  1.25050002e-03,  3.00000000e-03
    6092, -2.41578050e-03,  6.47306439e-04,  3.00000000e-03
    6093, -2.50100000e-03,  2.22133423e-19,  3.00000000e-03
    6094, -2.41578050e-03, -6.47306439e-04,  3.00000000e-03
    6095, -2.16592956e-03, -1.25050002e-03,  3.00000000e-03
    6096, -1.76847411e-03, -1.76847411e-03,  3.00000000e-03
    6097, -2.16592956e-03,  1.25050002e-03,  6.00000000e-03
    6098, -2.41578050e-03,  6.47306439e-04,  6.00000000e-03
    6099, -2.50100000e-03,  2.22133423e-19,  6.00000000e-03
    6100, -2.41578050e-03, -6.47306439e-04,  6.00000000e-03
    6101, -2.16592956e-03, -1.25050002e-03,  6.00000000e-03
    6102, -1.76847411e-03, -1.76847411e-03,  6.00000000e-03
    6103, -2.16592956e-03,  1.25050002e-03,  9.00000000e-03
    6104, -2.41578050e-03,  6.47306439e-04,  9.00000000e-03
    6105, -2.50100000e-03,  2.22133423e-19,  9.00000000e-03
    6106, -2.41578050e-03, -6.47306439e-04,  9.00000000e-03
    6107, -2.16592956e-03, -1.25050002e-03,  9.00000000e-03
    6108, -1.76847411e-03, -1.76847411e-03,  9.00000000e-03
    6109, -2.16592956e-03,  1.25050002e-03,  1.20000000e-02
    6110, -2.41578050e-03,  6.47306439e-04,  1.20000000e-02
    6111, -2.50100000e-03,  2.22133423e-19,  1.20000000e-02
    6112, -2.41578050e-03, -6.47306439e-04,  1.20000000e-02
    6113, -2.16592956e-03, -1.25050002e-03,  1.20000000e-02
    6114, -1.76847411e-03, -1.76847411e-03,  1.20000000e-02
    6115, -2.16592956e-03,  1.25050002e-03,  1.50000000e-02
    6116, -2.41578050e-03,  6.47306439e-04,  1.50000000e-02
    6117, -2.50100000e-03,  2.22133423e-19,  1.50000000e-02
    6118, -2.41578050e-03, -6.47306439e-04,  1.50000000e-02
    6119, -2.16592956e-03, -1.25050002e-03,  1.50000000e-02
    6120, -1.76847411e-03, -1.76847411e-03,  1.50000000e-02
    6121, -2.16592956e-03,  1.25050002e-03,  1.80000000e-02
    6122, -2.41578050e-03,  6.47306439e-04,  1.80000000e-02
    6123, -2.50100000e-03,  2.22133423e-19,  1.80000000e-02
    6124, -2.41578050e-03, -6.47306439e-04,  1.80000000e-02
    6125, -2.16592956e-03, -1.25050002e-03,  1.80000000e-02
    6126, -1.76847411e-03, -1.76847411e-03,  1.80000000e-02
    6127, -2.16592956e-03,  1.25050002e-03,  2.10000000e-02
    6128, -2.41578050e-03,  6.47306439e-04,  2.10000000e-02
    6129, -2.50100000e-03,  2.22133423e-19,  2.10000000e-02
    6130, -2.41578050e-03, -6.47306439e-04,  2.10000000e-02
    6131, -2.16592956e-03, -1.25050002e-03,  2.10000000e-02
    6132, -1.76847411e-03, -1.76847411e-03,  2.10000000e-02
    6133, -2.16592956e-03,  1.25050002e-03,  2.40000000e-02
    6134, -2.41578050e-03,  6.47306439e-04,  2.40000000e-02
    6135, -2.50100000e-03,  2.22133423e-19,  2.40000000e-02
    6136, -2.41578050e-03, -6.47306439e-04,  2.40000000e-02
    6137, -2.16592956e-03, -1.25050002e-03,  2.40000000e-02
    6138, -1.76847411e-03, -1.76847411e-03,  2.40000000e-02
    6139, -2.16592956e-03,  1.25050002e-03,  2.70000000e-02
    6140, -2.41578050e-03,  6.47306439e-04,  2.70000000e-02
    6141, -2.50100000e-03,  2.22133423e-19,  2.70000000e-02
    6142, -2.41578050e-03, -6.47306439e-04,  2.70000000e-02
    6143, -2.16592956e-03, -1.25050002e-03,  2.70000000e-02
    6144, -1.76847411e-03, -1.76847411e-03,  2.70000000e-02
    6145, -2.16592956e-03,  1.25050002e-03,  3.00000000e-02
    6146, -2.41578050e-03,  6.47306439e-04,  3.00000000e-02
    6147, -2.50100000e-03,  2.22133423e-19,  3.00000000e-02
    6148, -2.41578050e-03, -6.47306439e-04,  3.00000000e-02
    6149, -2.16592956e-03, -1.25050002e-03,  3.00000000e-02
    6150, -1.76847411e-03, -1.76847411e-03,  3.00000000e-02
    6151, -1.25050002e-03, -2.16592956e-03,  0.00000000e+00
    6152, -6.47306439e-04, -2.41578050e-03,  0.00000000e+00
    6153, -2.22133423e-19, -2.50100000e-03,  0.00000000e+00
    6154,  6.47306439e-04, -2.41578050e-03,  0.00000000e+00
    6155,  1.25050002e-03, -2.16592956e-03,  0.00000000e+00
    6156, -1.25050002e-03, -2.16592956e-03,  3.00000000e-03
    6157, -6.47306439e-04, -2.41578050e-03,  3.00000000e-03
    6158, -2.22133423e-19, -2.50100000e-03,  3.00000000e-03
    6159,  6.47306439e-04, -2.41578050e-03,  3.00000000e-03
    6160,  1.25050002e-03, -2.16592956e-03,  3.00000000e-03
    6161, -1.25050002e-03, -2.16592956e-03,  6.00000000e-03
    6162, -6.47306439e-04, -2.41578050e-03,  6.00000000e-03
    6163, -2.22133423e-19, -2.50100000e-03,  6.00000000e-03
    6164,  6.47306439e-04, -2.41578050e-03,  6.00000000e-03
    6165,  1.25050002e-03, -2.16592956e-03,  6.00000000e-03
    6166, -1.25050002e-03, -2.16592956e-03,  9.00000000e-03
    6167, -6.47306439e-04, -2.41578050e-03,  9.00000000e-03
    6168, -2.22133423e-19, -2.50100000e-03,  9.00000000e-03
    6169,  6.47306439e-04, -2.41578050e-03,  9.00000000e-03
    6170,  1.25050002e-03, -2.16592956e-03,  9.00000000e-03
    6171, -1.25050002e-03, -2.16592956e-03,  1.20000000e-02
    6172, -6.47306439e-04, -2.41578050e-03,  1.20000000e-02
    6173, -2.22133423e-19, -2.50100000e-03,  1.20000000e-02
    6174,  6.47306439e-04, -2.41578050e-03,  1.20000000e-02
    6175,  1.25050002e-03, -2.16592956e-03,  1.20000000e-02
    6176, -1.25050002e-03, -2.16592956e-03,  1.50000000e-02
    6177, -6.47306439e-04, -2.41578050e-03,  1.50000000e-02
    6178, -2.22133423e-19, -2.50100000e-03,  1.50000000e-02
    6179,  6.47306439e-04, -2.41578050e-03,  1.50000000e-02
    6180,  1.25050002e-03, -2.16592956e-03,  1.50000000e-02
    6181, -1.25050002e-03, -2.16592956e-03,  1.80000000e-02
    6182, -6.47306439e-04, -2.41578050e-03,  1.80000000e-02
    6183, -2.22133423e-19, -2.50100000e-03,  1.80000000e-02
    6184,  6.47306439e-04, -2.41578050e-03,  1.80000000e-02
    6185,  1.25050002e-03, -2.16592956e-03,  1.80000000e-02
    6186, -1.25050002e-03, -2.16592956e-03,  2.10000000e-02
    6187, -6.47306439e-04, -2.41578050e-03,  2.10000000e-02
    6188, -2.22133423e-19, -2.50100000e-03,  2.10000000e-02
    6189,  6.47306439e-04, -2.41578050e-03,  2.10000000e-02
    6190,  1.25050002e-03, -2.16592956e-03,  2.10000000e-02
    6191, -1.25050002e-03, -2.16592956e-03,  2.40000000e-02
    6192, -6.47306439e-04, -2.41578050e-03,  2.40000000e-02
    6193, -2.22133423e-19, -2.50100000e-03,  2.40000000e-02
    6194,  6.47306439e-04, -2.41578050e-03,  2.40000000e-02
    6195,  1.25050002e-03, -2.16592956e-03,  2.40000000e-02
    6196, -1.25050002e-03, -2.16592956e-03,  2.70000000e-02
    6197, -6.47306439e-04, -2.41578050e-03,  2.70000000e-02
    6198, -2.22133423e-19, -2.50100000e-03,  2.70000000e-02
    6199,  6.47306439e-04, -2.41578050e-03,  2.70000000e-02
    6200,  1.25050002e-03, -2.16592956e-03,  2.70000000e-02
    6201, -1.25050002e-03, -2.16592956e-03,  3.00000000e-02
    6202, -6.47306439e-04, -2.41578050e-03,  3.00000000e-02
    6203, -2.22133423e-19, -2.50100000e-03,  3.00000000e-02
    6204,  6.47306439e-04, -2.41578050e-03,  3.00000000e-02
    6205,  1.25050002e-03, -2.16592956e-03,  3.00000000e-02
*ELEMENT, TYPE=SPRINGA, ELSET=WK_0
    5329,     4238,     5942
*SPRING, ELSET=WK_0

1.957893e-01
*ELEMENT, TYPE=SPRINGA, ELSET=WK_1
    5330,     4241,     5943
*SPRING, ELSET=WK_1

1.957893e-01
*ELEMENT, TYPE=SPRINGA, ELSET=WK_2
    5331,     4244,     5944
*SPRING, ELSET=WK_2

1.957893e-01
*ELEMENT, TYPE=SPRINGA, ELSET=WK_3
    5332,     4247,     5945
*SPRING, ELSET=WK_3

1.957893e-01
*ELEMENT, TYPE=SPRINGA, ELSET=WK_4
    5333,     4250,     5946
*SPRING, ELSET=WK_4

1.957893e-01
*ELEMENT, TYPE=SPRINGA, ELSET=WK_5
    5334,     4253,     5947
*SPRING, ELSET=WK_5

1.957893e-01
*ELEMENT, TYPE=SPRINGA, ELSET=WK_6
    5335,     4256,     5948
*SPRING, ELSET=WK_6

1.957893e-01
*ELEMENT, TYPE=SPRINGA, ELSET=WK_7
    5336,     4259,     5949
*SPRING, ELSET=WK_7

3.915786e-01
*ELEMENT, TYPE=SPRINGA, ELSET=WK_8
    5337,     4262,     5950
*SPRING, ELSET=WK_8

3.915786e-01
*ELEMENT, TYPE=SPRINGA, ELSET=WK_9
    5338,     4265,     5951
*SPRING, ELSET=WK_9

3.915786e-01
*ELEMENT, TYPE=SPRINGA, ELSET=WK_10
    5339,     4268,     5952
*SPRING, ELSET=WK_10

3.915786e-01
*ELEMENT, TYPE=SPRINGA, ELSET=WK_11
    5340,     4271,     5953
*SPRING, ELSET=WK_11

3.915786e-01
*ELEMENT, TYPE=SPRINGA, ELSET=WK_12
    5341,     4274,     5954
*SPRING, ELSET=WK_12

3.915786e-01
*ELEMENT, TYPE=SPRINGA, ELSET=WK_13
    5342,     4277,     5955
*SPRING, ELSET=WK_13

3.915786e-01
*ELEMENT, TYPE=SPRINGA, ELSET=WK_14
    5343,     4280,     5956
*SPRING, ELSET=WK_14

3.915786e-01
*ELEMENT, TYPE=SPRINGA, ELSET=WK_15
    5344,     4283,     5957
*SPRING, ELSET=WK_15

3.915786e-01
*ELEMENT, TYPE=SPRINGA, ELSET=WK_16
    5345,     4286,     5958
*SPRING, ELSET=WK_16

3.915786e-01
*ELEMENT, TYPE=SPRINGA, ELSET=WK_17
    5346,     4289,     5959
*SPRING, ELSET=WK_17

3.915786e-01
*ELEMENT, TYPE=SPRINGA, ELSET=WK_18
    5347,     4292,     5960
*SPRING, ELSET=WK_18

3.915786e-01
*ELEMENT, TYPE=SPRINGA, ELSET=WK_19
    5348,     4295,     5961
*SPRING, ELSET=WK_19

3.915786e-01
*ELEMENT, TYPE=SPRINGA, ELSET=WK_20
    5349,     4298,     5962
*SPRING, ELSET=WK_20

3.915786e-01
*ELEMENT, TYPE=SPRINGA, ELSET=WK_21
    5350,     4301,     5963
*SPRING, ELSET=WK_21

3.915786e-01
*ELEMENT, TYPE=SPRINGA, ELSET=WK_22
    5351,     4304,     5964
*SPRING, ELSET=WK_22

3.915786e-01
*ELEMENT, TYPE=SPRINGA, ELSET=WK_23
    5352,     4307,     5965
*SPRING, ELSET=WK_23

3.915786e-01
*ELEMENT, TYPE=SPRINGA, ELSET=WK_24
    5353,     4310,     5966
*SPRING, ELSET=WK_24

3.915786e-01
*ELEMENT, TYPE=SPRINGA, ELSET=WK_25
    5354,     4313,     5967
*SPRING, ELSET=WK_25

3.915786e-01
*ELEMENT, TYPE=SPRINGA, ELSET=WK_26
    5355,     4316,     5968
*SPRING, ELSET=WK_26

3.915786e-01
*ELEMENT, TYPE=SPRINGA, ELSET=WK_27
    5356,     4319,     5969
*SPRING, ELSET=WK_27

3.915786e-01
*ELEMENT, TYPE=SPRINGA, ELSET=WK_28
    5357,     4322,     5970
*SPRING, ELSET=WK_28

3.915786e-01
*ELEMENT, TYPE=SPRINGA, ELSET=WK_29
    5358,     4325,     5971
*SPRING, ELSET=WK_29

3.915786e-01
*ELEMENT, TYPE=SPRINGA, ELSET=WK_30
    5359,     4328,     5972
*SPRING, ELSET=WK_30

3.915786e-01
*ELEMENT, TYPE=SPRINGA, ELSET=WK_31
    5360,     4331,     5973
*SPRING, ELSET=WK_31

3.915786e-01
*ELEMENT, TYPE=SPRINGA, ELSET=WK_32
    5361,     4334,     5974
*SPRING, ELSET=WK_32

3.915786e-01
*ELEMENT, TYPE=SPRINGA, ELSET=WK_33
    5362,     4337,     5975
*SPRING, ELSET=WK_33

3.915786e-01
*ELEMENT, TYPE=SPRINGA, ELSET=WK_34
    5363,     4340,     5976
*SPRING, ELSET=WK_34

3.915786e-01
*ELEMENT, TYPE=SPRINGA, ELSET=WK_35
    5364,     4343,     5977
*SPRING, ELSET=WK_35

3.915786e-01
*ELEMENT, TYPE=SPRINGA, ELSET=WK_36
    5365,     4346,     5978
*SPRING, ELSET=WK_36

3.915786e-01
*ELEMENT, TYPE=SPRINGA, ELSET=WK_37
    5366,     4349,     5979
*SPRING, ELSET=WK_37

3.915786e-01
*ELEMENT, TYPE=SPRINGA, ELSET=WK_38
    5367,     4352,     5980
*SPRING, ELSET=WK_38

3.915786e-01
*ELEMENT, TYPE=SPRINGA, ELSET=WK_39
    5368,     4355,     5981
*SPRING, ELSET=WK_39

3.915786e-01
*ELEMENT, TYPE=SPRINGA, ELSET=WK_40
    5369,     4358,     5982
*SPRING, ELSET=WK_40

3.915786e-01
*ELEMENT, TYPE=SPRINGA, ELSET=WK_41
    5370,     4361,     5983
*SPRING, ELSET=WK_41

3.915786e-01
*ELEMENT, TYPE=SPRINGA, ELSET=WK_42
    5371,     4364,     5984
*SPRING, ELSET=WK_42

3.915786e-01
*ELEMENT, TYPE=SPRINGA, ELSET=WK_43
    5372,     4367,     5985
*SPRING, ELSET=WK_43

3.915786e-01
*ELEMENT, TYPE=SPRINGA, ELSET=WK_44
    5373,     4370,     5986
*SPRING, ELSET=WK_44

3.915786e-01
*ELEMENT, TYPE=SPRINGA, ELSET=WK_45
    5374,     4373,     5987
*SPRING, ELSET=WK_45

3.915786e-01
*ELEMENT, TYPE=SPRINGA, ELSET=WK_46
    5375,     4376,     5988
*SPRING, ELSET=WK_46

3.915786e-01
*ELEMENT, TYPE=SPRINGA, ELSET=WK_47
    5376,     4379,     5989
*SPRING, ELSET=WK_47

3.915786e-01
*ELEMENT, TYPE=SPRINGA, ELSET=WK_48
    5377,     4382,     5990
*SPRING, ELSET=WK_48

3.915786e-01
*ELEMENT, TYPE=SPRINGA, ELSET=WK_49
    5378,     4385,     5991
*SPRING, ELSET=WK_49

3.915786e-01
*ELEMENT, TYPE=SPRINGA, ELSET=WK_50
    5379,     4388,     5992
*SPRING, ELSET=WK_50

3.915786e-01
*ELEMENT, TYPE=SPRINGA, ELSET=WK_51
    5380,     4391,     5993
*SPRING, ELSET=WK_51

3.915786e-01
*ELEMENT, TYPE=SPRINGA, ELSET=WK_52
    5381,     4394,     5994
*SPRING, ELSET=WK_52

3.915786e-01
*ELEMENT, TYPE=SPRINGA, ELSET=WK_53
    5382,     4397,     5995
*SPRING, ELSET=WK_53

3.915786e-01
*ELEMENT, TYPE=SPRINGA, ELSET=WK_54
    5383,     4400,     5996
*SPRING, ELSET=WK_54

3.915786e-01
*ELEMENT, TYPE=SPRINGA, ELSET=WK_55
    5384,     4403,     5997
*SPRING, ELSET=WK_55

3.915786e-01
*ELEMENT, TYPE=SPRINGA, ELSET=WK_56
    5385,     4406,     5998
*SPRING, ELSET=WK_56

3.915786e-01
*ELEMENT, TYPE=SPRINGA, ELSET=WK_57
    5386,     4409,     5999
*SPRING, ELSET=WK_57

3.915786e-01
*ELEMENT, TYPE=SPRINGA, ELSET=WK_58
    5387,     4412,     6000
*SPRING, ELSET=WK_58

3.915786e-01
*ELEMENT, TYPE=SPRINGA, ELSET=WK_59
    5388,     4415,     6001
*SPRING, ELSET=WK_59

3.915786e-01
*ELEMENT, TYPE=SPRINGA, ELSET=WK_60
    5389,     4418,     6002
*SPRING, ELSET=WK_60

3.915786e-01
*ELEMENT, TYPE=SPRINGA, ELSET=WK_61
    5390,     4421,     6003
*SPRING, ELSET=WK_61

3.915786e-01
*ELEMENT, TYPE=SPRINGA, ELSET=WK_62
    5391,     4424,     6004
*SPRING, ELSET=WK_62

3.915786e-01
*ELEMENT, TYPE=SPRINGA, ELSET=WK_63
    5392,     4427,     6005
*SPRING, ELSET=WK_63

3.915786e-01
*ELEMENT, TYPE=SPRINGA, ELSET=WK_64
    5393,     4430,     6006
*SPRING, ELSET=WK_64

3.915786e-01
*ELEMENT, TYPE=SPRINGA, ELSET=WK_65
    5394,     4433,     6007
*SPRING, ELSET=WK_65

3.915786e-01
*ELEMENT, TYPE=SPRINGA, ELSET=WK_66
    5395,     4436,     6008
*SPRING, ELSET=WK_66

3.915786e-01
*ELEMENT, TYPE=SPRINGA, ELSET=WK_67
    5396,     4439,     6009
*SPRING, ELSET=WK_67

3.915786e-01
*ELEMENT, TYPE=SPRINGA, ELSET=WK_68
    5397,     4442,     6010
*SPRING, ELSET=WK_68

3.915786e-01
*ELEMENT, TYPE=SPRINGA, ELSET=WK_69
    5398,     4445,     6011
*SPRING, ELSET=WK_69

3.915786e-01
*ELEMENT, TYPE=SPRINGA, ELSET=WK_70
    5399,     4448,     6012
*SPRING, ELSET=WK_70

1.957893e-01
*ELEMENT, TYPE=SPRINGA, ELSET=WK_71
    5400,     4451,     6013
*SPRING, ELSET=WK_71

1.957893e-01
*ELEMENT, TYPE=SPRINGA, ELSET=WK_72
    5401,     4454,     6014
*SPRING, ELSET=WK_72

1.957893e-01
*ELEMENT, TYPE=SPRINGA, ELSET=WK_73
    5402,     4457,     6015
*SPRING, ELSET=WK_73

1.957893e-01
*ELEMENT, TYPE=SPRINGA, ELSET=WK_74
    5403,     4460,     6016
*SPRING, ELSET=WK_74

1.957893e-01
*ELEMENT, TYPE=SPRINGA, ELSET=WK_75
    5404,     4463,     6017
*SPRING, ELSET=WK_75

1.957893e-01
*ELEMENT, TYPE=SPRINGA, ELSET=WK_76
    5405,     4466,     6018
*SPRING, ELSET=WK_76

1.957893e-01
*ELEMENT, TYPE=SPRINGA, ELSET=WK_77
    5406,     4469,     6019
*SPRING, ELSET=WK_77

1.957893e-01
*ELEMENT, TYPE=SPRINGA, ELSET=WK_78
    5407,     4472,     6020
*SPRING, ELSET=WK_78

1.957893e-01
*ELEMENT, TYPE=SPRINGA, ELSET=WK_79
    5408,     4475,     6021
*SPRING, ELSET=WK_79

1.957893e-01
*ELEMENT, TYPE=SPRINGA, ELSET=WK_80
    5409,     4478,     6022
*SPRING, ELSET=WK_80

1.957893e-01
*ELEMENT, TYPE=SPRINGA, ELSET=WK_81
    5410,     4481,     6023
*SPRING, ELSET=WK_81

1.957893e-01
*ELEMENT, TYPE=SPRINGA, ELSET=WK_82
    5411,     4484,     6024
*SPRING, ELSET=WK_82

1.957893e-01
*ELEMENT, TYPE=SPRINGA, ELSET=WK_83
    5412,     4487,     6025
*SPRING, ELSET=WK_83

3.915786e-01
*ELEMENT, TYPE=SPRINGA, ELSET=WK_84
    5413,     4490,     6026
*SPRING, ELSET=WK_84

3.915786e-01
*ELEMENT, TYPE=SPRINGA, ELSET=WK_85
    5414,     4493,     6027
*SPRING, ELSET=WK_85

3.915786e-01
*ELEMENT, TYPE=SPRINGA, ELSET=WK_86
    5415,     4496,     6028
*SPRING, ELSET=WK_86

3.915786e-01
*ELEMENT, TYPE=SPRINGA, ELSET=WK_87
    5416,     4499,     6029
*SPRING, ELSET=WK_87

3.915786e-01
*ELEMENT, TYPE=SPRINGA, ELSET=WK_88
    5417,     4502,     6030
*SPRING, ELSET=WK_88

3.915786e-01
*ELEMENT, TYPE=SPRINGA, ELSET=WK_89
    5418,     4505,     6031
*SPRING, ELSET=WK_89

3.915786e-01
*ELEMENT, TYPE=SPRINGA, ELSET=WK_90
    5419,     4508,     6032
*SPRING, ELSET=WK_90

3.915786e-01
*ELEMENT, TYPE=SPRINGA, ELSET=WK_91
    5420,     4511,     6033
*SPRING, ELSET=WK_91

3.915786e-01
*ELEMENT, TYPE=SPRINGA, ELSET=WK_92
    5421,     4514,     6034
*SPRING, ELSET=WK_92

3.915786e-01
*ELEMENT, TYPE=SPRINGA, ELSET=WK_93
    5422,     4517,     6035
*SPRING, ELSET=WK_93

3.915786e-01
*ELEMENT, TYPE=SPRINGA, ELSET=WK_94
    5423,     4520,     6036
*SPRING, ELSET=WK_94

3.915786e-01
*ELEMENT, TYPE=SPRINGA, ELSET=WK_95
    5424,     4523,     6037
*SPRING, ELSET=WK_95

3.915786e-01
*ELEMENT, TYPE=SPRINGA, ELSET=WK_96
    5425,     4526,     6038
*SPRING, ELSET=WK_96

3.915786e-01
*ELEMENT, TYPE=SPRINGA, ELSET=WK_97
    5426,     4529,     6039
*SPRING, ELSET=WK_97

3.915786e-01
*ELEMENT, TYPE=SPRINGA, ELSET=WK_98
    5427,     4532,     6040
*SPRING, ELSET=WK_98

3.915786e-01
*ELEMENT, TYPE=SPRINGA, ELSET=WK_99
    5428,     4535,     6041
*SPRING, ELSET=WK_99

3.915786e-01
*ELEMENT, TYPE=SPRINGA, ELSET=WK_100
    5429,     4538,     6042
*SPRING, ELSET=WK_100

3.915786e-01
*ELEMENT, TYPE=SPRINGA, ELSET=WK_101
    5430,     4541,     6043
*SPRING, ELSET=WK_101

3.915786e-01
*ELEMENT, TYPE=SPRINGA, ELSET=WK_102
    5431,     4544,     6044
*SPRING, ELSET=WK_102

3.915786e-01
*ELEMENT, TYPE=SPRINGA, ELSET=WK_103
    5432,     4547,     6045
*SPRING, ELSET=WK_103

3.915786e-01
*ELEMENT, TYPE=SPRINGA, ELSET=WK_104
    5433,     4550,     6046
*SPRING, ELSET=WK_104

3.915786e-01
*ELEMENT, TYPE=SPRINGA, ELSET=WK_105
    5434,     4553,     6047
*SPRING, ELSET=WK_105

3.915786e-01
*ELEMENT, TYPE=SPRINGA, ELSET=WK_106
    5435,     4556,     6048
*SPRING, ELSET=WK_106

3.915786e-01
*ELEMENT, TYPE=SPRINGA, ELSET=WK_107
    5436,     4559,     6049
*SPRING, ELSET=WK_107

3.915786e-01
*ELEMENT, TYPE=SPRINGA, ELSET=WK_108
    5437,     4562,     6050
*SPRING, ELSET=WK_108

3.915786e-01
*ELEMENT, TYPE=SPRINGA, ELSET=WK_109
    5438,     4565,     6051
*SPRING, ELSET=WK_109

3.915786e-01
*ELEMENT, TYPE=SPRINGA, ELSET=WK_110
    5439,     4568,     6052
*SPRING, ELSET=WK_110

3.915786e-01
*ELEMENT, TYPE=SPRINGA, ELSET=WK_111
    5440,     4571,     6053
*SPRING, ELSET=WK_111

3.915786e-01
*ELEMENT, TYPE=SPRINGA, ELSET=WK_112
    5441,     4574,     6054
*SPRING, ELSET=WK_112

3.915786e-01
*ELEMENT, TYPE=SPRINGA, ELSET=WK_113
    5442,     4577,     6055
*SPRING, ELSET=WK_113

3.915786e-01
*ELEMENT, TYPE=SPRINGA, ELSET=WK_114
    5443,     4580,     6056
*SPRING, ELSET=WK_114

3.915786e-01
*ELEMENT, TYPE=SPRINGA, ELSET=WK_115
    5444,     4583,     6057
*SPRING, ELSET=WK_115

3.915786e-01
*ELEMENT, TYPE=SPRINGA, ELSET=WK_116
    5445,     4586,     6058
*SPRING, ELSET=WK_116

3.915786e-01
*ELEMENT, TYPE=SPRINGA, ELSET=WK_117
    5446,     4589,     6059
*SPRING, ELSET=WK_117

3.915786e-01
*ELEMENT, TYPE=SPRINGA, ELSET=WK_118
    5447,     4592,     6060
*SPRING, ELSET=WK_118

3.915786e-01
*ELEMENT, TYPE=SPRINGA, ELSET=WK_119
    5448,     4595,     6061
*SPRING, ELSET=WK_119

3.915786e-01
*ELEMENT, TYPE=SPRINGA, ELSET=WK_120
    5449,     4598,     6062
*SPRING, ELSET=WK_120

3.915786e-01
*ELEMENT, TYPE=SPRINGA, ELSET=WK_121
    5450,     4601,     6063
*SPRING, ELSET=WK_121

3.915786e-01
*ELEMENT, TYPE=SPRINGA, ELSET=WK_122
    5451,     4604,     6064
*SPRING, ELSET=WK_122

3.915786e-01
*ELEMENT, TYPE=SPRINGA, ELSET=WK_123
    5452,     4607,     6065
*SPRING, ELSET=WK_123

3.915786e-01
*ELEMENT, TYPE=SPRINGA, ELSET=WK_124
    5453,     4610,     6066
*SPRING, ELSET=WK_124

3.915786e-01
*ELEMENT, TYPE=SPRINGA, ELSET=WK_125
    5454,     4613,     6067
*SPRING, ELSET=WK_125

3.915786e-01
*ELEMENT, TYPE=SPRINGA, ELSET=WK_126
    5455,     4616,     6068
*SPRING, ELSET=WK_126

3.915786e-01
*ELEMENT, TYPE=SPRINGA, ELSET=WK_127
    5456,     4619,     6069
*SPRING, ELSET=WK_127

3.915786e-01
*ELEMENT, TYPE=SPRINGA, ELSET=WK_128
    5457,     4622,     6070
*SPRING, ELSET=WK_128

3.915786e-01
*ELEMENT, TYPE=SPRINGA, ELSET=WK_129
    5458,     4625,     6071
*SPRING, ELSET=WK_129

3.915786e-01
*ELEMENT, TYPE=SPRINGA, ELSET=WK_130
    5459,     4628,     6072
*SPRING, ELSET=WK_130

3.915786e-01
*ELEMENT, TYPE=SPRINGA, ELSET=WK_131
    5460,     4631,     6073
*SPRING, ELSET=WK_131

3.915786e-01
*ELEMENT, TYPE=SPRINGA, ELSET=WK_132
    5461,     4634,     6074
*SPRING, ELSET=WK_132

3.915786e-01
*ELEMENT, TYPE=SPRINGA, ELSET=WK_133
    5462,     4637,     6075
*SPRING, ELSET=WK_133

3.915786e-01
*ELEMENT, TYPE=SPRINGA, ELSET=WK_134
    5463,     4640,     6076
*SPRING, ELSET=WK_134

3.915786e-01
*ELEMENT, TYPE=SPRINGA, ELSET=WK_135
    5464,     4643,     6077
*SPRING, ELSET=WK_135

3.915786e-01
*ELEMENT, TYPE=SPRINGA, ELSET=WK_136
    5465,     4646,     6078
*SPRING, ELSET=WK_136

3.915786e-01
*ELEMENT, TYPE=SPRINGA, ELSET=WK_137
    5466,     4649,     6079
*SPRING, ELSET=WK_137

1.957893e-01
*ELEMENT, TYPE=SPRINGA, ELSET=WK_138
    5467,     4652,     6080
*SPRING, ELSET=WK_138

1.957893e-01
*ELEMENT, TYPE=SPRINGA, ELSET=WK_139
    5468,     4655,     6081
*SPRING, ELSET=WK_139

1.957893e-01
*ELEMENT, TYPE=SPRINGA, ELSET=WK_140
    5469,     4658,     6082
*SPRING, ELSET=WK_140

1.957893e-01
*ELEMENT, TYPE=SPRINGA, ELSET=WK_141
    5470,     4661,     6083
*SPRING, ELSET=WK_141

1.957893e-01
*ELEMENT, TYPE=SPRINGA, ELSET=WK_142
    5471,     4664,     6084
*SPRING, ELSET=WK_142

1.957893e-01
*ELEMENT, TYPE=SPRINGA, ELSET=WK_143
    5472,     4667,     6085
*SPRING, ELSET=WK_143

1.957893e-01
*ELEMENT, TYPE=SPRINGA, ELSET=WK_144
    5473,     4670,     6086
*SPRING, ELSET=WK_144

1.957893e-01
*ELEMENT, TYPE=SPRINGA, ELSET=WK_145
    5474,     4673,     6087
*SPRING, ELSET=WK_145

1.957893e-01
*ELEMENT, TYPE=SPRINGA, ELSET=WK_146
    5475,     4676,     6088
*SPRING, ELSET=WK_146

1.957893e-01
*ELEMENT, TYPE=SPRINGA, ELSET=WK_147
    5476,     4679,     6089
*SPRING, ELSET=WK_147

1.957893e-01
*ELEMENT, TYPE=SPRINGA, ELSET=WK_148
    5477,     4682,     6090
*SPRING, ELSET=WK_148

1.957893e-01
*ELEMENT, TYPE=SPRINGA, ELSET=WK_149
    5478,     4685,     6091
*SPRING, ELSET=WK_149

3.915786e-01
*ELEMENT, TYPE=SPRINGA, ELSET=WK_150
    5479,     4688,     6092
*SPRING, ELSET=WK_150

3.915786e-01
*ELEMENT, TYPE=SPRINGA, ELSET=WK_151
    5480,     4691,     6093
*SPRING, ELSET=WK_151

3.915786e-01
*ELEMENT, TYPE=SPRINGA, ELSET=WK_152
    5481,     4694,     6094
*SPRING, ELSET=WK_152

3.915786e-01
*ELEMENT, TYPE=SPRINGA, ELSET=WK_153
    5482,     4697,     6095
*SPRING, ELSET=WK_153

3.915786e-01
*ELEMENT, TYPE=SPRINGA, ELSET=WK_154
    5483,     4700,     6096
*SPRING, ELSET=WK_154

3.915786e-01
*ELEMENT, TYPE=SPRINGA, ELSET=WK_155
    5484,     4703,     6097
*SPRING, ELSET=WK_155

3.915786e-01
*ELEMENT, TYPE=SPRINGA, ELSET=WK_156
    5485,     4706,     6098
*SPRING, ELSET=WK_156

3.915786e-01
*ELEMENT, TYPE=SPRINGA, ELSET=WK_157
    5486,     4709,     6099
*SPRING, ELSET=WK_157

3.915786e-01
*ELEMENT, TYPE=SPRINGA, ELSET=WK_158
    5487,     4712,     6100
*SPRING, ELSET=WK_158

3.915786e-01
*ELEMENT, TYPE=SPRINGA, ELSET=WK_159
    5488,     4715,     6101
*SPRING, ELSET=WK_159

3.915786e-01
*ELEMENT, TYPE=SPRINGA, ELSET=WK_160
    5489,     4718,     6102
*SPRING, ELSET=WK_160

3.915786e-01
*ELEMENT, TYPE=SPRINGA, ELSET=WK_161
    5490,     4721,     6103
*SPRING, ELSET=WK_161

3.915786e-01
*ELEMENT, TYPE=SPRINGA, ELSET=WK_162
    5491,     4724,     6104
*SPRING, ELSET=WK_162

3.915786e-01
*ELEMENT, TYPE=SPRINGA, ELSET=WK_163
    5492,     4727,     6105
*SPRING, ELSET=WK_163

3.915786e-01
*ELEMENT, TYPE=SPRINGA, ELSET=WK_164
    5493,     4730,     6106
*SPRING, ELSET=WK_164

3.915786e-01
*ELEMENT, TYPE=SPRINGA, ELSET=WK_165
    5494,     4733,     6107
*SPRING, ELSET=WK_165

3.915786e-01
*ELEMENT, TYPE=SPRINGA, ELSET=WK_166
    5495,     4736,     6108
*SPRING, ELSET=WK_166

3.915786e-01
*ELEMENT, TYPE=SPRINGA, ELSET=WK_167
    5496,     4739,     6109
*SPRING, ELSET=WK_167

3.915786e-01
*ELEMENT, TYPE=SPRINGA, ELSET=WK_168
    5497,     4742,     6110
*SPRING, ELSET=WK_168

3.915786e-01
*ELEMENT, TYPE=SPRINGA, ELSET=WK_169
    5498,     4745,     6111
*SPRING, ELSET=WK_169

3.915786e-01
*ELEMENT, TYPE=SPRINGA, ELSET=WK_170
    5499,     4748,     6112
*SPRING, ELSET=WK_170

3.915786e-01
*ELEMENT, TYPE=SPRINGA, ELSET=WK_171
    5500,     4751,     6113
*SPRING, ELSET=WK_171

3.915786e-01
*ELEMENT, TYPE=SPRINGA, ELSET=WK_172
    5501,     4754,     6114
*SPRING, ELSET=WK_172

3.915786e-01
*ELEMENT, TYPE=SPRINGA, ELSET=WK_173
    5502,     4757,     6115
*SPRING, ELSET=WK_173

3.915786e-01
*ELEMENT, TYPE=SPRINGA, ELSET=WK_174
    5503,     4760,     6116
*SPRING, ELSET=WK_174

3.915786e-01
*ELEMENT, TYPE=SPRINGA, ELSET=WK_175
    5504,     4763,     6117
*SPRING, ELSET=WK_175

3.915786e-01
*ELEMENT, TYPE=SPRINGA, ELSET=WK_176
    5505,     4766,     6118
*SPRING, ELSET=WK_176

3.915786e-01
*ELEMENT, TYPE=SPRINGA, ELSET=WK_177
    5506,     4769,     6119
*SPRING, ELSET=WK_177

3.915786e-01
*ELEMENT, TYPE=SPRINGA, ELSET=WK_178
    5507,     4772,     6120
*SPRING, ELSET=WK_178

3.915786e-01
*ELEMENT, TYPE=SPRINGA, ELSET=WK_179
    5508,     4775,     6121
*SPRING, ELSET=WK_179

3.915786e-01
*ELEMENT, TYPE=SPRINGA, ELSET=WK_180
    5509,     4778,     6122
*SPRING, ELSET=WK_180

3.915786e-01
*ELEMENT, TYPE=SPRINGA, ELSET=WK_181
    5510,     4781,     6123
*SPRING, ELSET=WK_181

3.915786e-01
*ELEMENT, TYPE=SPRINGA, ELSET=WK_182
    5511,     4784,     6124
*SPRING, ELSET=WK_182

3.915786e-01
*ELEMENT, TYPE=SPRINGA, ELSET=WK_183
    5512,     4787,     6125
*SPRING, ELSET=WK_183

3.915786e-01
*ELEMENT, TYPE=SPRINGA, ELSET=WK_184
    5513,     4790,     6126
*SPRING, ELSET=WK_184

3.915786e-01
*ELEMENT, TYPE=SPRINGA, ELSET=WK_185
    5514,     4793,     6127
*SPRING, ELSET=WK_185

3.915786e-01
*ELEMENT, TYPE=SPRINGA, ELSET=WK_186
    5515,     4796,     6128
*SPRING, ELSET=WK_186

3.915786e-01
*ELEMENT, TYPE=SPRINGA, ELSET=WK_187
    5516,     4799,     6129
*SPRING, ELSET=WK_187

3.915786e-01
*ELEMENT, TYPE=SPRINGA, ELSET=WK_188
    5517,     4802,     6130
*SPRING, ELSET=WK_188

3.915786e-01
*ELEMENT, TYPE=SPRINGA, ELSET=WK_189
    5518,     4805,     6131
*SPRING, ELSET=WK_189

3.915786e-01
*ELEMENT, TYPE=SPRINGA, ELSET=WK_190
    5519,     4808,     6132
*SPRING, ELSET=WK_190

3.915786e-01
*ELEMENT, TYPE=SPRINGA, ELSET=WK_191
    5520,     4811,     6133
*SPRING, ELSET=WK_191

3.915786e-01
*ELEMENT, TYPE=SPRINGA, ELSET=WK_192
    5521,     4814,     6134
*SPRING, ELSET=WK_192

3.915786e-01
*ELEMENT, TYPE=SPRINGA, ELSET=WK_193
    5522,     4817,     6135
*SPRING, ELSET=WK_193

3.915786e-01
*ELEMENT, TYPE=SPRINGA, ELSET=WK_194
    5523,     4820,     6136
*SPRING, ELSET=WK_194

3.915786e-01
*ELEMENT, TYPE=SPRINGA, ELSET=WK_195
    5524,     4823,     6137
*SPRING, ELSET=WK_195

3.915786e-01
*ELEMENT, TYPE=SPRINGA, ELSET=WK_196
    5525,     4826,     6138
*SPRING, ELSET=WK_196

3.915786e-01
*ELEMENT, TYPE=SPRINGA, ELSET=WK_197
    5526,     4829,     6139
*SPRING, ELSET=WK_197

3.915786e-01
*ELEMENT, TYPE=SPRINGA, ELSET=WK_198
    5527,     4832,     6140
*SPRING, ELSET=WK_198

3.915786e-01
*ELEMENT, TYPE=SPRINGA, ELSET=WK_199
    5528,     4835,     6141
*SPRING, ELSET=WK_199

3.915786e-01
*ELEMENT, TYPE=SPRINGA, ELSET=WK_200
    5529,     4838,     6142
*SPRING, ELSET=WK_200

3.915786e-01
*ELEMENT, TYPE=SPRINGA, ELSET=WK_201
    5530,     4841,     6143
*SPRING, ELSET=WK_201

3.915786e-01
*ELEMENT, TYPE=SPRINGA, ELSET=WK_202
    5531,     4844,     6144
*SPRING, ELSET=WK_202

3.915786e-01
*ELEMENT, TYPE=SPRINGA, ELSET=WK_203
    5532,     4847,     6145
*SPRING, ELSET=WK_203

1.957893e-01
*ELEMENT, TYPE=SPRINGA, ELSET=WK_204
    5533,     4850,     6146
*SPRING, ELSET=WK_204

1.957893e-01
*ELEMENT, TYPE=SPRINGA, ELSET=WK_205
    5534,     4853,     6147
*SPRING, ELSET=WK_205

1.957893e-01
*ELEMENT, TYPE=SPRINGA, ELSET=WK_206
    5535,     4856,     6148
*SPRING, ELSET=WK_206

1.957893e-01
*ELEMENT, TYPE=SPRINGA, ELSET=WK_207
    5536,     4859,     6149
*SPRING, ELSET=WK_207

1.957893e-01
*ELEMENT, TYPE=SPRINGA, ELSET=WK_208
    5537,     4862,     6150
*SPRING, ELSET=WK_208

1.957893e-01
*ELEMENT, TYPE=SPRINGA, ELSET=WK_209
    5538,     4865,     6151
*SPRING, ELSET=WK_209

1.957893e-01
*ELEMENT, TYPE=SPRINGA, ELSET=WK_210
    5539,     4868,     6152
*SPRING, ELSET=WK_210

1.957893e-01
*ELEMENT, TYPE=SPRINGA, ELSET=WK_211
    5540,     4871,     6153
*SPRING, ELSET=WK_211

1.957893e-01
*ELEMENT, TYPE=SPRINGA, ELSET=WK_212
    5541,     4874,     6154
*SPRING, ELSET=WK_212

1.957893e-01
*ELEMENT, TYPE=SPRINGA, ELSET=WK_213
    5542,     4877,     6155
*SPRING, ELSET=WK_213

1.957893e-01
*ELEMENT, TYPE=SPRINGA, ELSET=WK_214
    5543,     4880,     6156
*SPRING, ELSET=WK_214

3.915786e-01
*ELEMENT, TYPE=SPRINGA, ELSET=WK_215
    5544,     4883,     6157
*SPRING, ELSET=WK_215

3.915786e-01
*ELEMENT, TYPE=SPRINGA, ELSET=WK_216
    5545,     4886,     6158
*SPRING, ELSET=WK_216

3.915786e-01
*ELEMENT, TYPE=SPRINGA, ELSET=WK_217
    5546,     4889,     6159
*SPRING, ELSET=WK_217

3.915786e-01
*ELEMENT, TYPE=SPRINGA, ELSET=WK_218
    5547,     4892,     6160
*SPRING, ELSET=WK_218

3.915786e-01
*ELEMENT, TYPE=SPRINGA, ELSET=WK_219
    5548,     4895,     6161
*SPRING, ELSET=WK_219

3.915786e-01
*ELEMENT, TYPE=SPRINGA, ELSET=WK_220
    5549,     4898,     6162
*SPRING, ELSET=WK_220

3.915786e-01
*ELEMENT, TYPE=SPRINGA, ELSET=WK_221
    5550,     4901,     6163
*SPRING, ELSET=WK_221

3.915786e-01
*ELEMENT, TYPE=SPRINGA, ELSET=WK_222
    5551,     4904,     6164
*SPRING, ELSET=WK_222

3.915786e-01
*ELEMENT, TYPE=SPRINGA, ELSET=WK_223
    5552,     4907,     6165
*SPRING, ELSET=WK_223

3.915786e-01
*ELEMENT, TYPE=SPRINGA, ELSET=WK_224
    5553,     4910,     6166
*SPRING, ELSET=WK_224

3.915786e-01
*ELEMENT, TYPE=SPRINGA, ELSET=WK_225
    5554,     4913,     6167
*SPRING, ELSET=WK_225

3.915786e-01
*ELEMENT, TYPE=SPRINGA, ELSET=WK_226
    5555,     4916,     6168
*SPRING, ELSET=WK_226

3.915786e-01
*ELEMENT, TYPE=SPRINGA, ELSET=WK_227
    5556,     4919,     6169
*SPRING, ELSET=WK_227

3.915786e-01
*ELEMENT, TYPE=SPRINGA, ELSET=WK_228
    5557,     4922,     6170
*SPRING, ELSET=WK_228

3.915786e-01
*ELEMENT, TYPE=SPRINGA, ELSET=WK_229
    5558,     4925,     6171
*SPRING, ELSET=WK_229

3.915786e-01
*ELEMENT, TYPE=SPRINGA, ELSET=WK_230
    5559,     4928,     6172
*SPRING, ELSET=WK_230

3.915786e-01
*ELEMENT, TYPE=SPRINGA, ELSET=WK_231
    5560,     4931,     6173
*SPRING, ELSET=WK_231

3.915786e-01
*ELEMENT, TYPE=SPRINGA, ELSET=WK_232
    5561,     4934,     6174
*SPRING, ELSET=WK_232

3.915786e-01
*ELEMENT, TYPE=SPRINGA, ELSET=WK_233
    5562,     4937,     6175
*SPRING, ELSET=WK_233

3.915786e-01
*ELEMENT, TYPE=SPRINGA, ELSET=WK_234
    5563,     4940,     6176
*SPRING, ELSET=WK_234

3.915786e-01
*ELEMENT, TYPE=SPRINGA, ELSET=WK_235
    5564,     4943,     6177
*SPRING, ELSET=WK_235

3.915786e-01
*ELEMENT, TYPE=SPRINGA, ELSET=WK_236
    5565,     4946,     6178
*SPRING, ELSET=WK_236

3.915786e-01
*ELEMENT, TYPE=SPRINGA, ELSET=WK_237
    5566,     4949,     6179
*SPRING, ELSET=WK_237

3.915786e-01
*ELEMENT, TYPE=SPRINGA, ELSET=WK_238
    5567,     4952,     6180
*SPRING, ELSET=WK_238

3.915786e-01
*ELEMENT, TYPE=SPRINGA, ELSET=WK_239
    5568,     4955,     6181
*SPRING, ELSET=WK_239

3.915786e-01
*ELEMENT, TYPE=SPRINGA, ELSET=WK_240
    5569,     4958,     6182
*SPRING, ELSET=WK_240

3.915786e-01
*ELEMENT, TYPE=SPRINGA, ELSET=WK_241
    5570,     4961,     6183
*SPRING, ELSET=WK_241

3.915786e-01
*ELEMENT, TYPE=SPRINGA, ELSET=WK_242
    5571,     4964,     6184
*SPRING, ELSET=WK_242

3.915786e-01
*ELEMENT, TYPE=SPRINGA, ELSET=WK_243
    5572,     4967,     6185
*SPRING, ELSET=WK_243

3.915786e-01
*ELEMENT, TYPE=SPRINGA, ELSET=WK_244
    5573,     4970,     6186
*SPRING, ELSET=WK_244

3.915786e-01
*ELEMENT, TYPE=SPRINGA, ELSET=WK_245
    5574,     4973,     6187
*SPRING, ELSET=WK_245

3.915786e-01
*ELEMENT, TYPE=SPRINGA, ELSET=WK_246
    5575,     4976,     6188
*SPRING, ELSET=WK_246

3.915786e-01
*ELEMENT, TYPE=SPRINGA, ELSET=WK_247
    5576,     4979,     6189
*SPRING, ELSET=WK_247

3.915786e-01
*ELEMENT, TYPE=SPRINGA, ELSET=WK_248
    5577,     4982,     6190
*SPRING, ELSET=WK_248

3.915786e-01
*ELEMENT, TYPE=SPRINGA, ELSET=WK_249
    5578,     4985,     6191
*SPRING, ELSET=WK_249

3.915786e-01
*ELEMENT, TYPE=SPRINGA, ELSET=WK_250
    5579,     4988,     6192
*SPRING, ELSET=WK_250

3.915786e-01
*ELEMENT, TYPE=SPRINGA, ELSET=WK_251
    5580,     4991,     6193
*SPRING, ELSET=WK_251

3.915786e-01
*ELEMENT, TYPE=SPRINGA, ELSET=WK_252
    5581,     4994,     6194
*SPRING, ELSET=WK_252

3.915786e-01
*ELEMENT, TYPE=SPRINGA, ELSET=WK_253
    5582,     4997,     6195
*SPRING, ELSET=WK_253

3.915786e-01
*ELEMENT, TYPE=SPRINGA, ELSET=WK_254
    5583,     5000,     6196
*SPRING, ELSET=WK_254

3.915786e-01
*ELEMENT, TYPE=SPRINGA, ELSET=WK_255
    5584,     5003,     6197
*SPRING, ELSET=WK_255

3.915786e-01
*ELEMENT, TYPE=SPRINGA, ELSET=WK_256
    5585,     5006,     6198
*SPRING, ELSET=WK_256

3.915786e-01
*ELEMENT, TYPE=SPRINGA, ELSET=WK_257
    5586,     5009,     6199
*SPRING, ELSET=WK_257

3.915786e-01
*ELEMENT, TYPE=SPRINGA, ELSET=WK_258
    5587,     5012,     6200
*SPRING, ELSET=WK_258

3.915786e-01
*ELEMENT, TYPE=SPRINGA, ELSET=WK_259
    5588,     5015,     6201
*SPRING, ELSET=WK_259

1.957893e-01
*ELEMENT, TYPE=SPRINGA, ELSET=WK_260
    5589,     5018,     6202
*SPRING, ELSET=WK_260

1.957893e-01
*ELEMENT, TYPE=SPRINGA, ELSET=WK_261
    5590,     5021,     6203
*SPRING, ELSET=WK_261

1.957893e-01
*ELEMENT, TYPE=SPRINGA, ELSET=WK_262
    5591,     5024,     6204
*SPRING, ELSET=WK_262

1.957893e-01
*ELEMENT, TYPE=SPRINGA, ELSET=WK_263
    5592,     5027,     6205
*SPRING, ELSET=WK_263

1.957893e-01
*BOUNDARY
GHOST_WINKLER, 1, 3, 0
