** Winkler foundation springs em dura_outer (excluindo perturbation_strip)
** Gerado automaticamente por foam_polymesh_to_ccx_inp.py
** k_winkler = 2.000e+05 Pa/m, 68 springs
*NODE, NSET=GHOST_WINKLER
     993, -1.43470367e-02, -2.51571253e-02,  1.76847411e-03
     994, -1.36743361e-02, -2.60540594e-02,  2.41578050e-03
     995, -1.28975683e-02, -2.70897497e-02,  2.41578050e-03
     996, -1.22248677e-02, -2.79866839e-02,  1.76847411e-03
     997, -1.01342870e-02, -2.13579654e-02,  1.76847411e-03
     998, -9.31138802e-03, -2.21194470e-02,  2.41578050e-03
     999, -8.36118616e-03, -2.29987302e-02,  2.41578050e-03
    1000, -7.53828719e-03, -2.37602118e-02,  1.76847411e-03
    1001, -6.67264600e-03, -1.68637560e-02,  1.76847411e-03
    1002, -3.68729664e-03, -1.87605143e-02,  1.76847411e-03
    1003, -4.07476543e-03, -1.18207517e-02,  1.76847411e-03
    1004, -7.97218321e-04, -1.31502958e-02,  1.76847411e-03
    1005, -2.42518775e-03, -6.39306620e-03,  1.76847411e-03
    1006, -1.32743407e-03, -6.62100001e-03,  2.41578050e-03
    1007, -5.98573498e-05, -6.88419529e-03,  2.41578050e-03
    1008,  1.03789632e-03, -7.11212909e-03,  1.76847411e-03
    1009, -1.77759495e-03, -7.57332029e-04,  1.76847411e-03
    1010, -6.56752462e-04, -7.84333403e-04,  2.41578050e-03
    1011,  6.37484922e-04, -8.15511904e-04,  2.41578050e-03
    1012,  1.75832740e-03, -8.42513277e-04,  1.76847411e-03
    1013, -1.18364839e-02, -2.85045290e-02,  6.47306439e-04
    1014, -1.18364839e-02, -2.85045290e-02, -6.47306439e-04
    1015, -1.22248677e-02, -2.79866839e-02, -1.76847411e-03
    1016, -7.06318630e-03, -2.41998533e-02,  6.47306439e-04
    1017, -7.06318630e-03, -2.41998533e-02, -6.47306439e-04
    1018, -7.53828719e-03, -2.37602118e-02, -1.76847411e-03
    1019, -3.14093984e-03, -1.91076451e-02,  6.47306439e-04
    1020, -3.14093984e-03, -1.91076451e-02, -6.47306439e-04
    1021, -3.68729664e-03, -1.87605143e-02, -1.76847411e-03
    1022, -1.97385626e-04, -1.33936193e-02,  6.47306439e-04
    1023, -1.97385626e-04, -1.33936193e-02, -6.47306439e-04
    1024, -7.97218321e-04, -1.31502958e-02, -1.76847411e-03
    1025,  1.67168464e-03, -7.24372672e-03,  6.47306439e-04
    1026,  1.67168464e-03, -7.24372672e-03, -6.47306439e-04
    1027,  1.03789632e-03, -7.11212909e-03, -1.76847411e-03
    1028,  2.40544605e-03, -8.58102526e-04,  6.47306439e-04
    1029,  2.40544605e-03, -8.58102526e-04, -6.47306439e-04
    1030,  1.75832740e-03, -8.42513277e-04, -1.76847411e-03
    1031, -1.28975683e-02, -2.70897497e-02, -2.41578050e-03
    1032, -1.36743361e-02, -2.60540594e-02, -2.41578050e-03
    1033, -1.43470367e-02, -2.51571253e-02, -1.76847411e-03
    1034, -8.36118616e-03, -2.29987302e-02, -2.41578050e-03
    1035, -9.31138802e-03, -2.21194470e-02, -2.41578050e-03
    1036, -1.01342870e-02, -2.13579654e-02, -1.76847411e-03
    1037, -4.63361448e-03, -1.81592660e-02, -2.41578050e-03
    1038, -5.72632816e-03, -1.74650043e-02, -2.41578050e-03
    1039, -6.67264600e-03, -1.68637560e-02, -1.76847411e-03
    1040, -1.83615913e-03, -1.27288472e-02, -2.41578050e-03
    1041, -3.03582461e-03, -1.22422003e-02, -2.41578050e-03
    1042, -4.07476543e-03, -1.18207517e-02, -1.76847411e-03
    1043, -5.98573498e-05, -6.88419529e-03, -2.41578050e-03
    1044, -1.32743407e-03, -6.62100001e-03, -2.41578050e-03
    1045, -2.42518775e-03, -6.39306620e-03, -1.76847411e-03
    1046,  6.37484922e-04, -8.15511904e-04, -2.41578050e-03
    1047, -6.56752462e-04, -7.84333403e-04, -2.41578050e-03
    1048, -1.77759495e-03, -7.57332029e-04, -1.76847411e-03
    1049, -1.47354205e-02, -2.46392802e-02, -6.47306439e-04
    1050, -1.47354205e-02, -2.46392802e-02,  6.47306439e-04
    1051, -1.06093879e-02, -2.09183238e-02, -6.47306439e-04
    1052, -1.06093879e-02, -2.09183238e-02,  6.47306439e-04
    1053, -7.21900280e-03, -1.65166252e-02, -6.47306439e-04
    1054, -7.21900280e-03, -1.65166252e-02,  6.47306439e-04
    1055, -4.67459812e-03, -1.15774282e-02, -6.47306439e-04
    1056, -4.67459812e-03, -1.15774282e-02,  6.47306439e-04
    1057, -3.05897606e-03, -6.26146857e-03, -6.47306439e-04
    1058, -3.05897606e-03, -6.26146857e-03,  6.47306439e-04
    1059, -2.42471359e-03, -7.41742781e-04, -6.47306439e-04
    1060, -2.42471359e-03, -7.41742781e-04,  6.47306439e-04
*ELEMENT, TYPE=SPRINGA, ELSET=WK_0
     820,      673,      993
*SPRING, ELSET=WK_0

7.764571e-01
*ELEMENT, TYPE=SPRINGA, ELSET=WK_1
     821,      674,      994
*SPRING, ELSET=WK_1

7.764571e-01
*ELEMENT, TYPE=SPRINGA, ELSET=WK_2
     822,      675,      995
*SPRING, ELSET=WK_2

7.764571e-01
*ELEMENT, TYPE=SPRINGA, ELSET=WK_3
     823,      676,      996
*SPRING, ELSET=WK_3

7.764571e-01
*ELEMENT, TYPE=SPRINGA, ELSET=WK_4
     824,      677,      997
*SPRING, ELSET=WK_4

1.552914e+00
*ELEMENT, TYPE=SPRINGA, ELSET=WK_5
     825,      678,      998
*SPRING, ELSET=WK_5

1.552914e+00
*ELEMENT, TYPE=SPRINGA, ELSET=WK_6
     826,      679,      999
*SPRING, ELSET=WK_6

1.552914e+00
*ELEMENT, TYPE=SPRINGA, ELSET=WK_7
     827,      680,     1000
*SPRING, ELSET=WK_7

1.552914e+00
*ELEMENT, TYPE=SPRINGA, ELSET=WK_8
     828,      681,     1001
*SPRING, ELSET=WK_8

1.552914e+00
*ELEMENT, TYPE=SPRINGA, ELSET=WK_9
     829,      684,     1002
*SPRING, ELSET=WK_9

1.552914e+00
*ELEMENT, TYPE=SPRINGA, ELSET=WK_10
     830,      685,     1003
*SPRING, ELSET=WK_10

1.552914e+00
*ELEMENT, TYPE=SPRINGA, ELSET=WK_11
     831,      688,     1004
*SPRING, ELSET=WK_11

1.552914e+00
*ELEMENT, TYPE=SPRINGA, ELSET=WK_12
     832,      689,     1005
*SPRING, ELSET=WK_12

1.552914e+00
*ELEMENT, TYPE=SPRINGA, ELSET=WK_13
     833,      690,     1006
*SPRING, ELSET=WK_13

1.552914e+00
*ELEMENT, TYPE=SPRINGA, ELSET=WK_14
     834,      691,     1007
*SPRING, ELSET=WK_14

1.552914e+00
*ELEMENT, TYPE=SPRINGA, ELSET=WK_15
     835,      692,     1008
*SPRING, ELSET=WK_15

1.552914e+00
*ELEMENT, TYPE=SPRINGA, ELSET=WK_16
     836,      693,     1009
*SPRING, ELSET=WK_16

7.764571e-01
*ELEMENT, TYPE=SPRINGA, ELSET=WK_17
     837,      694,     1010
*SPRING, ELSET=WK_17

7.764571e-01
*ELEMENT, TYPE=SPRINGA, ELSET=WK_18
     838,      695,     1011
*SPRING, ELSET=WK_18

7.764571e-01
*ELEMENT, TYPE=SPRINGA, ELSET=WK_19
     839,      696,     1012
*SPRING, ELSET=WK_19

7.764571e-01
*ELEMENT, TYPE=SPRINGA, ELSET=WK_20
     840,      697,     1013
*SPRING, ELSET=WK_20

7.764571e-01
*ELEMENT, TYPE=SPRINGA, ELSET=WK_21
     841,      698,     1014
*SPRING, ELSET=WK_21

7.764571e-01
*ELEMENT, TYPE=SPRINGA, ELSET=WK_22
     842,      699,     1015
*SPRING, ELSET=WK_22

7.764571e-01
*ELEMENT, TYPE=SPRINGA, ELSET=WK_23
     843,      700,     1016
*SPRING, ELSET=WK_23

1.552914e+00
*ELEMENT, TYPE=SPRINGA, ELSET=WK_24
     844,      701,     1017
*SPRING, ELSET=WK_24

1.552914e+00
*ELEMENT, TYPE=SPRINGA, ELSET=WK_25
     845,      702,     1018
*SPRING, ELSET=WK_25

1.552914e+00
*ELEMENT, TYPE=SPRINGA, ELSET=WK_26
     846,      703,     1019
*SPRING, ELSET=WK_26

1.552914e+00
*ELEMENT, TYPE=SPRINGA, ELSET=WK_27
     847,      704,     1020
*SPRING, ELSET=WK_27

1.552914e+00
*ELEMENT, TYPE=SPRINGA, ELSET=WK_28
     848,      705,     1021
*SPRING, ELSET=WK_28

1.552914e+00
*ELEMENT, TYPE=SPRINGA, ELSET=WK_29
     849,      706,     1022
*SPRING, ELSET=WK_29

1.552914e+00
*ELEMENT, TYPE=SPRINGA, ELSET=WK_30
     850,      707,     1023
*SPRING, ELSET=WK_30

1.552914e+00
*ELEMENT, TYPE=SPRINGA, ELSET=WK_31
     851,      708,     1024
*SPRING, ELSET=WK_31

1.552914e+00
*ELEMENT, TYPE=SPRINGA, ELSET=WK_32
     852,      709,     1025
*SPRING, ELSET=WK_32

1.552914e+00
*ELEMENT, TYPE=SPRINGA, ELSET=WK_33
     853,      710,     1026
*SPRING, ELSET=WK_33

1.552914e+00
*ELEMENT, TYPE=SPRINGA, ELSET=WK_34
     854,      711,     1027
*SPRING, ELSET=WK_34

1.552914e+00
*ELEMENT, TYPE=SPRINGA, ELSET=WK_35
     855,      712,     1028
*SPRING, ELSET=WK_35

7.764571e-01
*ELEMENT, TYPE=SPRINGA, ELSET=WK_36
     856,      713,     1029
*SPRING, ELSET=WK_36

7.764571e-01
*ELEMENT, TYPE=SPRINGA, ELSET=WK_37
     857,      714,     1030
*SPRING, ELSET=WK_37

7.764571e-01
*ELEMENT, TYPE=SPRINGA, ELSET=WK_38
     858,      715,     1031
*SPRING, ELSET=WK_38

7.764571e-01
*ELEMENT, TYPE=SPRINGA, ELSET=WK_39
     859,      716,     1032
*SPRING, ELSET=WK_39

7.764571e-01
*ELEMENT, TYPE=SPRINGA, ELSET=WK_40
     860,      717,     1033
*SPRING, ELSET=WK_40

7.764571e-01
*ELEMENT, TYPE=SPRINGA, ELSET=WK_41
     861,      718,     1034
*SPRING, ELSET=WK_41

1.552914e+00
*ELEMENT, TYPE=SPRINGA, ELSET=WK_42
     862,      719,     1035
*SPRING, ELSET=WK_42

1.552914e+00
*ELEMENT, TYPE=SPRINGA, ELSET=WK_43
     863,      720,     1036
*SPRING, ELSET=WK_43

1.552914e+00
*ELEMENT, TYPE=SPRINGA, ELSET=WK_44
     864,      721,     1037
*SPRING, ELSET=WK_44

1.552914e+00
*ELEMENT, TYPE=SPRINGA, ELSET=WK_45
     865,      722,     1038
*SPRING, ELSET=WK_45

1.552914e+00
*ELEMENT, TYPE=SPRINGA, ELSET=WK_46
     866,      723,     1039
*SPRING, ELSET=WK_46

1.552914e+00
*ELEMENT, TYPE=SPRINGA, ELSET=WK_47
     867,      724,     1040
*SPRING, ELSET=WK_47

1.552914e+00
*ELEMENT, TYPE=SPRINGA, ELSET=WK_48
     868,      725,     1041
*SPRING, ELSET=WK_48

1.552914e+00
*ELEMENT, TYPE=SPRINGA, ELSET=WK_49
     869,      726,     1042
*SPRING, ELSET=WK_49

1.552914e+00
*ELEMENT, TYPE=SPRINGA, ELSET=WK_50
     870,      727,     1043
*SPRING, ELSET=WK_50

1.552914e+00
*ELEMENT, TYPE=SPRINGA, ELSET=WK_51
     871,      728,     1044
*SPRING, ELSET=WK_51

1.552914e+00
*ELEMENT, TYPE=SPRINGA, ELSET=WK_52
     872,      729,     1045
*SPRING, ELSET=WK_52

1.552914e+00
*ELEMENT, TYPE=SPRINGA, ELSET=WK_53
     873,      730,     1046
*SPRING, ELSET=WK_53

7.764571e-01
*ELEMENT, TYPE=SPRINGA, ELSET=WK_54
     874,      731,     1047
*SPRING, ELSET=WK_54

7.764571e-01
*ELEMENT, TYPE=SPRINGA, ELSET=WK_55
     875,      732,     1048
*SPRING, ELSET=WK_55

7.764571e-01
*ELEMENT, TYPE=SPRINGA, ELSET=WK_56
     876,      733,     1049
*SPRING, ELSET=WK_56

7.764571e-01
*ELEMENT, TYPE=SPRINGA, ELSET=WK_57
     877,      734,     1050
*SPRING, ELSET=WK_57

7.764571e-01
*ELEMENT, TYPE=SPRINGA, ELSET=WK_58
     878,      735,     1051
*SPRING, ELSET=WK_58

1.552914e+00
*ELEMENT, TYPE=SPRINGA, ELSET=WK_59
     879,      736,     1052
*SPRING, ELSET=WK_59

1.552914e+00
*ELEMENT, TYPE=SPRINGA, ELSET=WK_60
     880,      737,     1053
*SPRING, ELSET=WK_60

1.552914e+00
*ELEMENT, TYPE=SPRINGA, ELSET=WK_61
     881,      738,     1054
*SPRING, ELSET=WK_61

1.552914e+00
*ELEMENT, TYPE=SPRINGA, ELSET=WK_62
     882,      739,     1055
*SPRING, ELSET=WK_62

1.552914e+00
*ELEMENT, TYPE=SPRINGA, ELSET=WK_63
     883,      740,     1056
*SPRING, ELSET=WK_63

1.552914e+00
*ELEMENT, TYPE=SPRINGA, ELSET=WK_64
     884,      741,     1057
*SPRING, ELSET=WK_64

1.552914e+00
*ELEMENT, TYPE=SPRINGA, ELSET=WK_65
     885,      742,     1058
*SPRING, ELSET=WK_65

1.552914e+00
*ELEMENT, TYPE=SPRINGA, ELSET=WK_66
     886,      743,     1059
*SPRING, ELSET=WK_66

7.764571e-01
*ELEMENT, TYPE=SPRINGA, ELSET=WK_67
     887,      744,     1060
*SPRING, ELSET=WK_67

7.764571e-01
*BOUNDARY
GHOST_WINKLER, 1, 3, 0
