** Malha C3D8I gerada por foam_polymesh_to_ccx_inp.py
** Origem: ../solid/constant/polyMesh
*NODE, NSET=NALL
       1, -1.28359522e-02, -2.71719046e-02,  7.50000000e-04
       2, -1.28359522e-02, -2.71719046e-02,  2.50000000e-04
       3, -1.28359522e-02, -2.71719046e-02, -2.50000000e-04
       4, -1.28359522e-02, -2.71719046e-02, -7.50000000e-04
       5, -1.31359522e-02, -2.67719046e-02,  7.50000000e-04
       6, -1.31359522e-02, -2.67719046e-02,  2.50000000e-04
       7, -1.31359522e-02, -2.67719046e-02, -2.50000000e-04
       8, -1.31359522e-02, -2.67719046e-02, -7.50000000e-04
       9, -1.34359522e-02, -2.63719046e-02,  7.50000000e-04
      10, -1.34359522e-02, -2.63719046e-02,  2.50000000e-04
      11, -1.34359522e-02, -2.63719046e-02, -2.50000000e-04
      12, -1.34359522e-02, -2.63719046e-02, -7.50000000e-04
      13, -1.37359522e-02, -2.59719046e-02,  7.50000000e-04
      14, -1.37359522e-02, -2.59719046e-02,  2.50000000e-04
      15, -1.37359522e-02, -2.59719046e-02, -2.50000000e-04
      16, -1.37359522e-02, -2.59719046e-02, -7.50000000e-04
      17, -8.28581258e-03, -2.30684782e-02,  7.50000000e-04
      18, -8.28581258e-03, -2.30684782e-02,  2.50000000e-04
      19, -8.28581258e-03, -2.30684782e-02, -2.50000000e-04
      20, -8.28581258e-03, -2.30684782e-02, -7.50000000e-04
      21, -8.65279558e-03, -2.27288851e-02,  7.50000000e-04
      22, -8.65279558e-03, -2.27288851e-02,  2.50000000e-04
      23, -8.65279558e-03, -2.27288851e-02, -2.50000000e-04
      24, -8.65279558e-03, -2.27288851e-02, -7.50000000e-04
      25, -9.01977859e-03, -2.23892920e-02,  7.50000000e-04
      26, -9.01977859e-03, -2.23892920e-02,  2.50000000e-04
      27, -9.01977859e-03, -2.23892920e-02, -2.50000000e-04
      28, -9.01977859e-03, -2.23892920e-02, -7.50000000e-04
      29, -9.38676160e-03, -2.20496989e-02,  7.50000000e-04
      30, -9.38676160e-03, -2.20496989e-02,  2.50000000e-04
      31, -9.38676160e-03, -2.20496989e-02, -2.50000000e-04
      32, -9.38676160e-03, -2.20496989e-02, -7.50000000e-04
      33, -4.54693632e-03, -1.82143374e-02,  7.50000000e-04
      34, -4.54693632e-03, -1.82143374e-02,  2.50000000e-04
      35, -4.54693632e-03, -1.82143374e-02, -2.50000000e-04
      36, -4.54693632e-03, -1.82143374e-02, -7.50000000e-04
      37, -4.96895965e-03, -1.79462026e-02,  7.50000000e-04
      38, -4.96895965e-03, -1.79462026e-02,  2.50000000e-04
      39, -4.96895965e-03, -1.79462026e-02, -2.50000000e-04
      40, -4.96895965e-03, -1.79462026e-02, -7.50000000e-04
      41, -5.39098299e-03, -1.76780677e-02,  7.50000000e-04
      42, -5.39098299e-03, -1.76780677e-02,  2.50000000e-04
      43, -5.39098299e-03, -1.76780677e-02, -2.50000000e-04
      44, -5.39098299e-03, -1.76780677e-02, -7.50000000e-04
      45, -5.81300632e-03, -1.74099328e-02,  7.50000000e-04
      46, -5.81300632e-03, -1.74099328e-02,  2.50000000e-04
      47, -5.81300632e-03, -1.74099328e-02, -2.50000000e-04
      48, -5.81300632e-03, -1.74099328e-02, -7.50000000e-04
      49, -1.74099716e-03, -1.27674499e-02,  7.50000000e-04
      50, -1.74099716e-03, -1.27674499e-02,  2.50000000e-04
      51, -1.74099716e-03, -1.27674499e-02, -2.50000000e-04
      52, -1.74099716e-03, -1.27674499e-02, -7.50000000e-04
      53, -2.20432697e-03, -1.25794991e-02,  7.50000000e-04
      54, -2.20432697e-03, -1.25794991e-02,  2.50000000e-04
      55, -2.20432697e-03, -1.25794991e-02, -2.50000000e-04
      56, -2.20432697e-03, -1.25794991e-02, -7.50000000e-04
      57, -2.66765678e-03, -1.23915484e-02,  7.50000000e-04
      58, -2.66765678e-03, -1.23915484e-02,  2.50000000e-04
      59, -2.66765678e-03, -1.23915484e-02, -2.50000000e-04
      60, -2.66765678e-03, -1.23915484e-02, -7.50000000e-04
      61, -3.13098659e-03, -1.22035976e-02,  7.50000000e-04
      62, -3.13098659e-03, -1.22035976e-02,  2.50000000e-04
      63, -3.13098659e-03, -1.22035976e-02, -2.50000000e-04
      64, -3.13098659e-03, -1.22035976e-02, -7.50000000e-04
      65,  4.06916017e-05, -6.90507293e-03,  7.50000000e-04
      66,  4.06916017e-05, -6.90507293e-03,  2.50000000e-04
      67,  4.06916017e-05, -6.90507293e-03, -2.50000000e-04
      68,  4.06916017e-05, -6.90507293e-03, -7.50000000e-04
      69, -4.48866607e-04, -6.80342274e-03,  7.50000000e-04
      70, -4.48866607e-04, -6.80342274e-03,  2.50000000e-04
      71, -4.48866607e-04, -6.80342274e-03, -2.50000000e-04
      72, -4.48866607e-04, -6.80342274e-03, -7.50000000e-04
      73, -9.38424816e-04, -6.70177255e-03,  7.50000000e-04
      74, -9.38424816e-04, -6.70177255e-03,  2.50000000e-04
      75, -9.38424816e-04, -6.70177255e-03, -2.50000000e-04
      76, -9.38424816e-04, -6.70177255e-03, -7.50000000e-04
      77, -1.42798302e-03, -6.60012237e-03,  7.50000000e-04
      78, -1.42798302e-03, -6.60012237e-03,  2.50000000e-04
      79, -1.42798302e-03, -6.60012237e-03, -2.50000000e-04
      80, -1.42798302e-03, -6.60012237e-03, -7.50000000e-04
      81,  7.40148697e-04, -8.17985099e-04,  7.50000000e-04
      82,  7.40148697e-04, -8.17985099e-04,  2.50000000e-04
      83,  7.40148697e-04, -8.17985099e-04, -2.50000000e-04
      84,  7.40148697e-04, -8.17985099e-04, -7.50000000e-04
      85,  2.40293719e-04, -8.05943469e-04,  7.50000000e-04
      86,  2.40293719e-04, -8.05943469e-04,  2.50000000e-04
      87,  2.40293719e-04, -8.05943469e-04, -2.50000000e-04
      88,  2.40293719e-04, -8.05943469e-04, -7.50000000e-04
      89, -2.59561259e-04, -7.93901838e-04,  7.50000000e-04
      90, -2.59561259e-04, -7.93901838e-04,  2.50000000e-04
      91, -2.59561259e-04, -7.93901838e-04, -2.50000000e-04
      92, -2.59561259e-04, -7.93901838e-04, -7.50000000e-04
      93, -7.59416237e-04, -7.81860208e-04,  7.50000000e-04
      94, -7.59416237e-04, -7.81860208e-04,  2.50000000e-04
      95, -7.59416237e-04, -7.81860208e-04, -2.50000000e-04
      96, -7.59416237e-04, -7.81860208e-04, -7.50000000e-04
      97, -1.37980842e-02, -2.58890619e-02,  8.53553333e-04
      98, -1.38602162e-02, -2.58062192e-02,  9.57106667e-04
      99, -1.39223482e-02, -2.57233766e-02,  1.06066000e-03
     100, -1.34635979e-02, -2.63350436e-02,  9.82962906e-04
     101, -1.34912436e-02, -2.62981827e-02,  1.21592581e-03
     102, -1.35188893e-02, -2.62613217e-02,  1.44888872e-03
     103, -1.31083065e-02, -2.68087655e-02,  9.82962906e-04
     104, -1.30806608e-02, -2.68456265e-02,  1.21592581e-03
     105, -1.30530151e-02, -2.68824874e-02,  1.44888872e-03
     106, -1.27738202e-02, -2.72547472e-02,  8.53553333e-04
     107, -1.27116882e-02, -2.73375899e-02,  9.57106667e-04
     108, -1.26495562e-02, -2.74204326e-02,  1.06066000e-03
     109, -9.46276623e-03, -2.19793669e-02,  8.53553333e-04
     110, -9.53877086e-03, -2.19090349e-02,  9.57106667e-04
     111, -9.61477548e-03, -2.18387029e-02,  1.06066000e-03
     112, -9.05359694e-03, -2.23579977e-02,  9.82962906e-04
     113, -9.08741529e-03, -2.23267034e-02,  1.21592581e-03
     114, -9.12123365e-03, -2.22954091e-02,  1.44888872e-03
     115, -8.61897723e-03, -2.27601794e-02,  9.82962906e-04
     116, -8.58515888e-03, -2.27914737e-02,  1.21592581e-03
     117, -8.55134053e-03, -2.28227680e-02,  1.44888872e-03
     118, -8.20980795e-03, -2.31388102e-02,  8.53553333e-04
     119, -8.13380332e-03, -2.32091422e-02,  9.57106667e-04
     120, -8.05779869e-03, -2.32794742e-02,  1.06066000e-03
     121, -5.90041017e-03, -1.73544003e-02,  8.53553333e-04
     122, -5.98781401e-03, -1.72988678e-02,  9.57106667e-04
     123, -6.07521786e-03, -1.72433353e-02,  1.06066000e-03
     124, -5.42987343e-03, -1.76533584e-02,  9.82962906e-04
     125, -5.46876388e-03, -1.76286492e-02,  1.21592581e-03
     126, -5.50765433e-03, -1.76039399e-02,  1.44888872e-03
     127, -4.93006920e-03, -1.79709118e-02,  9.82962906e-04
     128, -4.89117876e-03, -1.79956211e-02,  1.21592581e-03
     129, -4.85228831e-03, -1.80203303e-02,  1.44888872e-03
     130, -4.45953247e-03, -1.82698699e-02,  8.53553333e-04
     131, -4.37212862e-03, -1.83254025e-02,  9.57106667e-04
     132, -4.28472478e-03, -1.83809350e-02,  1.06066000e-03
     133, -3.22694528e-03, -1.21646718e-02,  8.53553333e-04
     134, -3.32290398e-03, -1.21257459e-02,  9.57106667e-04
     135, -3.41886267e-03, -1.20868201e-02,  1.06066000e-03
     136, -2.71035372e-03, -1.23742283e-02,  9.82962906e-04
     137, -2.75305065e-03, -1.23569082e-02,  1.21592581e-03
     138, -2.79574759e-03, -1.23395881e-02,  1.44888872e-03
     139, -2.16163003e-03, -1.25968192e-02,  9.82962906e-04
     140, -2.11893310e-03, -1.26141393e-02,  1.21592581e-03
     141, -2.07623616e-03, -1.26314594e-02,  1.44888872e-03
     142, -1.64503846e-03, -1.28063757e-02,  8.53553333e-04
     143, -1.54907977e-03, -1.28453016e-02,  9.57106667e-04
     144, -1.45312108e-03, -1.28842274e-02,  1.06066000e-03
     145, -1.52937379e-03, -6.57906994e-03,  8.53553333e-04
     146, -1.63076456e-03, -6.55801750e-03,  9.57106667e-04
     147, -1.73215533e-03, -6.53696507e-03,  1.06066000e-03
     148, -9.83538761e-04, -6.69240525e-03,  9.82962906e-04
     149, -1.02865271e-03, -6.68303794e-03,  1.21592581e-03
     150, -1.07376665e-03, -6.67367064e-03,  1.44888872e-03
     151, -4.03752662e-04, -6.81279004e-03,  9.82962906e-04
     152, -3.58638717e-04, -6.82215735e-03,  1.21592581e-03
     153, -3.13524772e-04, -6.83152465e-03,  1.44888872e-03
     154,  1.42082370e-04, -6.92612536e-03,  8.53553333e-04
     155,  2.43473139e-04, -6.94717779e-03,  9.57106667e-04
     156,  3.44863908e-04, -6.96823022e-03,  1.06066000e-03
     157, -8.62939535e-04, -7.79366306e-04,  8.53553333e-04
     158, -9.66462834e-04, -7.76872404e-04,  9.57106667e-04
     159, -1.06998613e-03, -7.74378502e-04,  1.06066000e-03
     160, -3.05624076e-04, -7.92792173e-04,  9.82962906e-04
     161, -3.51686892e-04, -7.91682509e-04,  1.21592581e-03
     162, -3.97749709e-04, -7.90572844e-04,  1.44888872e-03
     163,  2.86356536e-04, -8.07053134e-04,  9.82962906e-04
     164,  3.32419352e-04, -8.08162798e-04,  1.21592581e-03
     165,  3.78482168e-04, -8.09272463e-04,  1.44888872e-03
     166,  8.43671995e-04, -8.20479001e-04,  8.53553333e-04
     167,  9.47195294e-04, -8.22972903e-04,  9.57106667e-04
     168,  1.05071859e-03, -8.25466805e-04,  1.06066000e-03
     169, -1.26961744e-02, -2.73582749e-02,  2.96076181e-04
     170, -1.25563967e-02, -2.75446452e-02,  3.42152361e-04
     171, -1.24166189e-02, -2.77310156e-02,  3.88228542e-04
     172, -1.26961744e-02, -2.73582749e-02, -2.96076181e-04
     173, -1.25563967e-02, -2.75446452e-02, -3.42152361e-04
     174, -1.24166189e-02, -2.77310156e-02, -3.88228542e-04
     175, -1.27738202e-02, -2.72547472e-02, -8.53553333e-04
     176, -1.27116882e-02, -2.73375899e-02, -9.57106667e-04
     177, -1.26495562e-02, -2.74204326e-02, -1.06066000e-03
     178, -8.11482572e-03, -2.32267034e-02,  2.96076181e-04
     179, -7.94383887e-03, -2.33849286e-02,  3.42152361e-04
     180, -7.77285201e-03, -2.35431538e-02,  3.88228542e-04
     181, -8.11482572e-03, -2.32267034e-02, -2.96076181e-04
     182, -7.94383887e-03, -2.33849286e-02, -3.42152361e-04
     183, -7.77285201e-03, -2.35431538e-02, -3.88228542e-04
     184, -8.20980795e-03, -2.31388102e-02, -8.53553333e-04
     185, -8.13380332e-03, -2.32091422e-02, -9.57106667e-04
     186, -8.05779869e-03, -2.32794742e-02, -1.06066000e-03
     187, -4.35030475e-03, -1.83392684e-02,  2.96076181e-04
     188, -4.15367319e-03, -1.84641993e-02,  3.42152361e-04
     189, -3.95704162e-03, -1.85891303e-02,  3.88228542e-04
     190, -4.35030475e-03, -1.83392684e-02, -2.96076181e-04
     191, -4.15367319e-03, -1.84641993e-02, -3.42152361e-04
     192, -3.95704162e-03, -1.85891303e-02, -3.88228542e-04
     193, -4.45953247e-03, -1.82698699e-02, -8.53553333e-04
     194, -4.37212862e-03, -1.83254025e-02, -9.57106667e-04
     195, -4.28472478e-03, -1.83809350e-02, -1.06066000e-03
     196, -1.52511984e-03, -1.28550210e-02,  2.96076181e-04
     197, -1.30924252e-03, -1.29425921e-02,  3.42152361e-04
     198, -1.09336520e-03, -1.30301632e-02,  3.88228542e-04
     199, -1.52511984e-03, -1.28550210e-02, -2.96076181e-04
     200, -1.30924252e-03, -1.29425921e-02, -3.42152361e-04
     201, -1.09336520e-03, -1.30301632e-02, -3.88228542e-04
     202, -1.64503846e-03, -1.28063757e-02, -8.53553333e-04
     203, -1.54907977e-03, -1.28453016e-02, -9.57106667e-04
     204, -1.45312108e-03, -1.28842274e-02, -1.06066000e-03
     205,  2.68789408e-04, -6.95243437e-03,  2.96076181e-04
     206,  4.96887212e-04, -6.99979582e-03,  3.42152361e-04
     207,  7.24985021e-04, -7.04715726e-03,  3.88228542e-04
     208,  2.68789408e-04, -6.95243437e-03, -2.96076181e-04
     209,  4.96887212e-04, -6.99979582e-03, -3.42152361e-04
     210,  7.24985021e-04, -7.04715726e-03, -3.88228542e-04
     211,  1.42082370e-04, -6.92612536e-03, -8.53553333e-04
     212,  2.43473139e-04, -6.94717779e-03, -9.57106667e-04
     213,  3.44863908e-04, -6.96823022e-03, -1.06066000e-03
     214,  9.73044033e-04, -8.23595606e-04,  2.96076181e-04
     215,  1.20593937e-03, -8.29206112e-04,  3.42152361e-04
     216,  1.43883471e-03, -8.34816619e-04,  3.88228542e-04
     217,  9.73044033e-04, -8.23595606e-04, -2.96076181e-04
     218,  1.20593937e-03, -8.29206112e-04, -3.42152361e-04
     219,  1.43883471e-03, -8.34816619e-04, -3.88228542e-04
     220,  8.43671995e-04, -8.20479001e-04, -8.53553333e-04
     221,  9.47195294e-04, -8.22972903e-04, -9.57106667e-04
     222,  1.05071859e-03, -8.25466805e-04, -1.06066000e-03
     223, -1.31083065e-02, -2.68087655e-02, -9.82962906e-04
     224, -1.30806608e-02, -2.68456265e-02, -1.21592581e-03
     225, -1.30530151e-02, -2.68824874e-02, -1.44888872e-03
     226, -1.34635979e-02, -2.63350436e-02, -9.82962906e-04
     227, -1.34912436e-02, -2.62981827e-02, -1.21592581e-03
     228, -1.35188893e-02, -2.62613217e-02, -1.44888872e-03
     229, -1.37980842e-02, -2.58890619e-02, -8.53553333e-04
     230, -1.38602162e-02, -2.58062192e-02, -9.57106667e-04
     231, -1.39223482e-02, -2.57233766e-02, -1.06066000e-03
     232, -8.61897723e-03, -2.27601794e-02, -9.82962906e-04
     233, -8.58515888e-03, -2.27914737e-02, -1.21592581e-03
     234, -8.55134053e-03, -2.28227680e-02, -1.44888872e-03
     235, -9.05359694e-03, -2.23579977e-02, -9.82962906e-04
     236, -9.08741529e-03, -2.23267034e-02, -1.21592581e-03
     237, -9.12123365e-03, -2.22954091e-02, -1.44888872e-03
     238, -9.46276623e-03, -2.19793669e-02, -8.53553333e-04
     239, -9.53877086e-03, -2.19090349e-02, -9.57106667e-04
     240, -9.61477548e-03, -2.18387029e-02, -1.06066000e-03
     241, -4.93006920e-03, -1.79709118e-02, -9.82962906e-04
     242, -4.89117876e-03, -1.79956211e-02, -1.21592581e-03
     243, -4.85228831e-03, -1.80203303e-02, -1.44888872e-03
     244, -5.42987343e-03, -1.76533584e-02, -9.82962906e-04
     245, -5.46876388e-03, -1.76286492e-02, -1.21592581e-03
     246, -5.50765433e-03, -1.76039399e-02, -1.44888872e-03
     247, -5.90041017e-03, -1.73544003e-02, -8.53553333e-04
     248, -5.98781401e-03, -1.72988678e-02, -9.57106667e-04
     249, -6.07521786e-03, -1.72433353e-02, -1.06066000e-03
     250, -2.16163003e-03, -1.25968192e-02, -9.82962906e-04
     251, -2.11893310e-03, -1.26141393e-02, -1.21592581e-03
     252, -2.07623616e-03, -1.26314594e-02, -1.44888872e-03
     253, -2.71035372e-03, -1.23742283e-02, -9.82962906e-04
     254, -2.75305065e-03, -1.23569082e-02, -1.21592581e-03
     255, -2.79574759e-03, -1.23395881e-02, -1.44888872e-03
     256, -3.22694528e-03, -1.21646718e-02, -8.53553333e-04
     257, -3.32290398e-03, -1.21257459e-02, -9.57106667e-04
     258, -3.41886267e-03, -1.20868201e-02, -1.06066000e-03
     259, -4.03752662e-04, -6.81279004e-03, -9.82962906e-04
     260, -3.58638717e-04, -6.82215735e-03, -1.21592581e-03
     261, -3.13524772e-04, -6.83152465e-03, -1.44888872e-03
     262, -9.83538761e-04, -6.69240525e-03, -9.82962906e-04
     263, -1.02865271e-03, -6.68303794e-03, -1.21592581e-03
     264, -1.07376665e-03, -6.67367064e-03, -1.44888872e-03
     265, -1.52937379e-03, -6.57906994e-03, -8.53553333e-04
     266, -1.63076456e-03, -6.55801750e-03, -9.57106667e-04
     267, -1.73215533e-03, -6.53696507e-03, -1.06066000e-03
     268,  2.86356536e-04, -8.07053134e-04, -9.82962906e-04
     269,  3.32419352e-04, -8.08162798e-04, -1.21592581e-03
     270,  3.78482168e-04, -8.09272463e-04, -1.44888872e-03
     271, -3.05624076e-04, -7.92792173e-04, -9.82962906e-04
     272, -3.51686892e-04, -7.91682509e-04, -1.21592581e-03
     273, -3.97749709e-04, -7.90572844e-04, -1.44888872e-03
     274, -8.62939535e-04, -7.79366306e-04, -8.53553333e-04
     275, -9.66462834e-04, -7.76872404e-04, -9.57106667e-04
     276, -1.06998613e-03, -7.74378502e-04, -1.06066000e-03
     277, -1.38757299e-02, -2.57855343e-02, -2.96076181e-04
     278, -1.40155077e-02, -2.55991639e-02, -3.42152361e-04
     279, -1.41552854e-02, -2.54127936e-02, -3.88228542e-04
     280, -1.38757299e-02, -2.57855343e-02,  2.96076181e-04
     281, -1.40155077e-02, -2.55991639e-02,  3.42152361e-04
     282, -1.41552854e-02, -2.54127936e-02,  3.88228542e-04
     283, -9.55774846e-03, -2.18914737e-02, -2.96076181e-04
     284, -9.72873531e-03, -2.17332485e-02, -3.42152361e-04
     285, -9.89972217e-03, -2.15750233e-02, -3.88228542e-04
     286, -9.55774846e-03, -2.18914737e-02,  2.96076181e-04
     287, -9.72873531e-03, -2.17332485e-02,  3.42152361e-04
     288, -9.89972217e-03, -2.15750233e-02,  3.88228542e-04
     289, -6.00963789e-03, -1.72850019e-02, -2.96076181e-04
     290, -6.20626945e-03, -1.71600709e-02, -3.42152361e-04
     291, -6.40290102e-03, -1.70351400e-02, -3.88228542e-04
     292, -6.00963789e-03, -1.72850019e-02,  2.96076181e-04
     293, -6.20626945e-03, -1.71600709e-02,  3.42152361e-04
     294, -6.40290102e-03, -1.70351400e-02,  3.88228542e-04
     295, -3.34686391e-03, -1.21160265e-02, -2.96076181e-04
     296, -3.56274123e-03, -1.20284554e-02, -3.42152361e-04
     297, -3.77861855e-03, -1.19408843e-02, -3.88228542e-04
     298, -3.34686391e-03, -1.21160265e-02,  2.96076181e-04
     299, -3.56274123e-03, -1.20284554e-02,  3.42152361e-04
     300, -3.77861855e-03, -1.19408843e-02,  3.88228542e-04
     301, -1.65608083e-03, -6.55276092e-03, -2.96076181e-04
     302, -1.88417863e-03, -6.50539948e-03, -3.42152361e-04
     303, -2.11227644e-03, -6.45803803e-03, -3.88228542e-04
     304, -1.65608083e-03, -6.55276092e-03,  2.96076181e-04
     305, -1.88417863e-03, -6.50539948e-03,  3.42152361e-04
     306, -2.11227644e-03, -6.45803803e-03,  3.88228542e-04
     307, -9.92311574e-04, -7.76249701e-04, -2.96076181e-04
     308, -1.22520691e-03, -7.70639195e-04, -3.42152361e-04
     309, -1.45810225e-03, -7.65028688e-04, -3.88228542e-04
     310, -9.92311574e-04, -7.76249701e-04,  2.96076181e-04
     311, -1.22520691e-03, -7.70639195e-04,  3.42152361e-04
     312, -1.45810225e-03, -7.65028688e-04,  3.88228542e-04
     313, -1.39435618e-02, -2.56950918e-02,  1.09601600e-03
     314, -1.35266539e-02, -2.62509689e-02,  1.49718509e-03
     315, -1.30452504e-02, -2.68928403e-02,  1.49718509e-03
     316, -1.26283426e-02, -2.74487174e-02,  1.09601600e-03
     317, -9.64072559e-03, -2.18146896e-02,  1.09601600e-03
     318, -9.13073194e-03, -2.22866197e-02,  1.49718509e-03
     319, -8.54184224e-03, -2.28315574e-02,  1.49718509e-03
     320, -8.03184859e-03, -2.33034875e-02,  1.09601600e-03
     321, -6.10505997e-03, -1.72243749e-02,  1.09601600e-03
     322, -5.51857718e-03, -1.75970000e-02,  1.49718509e-03
     323, -4.84136546e-03, -1.80272702e-02,  1.49718509e-03
     324, -4.25488266e-03, -1.83998953e-02,  1.09601600e-03
     325, -3.45162565e-03, -1.20735297e-02,  1.09601600e-03
     326, -2.80773954e-03, -1.23347235e-02,  1.49718509e-03
     327, -2.06424421e-03, -1.26363240e-02,  1.49718509e-03
     328, -1.42035810e-03, -1.28975178e-02,  1.09601600e-03
     329, -1.76677297e-03, -6.52977719e-03,  1.09601600e-03
     330, -1.08643745e-03, -6.67103972e-03,  1.49718509e-03
     331, -3.00853976e-04, -6.83415557e-03,  1.49718509e-03
     332,  3.79481548e-04, -6.97541811e-03,  1.09601600e-03
     333, -1.10533188e-03, -7.73527014e-04,  1.09601600e-03
     334, -4.10687007e-04, -7.90261181e-04,  1.49718509e-03
     335,  3.91419467e-04, -8.09584126e-04,  1.49718509e-03
     336,  1.08606434e-03, -8.26318293e-04,  1.09601600e-03
     337, -1.23876411e-02, -2.77696526e-02,  4.01169594e-04
     338, -1.23876411e-02, -2.77696526e-02, -4.01169594e-04
     339, -1.26283426e-02, -2.74487174e-02, -1.09601600e-03
     340, -7.73740411e-03, -2.35759560e-02,  4.01169594e-04
     341, -7.73740411e-03, -2.35759560e-02, -4.01169594e-04
     342, -8.03184859e-03, -2.33034875e-02, -1.09601600e-03
     343, -3.91627723e-03, -1.86150302e-02,  4.01169594e-04
     344, -3.91627723e-03, -1.86150302e-02, -4.01169594e-04
     345, -4.25488266e-03, -1.83998953e-02, -1.09601600e-03
     346, -1.04861090e-03, -1.30483179e-02,  4.01169594e-04
     347, -1.04861090e-03, -1.30483179e-02, -4.01169594e-04
     348, -1.42035810e-03, -1.28975178e-02, -1.09601600e-03
     349,  7.72272790e-04, -7.05697593e-03,  4.01169594e-04
     350,  7.72272790e-04, -7.05697593e-03, -4.01169594e-04
     351,  3.79481548e-04, -6.97541811e-03, -1.09601600e-03
     352,  1.48711707e-03, -8.35979753e-04,  4.01169594e-04
     353,  1.48711707e-03, -8.35979753e-04, -4.01169594e-04
     354,  1.08606434e-03, -8.26318293e-04, -1.09601600e-03
     355, -1.30452504e-02, -2.68928403e-02, -1.49718509e-03
     356, -1.35266539e-02, -2.62509689e-02, -1.49718509e-03
     357, -1.39435618e-02, -2.56950918e-02, -1.09601600e-03
     358, -8.54184224e-03, -2.28315574e-02, -1.49718509e-03
     359, -9.13073194e-03, -2.22866197e-02, -1.49718509e-03
     360, -9.64072559e-03, -2.18146896e-02, -1.09601600e-03
     361, -4.84136546e-03, -1.80272702e-02, -1.49718509e-03
     362, -5.51857718e-03, -1.75970000e-02, -1.49718509e-03
     363, -6.10505997e-03, -1.72243749e-02, -1.09601600e-03
     364, -2.06424421e-03, -1.26363240e-02, -1.49718509e-03
     365, -2.80773954e-03, -1.23347235e-02, -1.49718509e-03
     366, -3.45162565e-03, -1.20735297e-02, -1.09601600e-03
     367, -3.00853976e-04, -6.83415557e-03, -1.49718509e-03
     368, -1.08643745e-03, -6.67103972e-03, -1.49718509e-03
     369, -1.76677297e-03, -6.52977719e-03, -1.09601600e-03
     370,  3.91419467e-04, -8.09584126e-04, -1.49718509e-03
     371, -4.10687007e-04, -7.90261181e-04, -1.49718509e-03
     372, -1.10533188e-03, -7.73527014e-04, -1.09601600e-03
     373, -1.41842632e-02, -2.53741565e-02, -4.01169594e-04
     374, -1.41842632e-02, -2.53741565e-02,  4.01169594e-04
     375, -9.93517006e-03, -2.15422211e-02, -4.01169594e-04
     376, -9.93517006e-03, -2.15422211e-02,  4.01169594e-04
     377, -6.44366541e-03, -1.70092401e-02, -4.01169594e-04
     378, -6.44366541e-03, -1.70092401e-02,  4.01169594e-04
     379, -3.82337285e-03, -1.19227296e-02, -4.01169594e-04
     380, -3.82337285e-03, -1.19227296e-02,  4.01169594e-04
     381, -2.15956421e-03, -6.44821936e-03, -4.01169594e-04
     382, -2.15956421e-03, -6.44821936e-03,  4.01169594e-04
     383, -1.50638461e-03, -7.63865554e-04, -4.01169594e-04
     384, -1.50638461e-03, -7.63865554e-04,  4.01169594e-04
     385, -1.40390212e-02, -2.55678126e-02,  1.25511500e-03
     386, -1.41344806e-02, -2.54405334e-02,  1.41421400e-03
     387, -1.35615945e-02, -2.62043815e-02,  1.71451840e-03
     388, -1.35965351e-02, -2.61577941e-02,  1.93185171e-03
     389, -1.30103099e-02, -2.69394277e-02,  1.71451840e-03
     390, -1.29753693e-02, -2.69860151e-02,  1.93185171e-03
     391, -1.25328832e-02, -2.75759966e-02,  1.25511500e-03
     392, -1.24374238e-02, -2.77032758e-02,  1.41421400e-03
     393, -9.75749884e-03, -2.17066318e-02,  1.25511500e-03
     394, -9.87427210e-03, -2.15985739e-02,  1.41421400e-03
     395, -9.17347392e-03, -2.22470678e-02,  1.71451840e-03
     396, -9.21621590e-03, -2.22075159e-02,  1.93185171e-03
     397, -8.49910026e-03, -2.28711093e-02,  1.71451840e-03
     398, -8.45635827e-03, -2.29106612e-02,  1.93185171e-03
     399, -7.91507533e-03, -2.34115453e-02,  1.25511500e-03
     400, -7.79830207e-03, -2.35196032e-02,  1.41421400e-03
     401, -6.23934695e-03, -1.71390549e-02,  1.25511500e-03
     402, -6.37363393e-03, -1.70537350e-02,  1.41421400e-03
     403, -5.56772963e-03, -1.75657707e-02,  1.71451840e-03
     404, -5.61688208e-03, -1.75345415e-02,  1.93185171e-03
     405, -4.79221301e-03, -1.80584995e-02,  1.71451840e-03
     406, -4.74306056e-03, -1.80897288e-02,  1.93185171e-03
     407, -4.12059568e-03, -1.84852153e-02,  1.25511500e-03
     408, -3.98630870e-03, -1.85705353e-02,  1.41421400e-03
     409, -3.59905627e-03, -1.20137241e-02,  1.25511500e-03
     410, -3.74648689e-03, -1.19539186e-02,  1.41421400e-03
     411, -2.86170290e-03, -1.23128331e-02,  1.71451840e-03
     412, -2.91566625e-03, -1.22909428e-02,  1.93185171e-03
     413, -2.01028085e-03, -1.26582144e-02,  1.71451840e-03
     414, -1.95631750e-03, -1.26801047e-02,  1.93185171e-03
     415, -1.27292748e-03, -1.29573234e-02,  1.25511500e-03
     416, -1.12549686e-03, -1.30171289e-02,  1.41421400e-03
     417, -1.92254941e-03, -6.49743230e-03,  1.25511500e-03
     418, -2.07832586e-03, -6.46508741e-03,  1.41421400e-03
     419, -1.14345559e-03, -6.65920067e-03,  1.71451840e-03
     420, -1.20047373e-03, -6.64736162e-03,  1.93185171e-03
     421, -2.43835835e-04, -6.84599463e-03,  1.71451840e-03
     422, -1.86817695e-04, -6.85783368e-03,  1.93185171e-03
     423,  5.35257991e-04, -7.00776299e-03,  1.25511500e-03
     424,  6.91034434e-04, -7.04010788e-03,  1.41421400e-03
     425, -1.26438473e-03, -7.69695391e-04,  1.25511500e-03
     426, -1.42343759e-03, -7.65863768e-04,  1.41421400e-03
     427, -4.68904398e-04, -7.88858710e-04,  1.71451840e-03
     428, -5.27121788e-04, -7.87456239e-04,  1.93185171e-03
     429,  4.49636858e-04, -8.10986597e-04,  1.71451840e-03
     430,  5.07854248e-04, -8.12389068e-04,  1.93185171e-03
     431,  1.24511719e-03, -8.30149916e-04,  1.25511500e-03
     432,  1.40417005e-03, -8.33981539e-04,  1.41421400e-03
     433, -1.22572411e-02, -2.79435193e-02,  4.59403875e-04
     434, -1.21268412e-02, -2.81173859e-02,  5.17638156e-04
     435, -1.22572411e-02, -2.79435193e-02, -4.59403875e-04
     436, -1.21268412e-02, -2.81173859e-02, -5.17638156e-04
     437, -1.25328832e-02, -2.75759966e-02, -1.25511500e-03
     438, -1.24374238e-02, -2.77032758e-02, -1.41421400e-03
     439, -7.57788885e-03, -2.37235658e-02,  4.59403875e-04
     440, -7.41837359e-03, -2.38711756e-02,  5.17638156e-04
     441, -7.57788885e-03, -2.37235658e-02, -4.59403875e-04
     442, -7.41837359e-03, -2.38711756e-02, -5.17638156e-04
     443, -7.91507533e-03, -2.34115453e-02, -1.25511500e-03
     444, -7.79830207e-03, -2.35196032e-02, -1.41421400e-03
     445, -3.73283777e-03, -1.87315794e-02,  4.59403875e-04
     446, -3.54939832e-03, -1.88481287e-02,  5.17638156e-04
     447, -3.73283777e-03, -1.87315794e-02, -4.59403875e-04
     448, -3.54939832e-03, -1.88481287e-02, -5.17638156e-04
     449, -4.12059568e-03, -1.84852153e-02, -1.25511500e-03
     450, -3.98630870e-03, -1.85705353e-02, -1.41421400e-03
     451, -8.47216899e-04, -1.31300138e-02,  4.59403875e-04
     452, -6.45822896e-04, -1.32117097e-02,  5.17638156e-04
     453, -8.47216899e-04, -1.31300138e-02, -4.59403875e-04
     454, -6.45822896e-04, -1.32117097e-02, -5.17638156e-04
     455, -1.27292748e-03, -1.29573234e-02, -1.25511500e-03
     456, -1.12549686e-03, -1.30171289e-02, -1.41421400e-03
     457,  9.85067402e-04, -7.10115988e-03,  4.59403875e-04
     458,  1.19786201e-03, -7.14534382e-03,  5.17638156e-04
     459,  9.85067402e-04, -7.10115988e-03, -4.59403875e-04
     460,  1.19786201e-03, -7.14534382e-03, -5.17638156e-04
     461,  5.35257991e-04, -7.00776299e-03, -1.25511500e-03
     462,  6.91034434e-04, -7.04010788e-03, -1.41421400e-03
     463,  1.70438734e-03, -8.41213848e-04,  4.59403875e-04
     464,  1.92165762e-03, -8.46447943e-04,  5.17638156e-04
     465,  1.70438734e-03, -8.41213848e-04, -4.59403875e-04
     466,  1.92165762e-03, -8.46447943e-04, -5.17638156e-04
     467,  1.24511719e-03, -8.30149916e-04, -1.25511500e-03
     468,  1.40417005e-03, -8.33981539e-04, -1.41421400e-03
     469, -1.30103099e-02, -2.69394277e-02, -1.71451840e-03
     470, -1.29753693e-02, -2.69860151e-02, -1.93185171e-03
     471, -1.35615945e-02, -2.62043815e-02, -1.71451840e-03
     472, -1.35965351e-02, -2.61577941e-02, -1.93185171e-03
     473, -1.40390212e-02, -2.55678126e-02, -1.25511500e-03
     474, -1.41344806e-02, -2.54405334e-02, -1.41421400e-03
     475, -8.49910026e-03, -2.28711093e-02, -1.71451840e-03
     476, -8.45635827e-03, -2.29106612e-02, -1.93185171e-03
     477, -9.17347392e-03, -2.22470678e-02, -1.71451840e-03
     478, -9.21621590e-03, -2.22075159e-02, -1.93185171e-03
     479, -9.75749884e-03, -2.17066318e-02, -1.25511500e-03
     480, -9.87427210e-03, -2.15985739e-02, -1.41421400e-03
     481, -4.79221301e-03, -1.80584995e-02, -1.71451840e-03
     482, -4.74306056e-03, -1.80897288e-02, -1.93185171e-03
     483, -5.56772963e-03, -1.75657707e-02, -1.71451840e-03
     484, -5.61688208e-03, -1.75345415e-02, -1.93185171e-03
     485, -6.23934695e-03, -1.71390549e-02, -1.25511500e-03
     486, -6.37363393e-03, -1.70537350e-02, -1.41421400e-03
     487, -2.01028085e-03, -1.26582144e-02, -1.71451840e-03
     488, -1.95631750e-03, -1.26801047e-02, -1.93185171e-03
     489, -2.86170290e-03, -1.23128331e-02, -1.71451840e-03
     490, -2.91566625e-03, -1.22909428e-02, -1.93185171e-03
     491, -3.59905627e-03, -1.20137241e-02, -1.25511500e-03
     492, -3.74648689e-03, -1.19539186e-02, -1.41421400e-03
     493, -2.43835835e-04, -6.84599463e-03, -1.71451840e-03
     494, -1.86817695e-04, -6.85783368e-03, -1.93185171e-03
     495, -1.14345559e-03, -6.65920067e-03, -1.71451840e-03
     496, -1.20047373e-03, -6.64736162e-03, -1.93185171e-03
     497, -1.92254941e-03, -6.49743230e-03, -1.25511500e-03
     498, -2.07832586e-03, -6.46508741e-03, -1.41421400e-03
     499,  4.49636858e-04, -8.10986597e-04, -1.71451840e-03
     500,  5.07854248e-04, -8.12389068e-04, -1.93185171e-03
     501, -4.68904398e-04, -7.88858710e-04, -1.71451840e-03
     502, -5.27121788e-04, -7.87456239e-04, -1.93185171e-03
     503, -1.26438473e-03, -7.69695391e-04, -1.25511500e-03
     504, -1.42343759e-03, -7.65863768e-04, -1.41421400e-03
     505, -1.43146632e-02, -2.52002899e-02, -4.59403875e-04
     506, -1.44450632e-02, -2.50264232e-02, -5.17638156e-04
     507, -1.43146632e-02, -2.52002899e-02,  4.59403875e-04
     508, -1.44450632e-02, -2.50264232e-02,  5.17638156e-04
     509, -1.00946853e-02, -2.13946113e-02, -4.59403875e-04
     510, -1.02542006e-02, -2.12470015e-02, -5.17638156e-04
     511, -1.00946853e-02, -2.13946113e-02,  4.59403875e-04
     512, -1.02542006e-02, -2.12470015e-02,  5.17638156e-04
     513, -6.62710486e-03, -1.68926908e-02, -4.59403875e-04
     514, -6.81054432e-03, -1.67761415e-02, -5.17638156e-04
     515, -6.62710486e-03, -1.68926908e-02,  4.59403875e-04
     516, -6.81054432e-03, -1.67761415e-02,  5.17638156e-04
     517, -4.02476685e-03, -1.18410337e-02, -4.59403875e-04
     518, -4.22616085e-03, -1.17593378e-02, -5.17638156e-04
     519, -4.02476685e-03, -1.18410337e-02,  4.59403875e-04
     520, -4.22616085e-03, -1.17593378e-02,  5.17638156e-04
     521, -2.37235882e-03, -6.40403542e-03, -4.59403875e-04
     522, -2.58515344e-03, -6.35985147e-03, -5.17638156e-04
     523, -2.37235882e-03, -6.40403542e-03,  4.59403875e-04
     524, -2.58515344e-03, -6.35985147e-03,  5.17638156e-04
     525, -1.72365488e-03, -7.58631459e-04, -4.59403875e-04
     526, -1.94092516e-03, -7.53397364e-04, -5.17638156e-04
     527, -1.72365488e-03, -7.58631459e-04,  4.59403875e-04
     528, -1.94092516e-03, -7.53397364e-04,  5.17638156e-04
     529, -1.42087267e-02, -2.53415386e-02,  1.53795750e-03
     530, -1.42829728e-02, -2.52425438e-02,  1.66170100e-03
     531, -1.36237111e-02, -2.61215594e-02,  2.10088871e-03
     532, -1.36508870e-02, -2.60853248e-02,  2.26992570e-03
     533, -1.29481933e-02, -2.70222497e-02,  2.10088871e-03
     534, -1.29210173e-02, -2.70584844e-02,  2.26992570e-03
     535, -1.23631777e-02, -2.78022706e-02,  1.53795750e-03
     536, -1.22889316e-02, -2.79012654e-02,  1.66170100e-03
     537, -9.96509563e-03, -2.15145291e-02,  1.53795750e-03
     538, -1.00559192e-02, -2.14304842e-02,  1.66170100e-03
     539, -9.24945965e-03, -2.21767533e-02,  2.10088871e-03
     540, -9.28270340e-03, -2.21459907e-02,  2.26992570e-03
     541, -8.42311453e-03, -2.29414238e-02,  2.10088871e-03
     542, -8.38987078e-03, -2.29721864e-02,  2.26992570e-03
     543, -7.70747855e-03, -2.36036481e-02,  1.53795750e-03
     544, -7.61665503e-03, -2.36876929e-02,  1.66170100e-03
     545, -6.47807922e-03, -1.69873751e-02,  1.53795750e-03
     546, -6.58252451e-03, -1.69210152e-02,  1.66170100e-03
     547, -5.65511174e-03, -1.75102520e-02,  2.10088871e-03
     548, -5.69334141e-03, -1.74859626e-02,  2.26992570e-03
     549, -4.70483089e-03, -1.81140182e-02,  2.10088871e-03
     550, -4.66660123e-03, -1.81383077e-02,  2.26992570e-03
     551, -3.88186341e-03, -1.86368952e-02,  1.53795750e-03
     552, -3.77741813e-03, -1.87032551e-02,  1.66170100e-03
     553, -3.86115499e-03, -1.19074032e-02,  1.53795750e-03
     554, -3.97582310e-03, -1.18608878e-02,  1.66170100e-03
     555, -2.95763773e-03, -1.22739170e-02,  2.10088871e-03
     556, -2.99960921e-03, -1.22568911e-02,  2.26992570e-03
     557, -1.91434602e-03, -1.26971305e-02,  2.10088871e-03
     558, -1.87237454e-03, -1.27141564e-02,  2.26992570e-03
     559, -1.01082876e-03, -1.30636443e-02,  1.53795750e-03
     560, -8.96160651e-04, -1.31101597e-02,  1.66170100e-03
     561, -2.19948515e-03, -6.43993031e-03,  1.53795750e-03
     562, -2.32064444e-03, -6.41477321e-03,  1.66170100e-03
     563, -1.24482115e-03, -6.63815347e-03,  2.10088871e-03
     564, -1.28916857e-03, -6.62894532e-03,  2.26992570e-03
     565, -1.42470276e-04, -6.86704182e-03,  2.10088871e-03
     566, -9.81228575e-05, -6.87624997e-03,  2.26992570e-03
     567,  8.12193726e-04, -7.06526498e-03,  1.53795750e-03
     568,  9.33353018e-04, -7.09042208e-03,  1.66170100e-03
     569, -1.54714520e-03, -7.62883621e-04,  1.53795750e-03
     570, -1.67085280e-03, -7.59903474e-04,  1.66170100e-03
     571, -5.72401956e-04, -7.86365428e-04,  2.10088871e-03
     572, -6.17682124e-04, -7.85274618e-04,  2.26992570e-03
     573,  5.53134416e-04, -8.13479879e-04,  2.10088871e-03
     574,  5.98414584e-04, -8.14570689e-04,  2.26992570e-03
     575,  1.52787765e-03, -8.36961686e-04,  1.53795750e-03
     576,  1.65158526e-03, -8.39941833e-04,  1.66170100e-03
     577, -1.20254190e-02, -2.82526155e-02,  5.62931461e-04
     578, -1.19239968e-02, -2.83878451e-02,  6.08224766e-04
     579, -1.20254190e-02, -2.82526155e-02, -5.62931461e-04
     580, -1.19239968e-02, -2.83878451e-02, -6.08224766e-04
     581, -1.23631777e-02, -2.78022706e-02, -1.53795750e-03
     582, -1.22889316e-02, -2.79012654e-02, -1.66170100e-03
     583, -7.29430617e-03, -2.39859832e-02,  5.62931461e-04
     584, -7.17023877e-03, -2.41007908e-02,  6.08224766e-04
     585, -7.29430617e-03, -2.39859832e-02, -5.62931461e-04
     586, -7.17023877e-03, -2.41007908e-02, -6.08224766e-04
     587, -7.70747855e-03, -2.36036481e-02, -1.53795750e-03
     588, -7.61665503e-03, -2.36876929e-02, -1.66170100e-03
     589, -3.40672320e-03, -1.89387781e-02,  5.62931461e-04
     590, -3.26404809e-03, -1.90294276e-02,  6.08224766e-04
     591, -3.40672320e-03, -1.89387781e-02, -5.62931461e-04
     592, -3.26404809e-03, -1.90294276e-02, -6.08224766e-04
     593, -3.88186341e-03, -1.86368952e-02, -1.53795750e-03
     594, -3.77741813e-03, -1.87032551e-02, -1.66170100e-03
     595, -4.89183133e-04, -1.32752510e-02,  5.62931461e-04
     596, -3.32543380e-04, -1.33387922e-02,  6.08224766e-04
     597, -4.89183133e-04, -1.32752510e-02, -5.62931461e-04
     598, -3.32543380e-04, -1.33387922e-02, -6.08224766e-04
     599, -1.01082876e-03, -1.30636443e-02, -1.53795750e-03
     600, -8.96160651e-04, -1.31101597e-02, -1.66170100e-03
     601,  1.36336892e-03, -7.17970910e-03,  5.62931461e-04
     602,  1.52887581e-03, -7.21407439e-03,  6.08224766e-04
     603,  1.36336892e-03, -7.17970910e-03, -5.62931461e-04
     604,  1.52887581e-03, -7.21407439e-03, -6.08224766e-04
     605,  8.12193726e-04, -7.06526498e-03, -1.53795750e-03
     606,  9.33353018e-04, -7.09042208e-03, -1.66170100e-03
     607,  2.09064559e-03, -8.50518905e-04,  5.62931461e-04
     608,  2.25963355e-03, -8.54589867e-04,  6.08224766e-04
     609,  2.09064559e-03, -8.50518905e-04, -5.62931461e-04
     610,  2.25963355e-03, -8.54589867e-04, -6.08224766e-04
     611,  1.52787765e-03, -8.36961686e-04, -1.53795750e-03
     612,  1.65158526e-03, -8.39941833e-04, -1.66170100e-03
     613, -1.29481933e-02, -2.70222497e-02, -2.10088871e-03
     614, -1.29210173e-02, -2.70584844e-02, -2.26992570e-03
     615, -1.36237111e-02, -2.61215594e-02, -2.10088871e-03
     616, -1.36508870e-02, -2.60853248e-02, -2.26992570e-03
     617, -1.42087267e-02, -2.53415386e-02, -1.53795750e-03
     618, -1.42829728e-02, -2.52425438e-02, -1.66170100e-03
     619, -8.42311453e-03, -2.29414238e-02, -2.10088871e-03
     620, -8.38987078e-03, -2.29721864e-02, -2.26992570e-03
     621, -9.24945965e-03, -2.21767533e-02, -2.10088871e-03
     622, -9.28270340e-03, -2.21459907e-02, -2.26992570e-03
     623, -9.96509563e-03, -2.15145291e-02, -1.53795750e-03
     624, -1.00559192e-02, -2.14304842e-02, -1.66170100e-03
     625, -4.70483089e-03, -1.81140182e-02, -2.10088871e-03
     626, -4.66660123e-03, -1.81383077e-02, -2.26992570e-03
     627, -5.65511174e-03, -1.75102520e-02, -2.10088871e-03
     628, -5.69334141e-03, -1.74859626e-02, -2.26992570e-03
     629, -6.47807922e-03, -1.69873751e-02, -1.53795750e-03
     630, -6.58252451e-03, -1.69210152e-02, -1.66170100e-03
     631, -1.91434602e-03, -1.26971305e-02, -2.10088871e-03
     632, -1.87237454e-03, -1.27141564e-02, -2.26992570e-03
     633, -2.95763773e-03, -1.22739170e-02, -2.10088871e-03
     634, -2.99960921e-03, -1.22568911e-02, -2.26992570e-03
     635, -3.86115499e-03, -1.19074032e-02, -1.53795750e-03
     636, -3.97582310e-03, -1.18608878e-02, -1.66170100e-03
     637, -1.42470276e-04, -6.86704182e-03, -2.10088871e-03
     638, -9.81228575e-05, -6.87624997e-03, -2.26992570e-03
     639, -1.24482115e-03, -6.63815347e-03, -2.10088871e-03
     640, -1.28916857e-03, -6.62894532e-03, -2.26992570e-03
     641, -2.19948515e-03, -6.43993031e-03, -1.53795750e-03
     642, -2.32064444e-03, -6.41477321e-03, -1.66170100e-03
     643,  5.53134416e-04, -8.13479879e-04, -2.10088871e-03
     644,  5.98414584e-04, -8.14570689e-04, -2.26992570e-03
     645, -5.72401956e-04, -7.86365428e-04, -2.10088871e-03
     646, -6.17682124e-04, -7.85274618e-04, -2.26992570e-03
     647, -1.54714520e-03, -7.62883621e-04, -1.53795750e-03
     648, -1.67085280e-03, -7.59903474e-04, -1.66170100e-03
     649, -1.45464854e-02, -2.48911936e-02, -5.62931461e-04
     650, -1.46479076e-02, -2.47559640e-02, -6.08224766e-04
     651, -1.45464854e-02, -2.48911936e-02,  5.62931461e-04
     652, -1.46479076e-02, -2.47559640e-02,  6.08224766e-04
     653, -1.03782680e-02, -2.11321940e-02, -5.62931461e-04
     654, -1.05023354e-02, -2.10173864e-02, -6.08224766e-04
     655, -1.03782680e-02, -2.11321940e-02,  5.62931461e-04
     656, -1.05023354e-02, -2.10173864e-02,  6.08224766e-04
     657, -6.95321944e-03, -1.66854921e-02, -5.62931461e-04
     658, -7.09589454e-03, -1.65948427e-02, -6.08224766e-04
     659, -6.95321944e-03, -1.66854921e-02,  5.62931461e-04
     660, -7.09589454e-03, -1.65948427e-02,  6.08224766e-04
     661, -4.38280061e-03, -1.16957965e-02, -5.62931461e-04
     662, -4.53944037e-03, -1.16322553e-02, -6.08224766e-04
     663, -4.38280061e-03, -1.16957965e-02,  5.62931461e-04
     664, -4.53944037e-03, -1.16322553e-02,  6.08224766e-04
     665, -2.75066034e-03, -6.32548619e-03, -5.62931461e-04
     666, -2.91616723e-03, -6.29112091e-03, -6.08224766e-04
     667, -2.75066034e-03, -6.32548619e-03,  5.62931461e-04
     668, -2.91616723e-03, -6.29112091e-03,  6.08224766e-04
     669, -2.10991313e-03, -7.49326402e-04, -5.62931461e-04
     670, -2.27890109e-03, -7.45255440e-04, -6.08224766e-04
     671, -2.10991313e-03, -7.49326402e-04,  5.62931461e-04
     672, -2.27890109e-03, -7.45255440e-04,  6.08224766e-04
     673, -1.43466124e-02, -2.51576910e-02,  1.76776700e-03
     674, -1.36741808e-02, -2.60542665e-02,  2.41481457e-03
     675, -1.28977236e-02, -2.70895427e-02,  2.41481457e-03
     676, -1.22252920e-02, -2.79861182e-02,  1.76776700e-03
     677, -1.01337680e-02, -2.13584456e-02,  1.76776700e-03
     678, -9.31119805e-03, -2.21196227e-02,  2.41481457e-03
     679, -8.36137612e-03, -2.29985544e-02,  2.41481457e-03
     680, -7.53880619e-03, -2.37597315e-02,  1.76776700e-03
     681, -6.67204917e-03, -1.68641352e-02,  1.76776700e-03
     682, -5.72610971e-03, -1.74651431e-02,  2.41481457e-03
     683, -4.63383293e-03, -1.81591272e-02,  2.41481457e-03
     684, -3.68789347e-03, -1.87601351e-02,  1.76776700e-03
     685, -4.07411018e-03, -1.18210175e-02,  1.76776700e-03
     686, -3.03558478e-03, -1.22422976e-02,  2.41481457e-03
     687, -1.83639897e-03, -1.27287499e-02,  2.41481457e-03
     688, -7.97873571e-04, -1.31500300e-02,  1.76776700e-03
     689, -2.42449540e-03, -6.39320996e-03,  1.76776700e-03
     690, -1.32718066e-03, -6.62105262e-03,  2.41481457e-03
     691, -6.01107638e-05, -6.88414267e-03,  2.41481457e-03
     692,  1.03720398e-03, -7.11198534e-03,  1.76776700e-03
     693, -1.77688804e-03, -7.57349059e-04,  1.76776700e-03
     694, -6.56493718e-04, -7.84339637e-04,  2.41481457e-03
     695,  6.37226178e-04, -8.15505670e-04,  2.41481457e-03
     696,  1.75762050e-03, -8.42496248e-04,  1.76776700e-03
     697, -1.18370634e-02, -2.85037562e-02,  6.47047620e-04
     698, -1.18370634e-02, -2.85037562e-02, -6.47047620e-04
     699, -1.22252920e-02, -2.79861182e-02, -1.76776700e-03
     700, -7.06389526e-03, -2.41991973e-02,  6.47047620e-04
     701, -7.06389526e-03, -2.41991973e-02, -6.47047620e-04
     702, -7.53880619e-03, -2.37597315e-02, -1.76776700e-03
     703, -3.14175513e-03, -1.91071271e-02,  6.47047620e-04
     704, -3.14175513e-03, -1.91071271e-02, -6.47047620e-04
     705, -3.68789347e-03, -1.87601351e-02, -1.76776700e-03
     706, -1.98280714e-04, -1.33932562e-02,  6.47047620e-04
     707, -1.98280714e-04, -1.33932562e-02, -6.47047620e-04
     708, -7.97873571e-04, -1.31500300e-02, -1.76776700e-03
     709,  1.67073888e-03, -7.24353035e-03,  6.47047620e-04
     710,  1.67073888e-03, -7.24353035e-03, -6.47047620e-04
     711,  1.03720398e-03, -7.11198534e-03, -1.76776700e-03
     712,  2.40448040e-03, -8.58079264e-04,  6.47047620e-04
     713,  2.40448040e-03, -8.58079264e-04, -6.47047620e-04
     714,  1.75762050e-03, -8.42496248e-04, -1.76776700e-03
     715, -1.28977236e-02, -2.70895427e-02, -2.41481457e-03
     716, -1.36741808e-02, -2.60542665e-02, -2.41481457e-03
     717, -1.43466124e-02, -2.51576910e-02, -1.76776700e-03
     718, -8.36137612e-03, -2.29985544e-02, -2.41481457e-03
     719, -9.31119805e-03, -2.21196227e-02, -2.41481457e-03
     720, -1.01337680e-02, -2.13584456e-02, -1.76776700e-03
     721, -4.63383293e-03, -1.81591272e-02, -2.41481457e-03
     722, -5.72610971e-03, -1.74651431e-02, -2.41481457e-03
     723, -6.67204917e-03, -1.68641352e-02, -1.76776700e-03
     724, -1.83639897e-03, -1.27287499e-02, -2.41481457e-03
     725, -3.03558478e-03, -1.22422976e-02, -2.41481457e-03
     726, -4.07411018e-03, -1.18210175e-02, -1.76776700e-03
     727, -6.01107638e-05, -6.88414267e-03, -2.41481457e-03
     728, -1.32718066e-03, -6.62105262e-03, -2.41481457e-03
     729, -2.42449540e-03, -6.39320996e-03, -1.76776700e-03
     730,  6.37226178e-04, -8.15505670e-04, -2.41481457e-03
     731, -6.56493718e-04, -7.84339637e-04, -2.41481457e-03
     732, -1.77688804e-03, -7.57349059e-04, -1.76776700e-03
     733, -1.47348409e-02, -2.46400529e-02, -6.47047620e-04
     734, -1.47348409e-02, -2.46400529e-02,  6.47047620e-04
     735, -1.06086789e-02, -2.09189798e-02, -6.47047620e-04
     736, -1.06086789e-02, -2.09189798e-02,  6.47047620e-04
     737, -7.21818751e-03, -1.65171432e-02, -6.47047620e-04
     738, -7.21818751e-03, -1.65171432e-02,  6.47047620e-04
     739, -4.67370303e-03, -1.15777913e-02, -6.47047620e-04
     740, -4.67370303e-03, -1.15777913e-02,  6.47047620e-04
     741, -3.05803030e-03, -6.26166495e-03, -6.47047620e-04
     742, -3.05803030e-03, -6.26166495e-03,  6.47047620e-04
     743, -2.42374794e-03, -7.41766043e-04, -6.47047620e-04
     744, -2.42374794e-03, -7.41766043e-04,  6.47047620e-04
     745,  7.46151721e-04, -5.11270810e-04,  7.50000000e-04
     746,  7.46151721e-04, -5.11270810e-04,  2.50000000e-04
     747,  7.46151721e-04, -5.11270810e-04, -2.50000000e-04
     748,  7.46151721e-04, -5.11270810e-04, -7.50000000e-04
     749,  2.46208372e-04, -5.03744348e-04,  7.50000000e-04
     750,  2.46208372e-04, -5.03744348e-04,  2.50000000e-04
     751,  2.46208372e-04, -5.03744348e-04, -2.50000000e-04
     752,  2.46208372e-04, -5.03744348e-04, -7.50000000e-04
     753, -2.53734977e-04, -4.96217885e-04,  7.50000000e-04
     754, -2.53734977e-04, -4.96217885e-04,  2.50000000e-04
     755, -2.53734977e-04, -4.96217885e-04, -2.50000000e-04
     756, -2.53734977e-04, -4.96217885e-04, -7.50000000e-04
     757, -7.53678326e-04, -4.88691422e-04,  7.50000000e-04
     758, -7.53678326e-04, -4.88691422e-04,  2.50000000e-04
     759, -7.53678326e-04, -4.88691422e-04, -2.50000000e-04
     760, -7.53678326e-04, -4.88691422e-04, -7.50000000e-04
     761, -8.57219926e-04, -4.87132642e-04,  8.53553333e-04
     762, -9.60761528e-04, -4.85573861e-04,  9.57106667e-04
     763, -1.06430313e-03, -4.84015081e-04,  1.06066000e-03
     764, -2.99805937e-04, -4.95524304e-04,  9.82962906e-04
     765, -3.45876897e-04, -4.94830722e-04,  1.21592581e-03
     766, -3.91947857e-04, -4.94137141e-04,  1.44888872e-03
     767,  2.92279333e-04, -5.04437929e-04,  9.82962906e-04
     768,  3.38350292e-04, -5.05131510e-04,  1.21592581e-03
     769,  3.84421253e-04, -5.05825091e-04,  1.44888872e-03
     770,  8.49693322e-04, -5.12829591e-04,  8.53553333e-04
     771,  9.53234923e-04, -5.14388371e-04,  9.57106667e-04
     772,  1.05677652e-03, -5.15947152e-04,  1.06066000e-03
     773,  9.79088232e-04, -5.14777583e-04,  2.96076181e-04
     774,  1.21202474e-03, -5.18284356e-04,  3.42152361e-04
     775,  1.44496126e-03, -5.21791130e-04,  3.88228542e-04
     776,  9.79088232e-04, -5.14777583e-04, -2.96076181e-04
     777,  1.21202474e-03, -5.18284356e-04, -3.42152361e-04
     778,  1.44496126e-03, -5.21791130e-04, -3.88228542e-04
     779,  8.49693322e-04, -5.12829591e-04, -8.53553333e-04
     780,  9.53234923e-04, -5.14388371e-04, -9.57106667e-04
     781,  1.05677652e-03, -5.15947152e-04, -1.06066000e-03
     782,  2.92279333e-04, -5.04437929e-04, -9.82962906e-04
     783,  3.38350292e-04, -5.05131510e-04, -1.21592581e-03
     784,  3.84421253e-04, -5.05825091e-04, -1.44888872e-03
     785, -2.99805937e-04, -4.95524304e-04, -9.82962906e-04
     786, -3.45876897e-04, -4.94830722e-04, -1.21592581e-03
     787, -3.91947857e-04, -4.94137141e-04, -1.44888872e-03
     788, -8.57219926e-04, -4.87132642e-04, -8.53553333e-04
     789, -9.60761528e-04, -4.85573861e-04, -9.57106667e-04
     790, -1.06430313e-03, -4.84015081e-04, -1.06066000e-03
     791, -9.86614837e-04, -4.85184649e-04, -2.96076181e-04
     792, -1.21955135e-03, -4.81677876e-04, -3.42152361e-04
     793, -1.45248786e-03, -4.78171103e-04, -3.88228542e-04
     794, -9.86614837e-04, -4.85184649e-04,  2.96076181e-04
     795, -1.21955135e-03, -4.81677876e-04,  3.42152361e-04
     796, -1.45248786e-03, -4.78171103e-04,  3.88228542e-04
     797, -1.09965512e-03, -4.83482869e-04,  1.09601600e-03
     798, -4.04887443e-04, -4.93942340e-04,  1.49718509e-03
     799,  3.97360838e-04, -5.06019892e-04,  1.49718509e-03
     800,  1.09212852e-03, -5.16479363e-04,  1.09601600e-03
     801,  1.49325215e-03, -5.22518131e-04,  4.01169594e-04
     802,  1.49325215e-03, -5.22518131e-04, -4.01169594e-04
     803,  1.09212852e-03, -5.16479363e-04, -1.09601600e-03
     804,  3.97360838e-04, -5.06019892e-04, -1.49718509e-03
     805, -4.04887443e-04, -4.93942340e-04, -1.49718509e-03
     806, -1.09965512e-03, -4.83482869e-04, -1.09601600e-03
     807, -1.50077876e-03, -4.77444101e-04, -4.01169594e-04
     808, -1.50077876e-03, -4.77444101e-04,  4.01169594e-04
     809, -1.25873610e-03, -4.81087964e-04,  1.25511500e-03
     810, -1.41781707e-03, -4.78693059e-04,  1.41421400e-03
     811, -4.63115126e-04, -4.93065744e-04,  1.71451840e-03
     812, -5.21342809e-04, -4.92189148e-04,  1.93185171e-03
     813,  4.55588521e-04, -5.06896488e-04,  1.71451840e-03
     814,  5.13816204e-04, -5.07773085e-04,  1.93185171e-03
     815,  1.25120949e-03, -5.18874268e-04,  1.25511500e-03
     816,  1.41029046e-03, -5.21269174e-04,  1.41421400e-03
     817,  1.71056084e-03, -5.25789633e-04,  4.59403875e-04
     818,  1.92786953e-03, -5.29061135e-04,  5.17638156e-04
     819,  1.71056084e-03, -5.25789633e-04, -4.59403875e-04
     820,  1.92786953e-03, -5.29061135e-04, -5.17638156e-04
     821,  1.25120949e-03, -5.18874268e-04, -1.25511500e-03
     822,  1.41029046e-03, -5.21269174e-04, -1.41421400e-03
     823,  4.55588521e-04, -5.06896488e-04, -1.71451840e-03
     824,  5.13816204e-04, -5.07773085e-04, -1.93185171e-03
     825, -4.63115126e-04, -4.93065744e-04, -1.71451840e-03
     826, -5.21342809e-04, -4.92189148e-04, -1.93185171e-03
     827, -1.25873610e-03, -4.81087964e-04, -1.25511500e-03
     828, -1.41781707e-03, -4.78693059e-04, -1.41421400e-03
     829, -1.71808744e-03, -4.74172599e-04, -4.59403875e-04
     830, -1.93539613e-03, -4.70901097e-04, -5.17638156e-04
     831, -1.71808744e-03, -4.74172599e-04,  4.59403875e-04
     832, -1.93539613e-03, -4.70901097e-04,  5.17638156e-04
     833, -1.54154655e-03, -4.76830357e-04,  1.53795750e-03
     834, -1.66527603e-03, -4.74967655e-04,  1.66170100e-03
     835, -5.66630982e-04, -4.91507351e-04,  2.10088871e-03
     836, -6.11919155e-04, -4.90825554e-04,  2.26992570e-03
     837,  5.59104378e-04, -5.08454881e-04,  2.10088871e-03
     838,  6.04392551e-04, -5.09136678e-04,  2.26992570e-03
     839,  1.53401994e-03, -5.23131875e-04,  1.53795750e-03
     840,  1.65774942e-03, -5.24994577e-04,  1.66170100e-03
     841,  2.09688737e-03, -5.31605637e-04,  5.62931461e-04
     842,  2.26590521e-03, -5.34150138e-04,  6.08224766e-04
     843,  2.09688737e-03, -5.31605637e-04, -5.62931461e-04
     844,  2.26590521e-03, -5.34150138e-04, -6.08224766e-04
     845,  1.53401994e-03, -5.23131875e-04, -1.53795750e-03
     846,  1.65774942e-03, -5.24994577e-04, -1.66170100e-03
     847,  5.59104378e-04, -5.08454881e-04, -2.10088871e-03
     848,  6.04392551e-04, -5.09136678e-04, -2.26992570e-03
     849, -5.66630982e-04, -4.91507351e-04, -2.10088871e-03
     850, -6.11919155e-04, -4.90825554e-04, -2.26992570e-03
     851, -1.54154655e-03, -4.76830357e-04, -1.53795750e-03
     852, -1.66527603e-03, -4.74967655e-04, -1.66170100e-03
     853, -2.10441398e-03, -4.68356596e-04, -5.62931461e-04
     854, -2.27343182e-03, -4.65812095e-04, -6.08224766e-04
     855, -2.10441398e-03, -4.68356596e-04,  5.62931461e-04
     856, -2.27343182e-03, -4.65812095e-04,  6.08224766e-04
     857, -1.77133001e-03, -4.73371052e-04,  1.76776700e-03
     858, -6.50737611e-04, -4.90241157e-04,  2.41481457e-03
     859,  6.43211006e-04, -5.09721076e-04,  2.41481457e-03
     860,  1.76380341e-03, -5.26591181e-04,  1.76776700e-03
     861,  2.41077767e-03, -5.36331139e-04,  6.47047620e-04
     862,  2.41077767e-03, -5.36331139e-04, -6.47047620e-04
     863,  1.76380341e-03, -5.26591181e-04, -1.76776700e-03
     864,  6.43211006e-04, -5.09721076e-04, -2.41481457e-03
     865, -6.50737611e-04, -4.90241157e-04, -2.41481457e-03
     866, -1.77133001e-03, -4.73371052e-04, -1.76776700e-03
     867, -2.41830427e-03, -4.63631093e-04, -6.47047620e-04
     868, -2.41830427e-03, -4.63631093e-04,  6.47047620e-04
     869,  7.50000000e-04,  4.59242550e-20,  7.50000000e-04
     870,  7.50000000e-04,  4.59242550e-20,  2.50000000e-04
     871,  7.50000000e-04,  4.59242550e-20, -2.50000000e-04
     872,  7.50000000e-04,  4.59242550e-20, -7.50000000e-04
     873,  2.50000000e-04,  1.53080850e-20,  7.50000000e-04
     874,  2.50000000e-04,  1.53080850e-20,  2.50000000e-04
     875,  2.50000000e-04,  1.53080850e-20, -2.50000000e-04
     876,  2.50000000e-04,  1.53080850e-20, -7.50000000e-04
     877, -2.50000000e-04, -1.53080850e-20,  7.50000000e-04
     878, -2.50000000e-04, -1.53080850e-20,  2.50000000e-04
     879, -2.50000000e-04, -1.53080850e-20, -2.50000000e-04
     880, -2.50000000e-04, -1.53080850e-20, -7.50000000e-04
     881, -7.50000000e-04, -4.59242550e-20,  7.50000000e-04
     882, -7.50000000e-04, -4.59242550e-20,  2.50000000e-04
     883, -7.50000000e-04, -4.59242550e-20, -2.50000000e-04
     884, -7.50000000e-04, -4.59242550e-20, -7.50000000e-04
     885, -8.53553333e-04, -5.22650679e-20,  8.53553333e-04
     886, -9.57106667e-04, -5.86058808e-20,  9.57106667e-04
     887, -1.06066000e-03, -6.49466937e-20,  1.06066000e-03
     888, -2.96076181e-04, -1.81294374e-20,  9.82962906e-04
     889, -3.42152361e-04, -2.09507897e-20,  1.21592581e-03
     890, -3.88228542e-04, -2.37721421e-20,  1.44888872e-03
     891,  2.96076181e-04,  1.81294374e-20,  9.82962906e-04
     892,  3.42152361e-04,  2.09507897e-20,  1.21592581e-03
     893,  3.88228542e-04,  2.37721421e-20,  1.44888872e-03
     894,  8.53553333e-04,  5.22650679e-20,  8.53553333e-04
     895,  9.57106667e-04,  5.86058808e-20,  9.57106667e-04
     896,  1.06066000e-03,  6.49466937e-20,  1.06066000e-03
     897,  9.82962906e-04,  6.01891188e-20,  2.96076181e-04
     898,  1.21592581e-03,  7.44539826e-20,  3.42152361e-04
     899,  1.44888872e-03,  8.87188467e-20,  3.88228542e-04
     900,  9.82962906e-04,  6.01891188e-20, -2.96076181e-04
     901,  1.21592581e-03,  7.44539826e-20, -3.42152361e-04
     902,  1.44888872e-03,  8.87188467e-20, -3.88228542e-04
     903,  8.53553333e-04,  5.22650679e-20, -8.53553333e-04
     904,  9.57106667e-04,  5.86058808e-20, -9.57106667e-04
     905,  1.06066000e-03,  6.49466937e-20, -1.06066000e-03
     906,  2.96076181e-04,  1.81294374e-20, -9.82962906e-04
     907,  3.42152361e-04,  2.09507897e-20, -1.21592581e-03
     908,  3.88228542e-04,  2.37721421e-20, -1.44888872e-03
     909, -2.96076181e-04, -1.81294374e-20, -9.82962906e-04
     910, -3.42152361e-04, -2.09507897e-20, -1.21592581e-03
     911, -3.88228542e-04, -2.37721421e-20, -1.44888872e-03
     912, -8.53553333e-04, -5.22650679e-20, -8.53553333e-04
     913, -9.57106667e-04, -5.86058808e-20, -9.57106667e-04
     914, -1.06066000e-03, -6.49466937e-20, -1.06066000e-03
     915, -9.82962906e-04, -6.01891188e-20, -2.96076181e-04
     916, -1.21592581e-03, -7.44539826e-20, -3.42152361e-04
     917, -1.44888872e-03, -8.87188467e-20, -3.88228542e-04
     918, -9.82962906e-04, -6.01891188e-20,  2.96076181e-04
     919, -1.21592581e-03, -7.44539826e-20,  3.42152361e-04
     920, -1.44888872e-03, -8.87188467e-20,  3.88228542e-04
     921, -1.09601600e-03, -6.71116243e-20,  1.09601600e-03
     922, -4.01169594e-04, -2.45645530e-20,  1.49718509e-03
     923,  4.01169594e-04,  2.45645530e-20,  1.49718509e-03
     924,  1.09601600e-03,  6.71116243e-20,  1.09601600e-03
     925,  1.49718509e-03,  9.16761464e-20,  4.01169594e-04
     926,  1.49718509e-03,  9.16761464e-20, -4.01169594e-04
     927,  1.09601600e-03,  6.71116243e-20, -1.09601600e-03
     928,  4.01169594e-04,  2.45645530e-20, -1.49718509e-03
     929, -4.01169594e-04, -2.45645530e-20, -1.49718509e-03
     930, -1.09601600e-03, -6.71116243e-20, -1.09601600e-03
     931, -1.49718509e-03, -9.16761464e-20, -4.01169594e-04
     932, -1.49718509e-03, -9.16761464e-20,  4.01169594e-04
     933, -1.25511500e-03, -7.68536284e-20,  1.25511500e-03
     934, -1.41421400e-03, -8.65956324e-20,  1.41421400e-03
     935, -4.59403875e-04, -2.81303743e-20,  1.71451840e-03
     936, -5.17638156e-04, -3.16961955e-20,  1.93185171e-03
     937,  4.59403875e-04,  2.81303743e-20,  1.71451840e-03
     938,  5.17638156e-04,  3.16961955e-20,  1.93185171e-03
     939,  1.25511500e-03,  7.68536284e-20,  1.25511500e-03
     940,  1.41421400e-03,  8.65956324e-20,  1.41421400e-03
     941,  1.71451840e-03,  1.04983974e-19,  4.59403875e-04
     942,  1.93185171e-03,  1.18291801e-19,  5.17638156e-04
     943,  1.71451840e-03,  1.04983974e-19, -4.59403875e-04
     944,  1.93185171e-03,  1.18291801e-19, -5.17638156e-04
     945,  1.25511500e-03,  7.68536284e-20, -1.25511500e-03
     946,  1.41421400e-03,  8.65956324e-20, -1.41421400e-03
     947,  4.59403875e-04,  2.81303743e-20, -1.71451840e-03
     948,  5.17638156e-04,  3.16961955e-20, -1.93185171e-03
     949, -4.59403875e-04, -2.81303743e-20, -1.71451840e-03
     950, -5.17638156e-04, -3.16961955e-20, -1.93185171e-03
     951, -1.25511500e-03, -7.68536284e-20, -1.25511500e-03
     952, -1.41421400e-03, -8.65956324e-20, -1.41421400e-03
     953, -1.71451840e-03, -1.04983974e-19, -4.59403875e-04
     954, -1.93185171e-03, -1.18291801e-19, -5.17638156e-04
     955, -1.71451840e-03, -1.04983974e-19,  4.59403875e-04
     956, -1.93185171e-03, -1.18291801e-19,  5.17638156e-04
     957, -1.53795750e-03, -9.41727365e-20,  1.53795750e-03
     958, -1.66170100e-03, -1.01749841e-19,  1.66170100e-03
     959, -5.62931461e-04, -3.44696106e-20,  2.10088871e-03
     960, -6.08224766e-04, -3.72430256e-20,  2.26992570e-03
     961,  5.62931461e-04,  3.44696106e-20,  2.10088871e-03
     962,  6.08224766e-04,  3.72430256e-20,  2.26992570e-03
     963,  1.53795750e-03,  9.41727365e-20,  1.53795750e-03
     964,  1.66170100e-03,  1.01749841e-19,  1.66170100e-03
     965,  2.10088871e-03,  1.28642332e-19,  5.62931461e-04
     966,  2.26992570e-03,  1.38992862e-19,  6.08224766e-04
     967,  2.10088871e-03,  1.28642332e-19, -5.62931461e-04
     968,  2.26992570e-03,  1.38992862e-19, -6.08224766e-04
     969,  1.53795750e-03,  9.41727365e-20, -1.53795750e-03
     970,  1.66170100e-03,  1.01749841e-19, -1.66170100e-03
     971,  5.62931461e-04,  3.44696106e-20, -2.10088871e-03
     972,  6.08224766e-04,  3.72430256e-20, -2.26992570e-03
     973, -5.62931461e-04, -3.44696106e-20, -2.10088871e-03
     974, -6.08224766e-04, -3.72430256e-20, -2.26992570e-03
     975, -1.53795750e-03, -9.41727365e-20, -1.53795750e-03
     976, -1.66170100e-03, -1.01749841e-19, -1.66170100e-03
     977, -2.10088871e-03, -1.28642332e-19, -5.62931461e-04
     978, -2.26992570e-03, -1.38992862e-19, -6.08224766e-04
     979, -2.10088871e-03, -1.28642332e-19,  5.62931461e-04
     980, -2.26992570e-03, -1.38992862e-19,  6.08224766e-04
     981, -1.76776700e-03, -1.08244510e-19,  1.76776700e-03
     982, -6.47047620e-04, -3.96202398e-20,  2.41481457e-03
     983,  6.47047620e-04,  3.96202398e-20,  2.41481457e-03
     984,  1.76776700e-03,  1.08244510e-19,  1.76776700e-03
     985,  2.41481457e-03,  1.47864747e-19,  6.47047620e-04
     986,  2.41481457e-03,  1.47864747e-19, -6.47047620e-04
     987,  1.76776700e-03,  1.08244510e-19, -1.76776700e-03
     988,  6.47047620e-04,  3.96202398e-20, -2.41481457e-03
     989, -6.47047620e-04, -3.96202398e-20, -2.41481457e-03
     990, -1.76776700e-03, -1.08244510e-19, -1.76776700e-03
     991, -2.41481457e-03, -1.47864747e-19, -6.47047620e-04
     992, -2.41481457e-03, -1.47864747e-19,  6.47047620e-04
*ELEMENT, TYPE=C3D8I, ELSET=ON
       1,       18,       22,        6,        2,       17,       21,        5,        1
       2,       19,       23,        7,        3,       18,       22,        6,        2
       3,        8,       24,       23,        7,        4,       20,       19,        3
       4,       22,       26,       10,        6,       21,       25,        9,        5
       5,       23,       27,       11,        7,       22,       26,       10,        6
       6,       12,       28,       27,       11,        8,       24,       23,        7
       7,       26,       30,       14,       10,       25,       29,       13,        9
       8,       27,       31,       15,       11,       26,       30,       14,       10
       9,       31,       32,       28,       27,       15,       16,       12,       11
      10,       34,       38,       22,       18,       33,       37,       21,       17
      11,       35,       39,       23,       19,       34,       38,       22,       18
      12,       24,       40,       39,       23,       20,       36,       35,       19
      13,       38,       42,       26,       22,       37,       41,       25,       21
      14,       39,       43,       27,       23,       38,       42,       26,       22
      15,       28,       44,       43,       27,       24,       40,       39,       23
      16,       42,       46,       30,       26,       41,       45,       29,       25
      17,       43,       47,       31,       27,       42,       46,       30,       26
      18,       47,       48,       44,       43,       31,       32,       28,       27
      19,       50,       54,       38,       34,       49,       53,       37,       33
      20,       51,       55,       39,       35,       50,       54,       38,       34
      21,       40,       56,       55,       39,       36,       52,       51,       35
      22,       54,       58,       42,       38,       53,       57,       41,       37
      23,       55,       59,       43,       39,       54,       58,       42,       38
      24,       44,       60,       59,       43,       40,       56,       55,       39
      25,       58,       62,       46,       42,       57,       61,       45,       41
      26,       59,       63,       47,       43,       58,       62,       46,       42
      27,       63,       64,       60,       59,       47,       48,       44,       43
      28,       66,       70,       54,       50,       65,       69,       53,       49
      29,       67,       71,       55,       51,       66,       70,       54,       50
      30,       56,       72,       71,       55,       52,       68,       67,       51
      31,       70,       74,       58,       54,       69,       73,       57,       53
      32,       71,       75,       59,       55,       70,       74,       58,       54
      33,       60,       76,       75,       59,       56,       72,       71,       55
      34,       74,       78,       62,       58,       73,       77,       61,       57
      35,       75,       79,       63,       59,       74,       78,       62,       58
      36,       79,       80,       76,       75,       63,       64,       60,       59
      37,       82,       86,       70,       66,       81,       85,       69,       65
      38,       83,       87,       71,       67,       82,       86,       70,       66
      39,       72,       88,       87,       71,       68,       84,       83,       67
      40,       86,       90,       74,       70,       85,       89,       73,       69
      41,       87,       91,       75,       71,       86,       90,       74,       70
      42,       76,       92,       91,       75,       72,       88,       87,       71
      43,       90,       94,       78,       74,       89,       93,       77,       73
      44,       91,       95,       79,       75,       90,       94,       78,       74
      45,       92,       96,       80,       76,       91,       95,       79,       75
      46,      109,      112,      100,       97,       29,       25,        9,       13
      47,      110,      113,      101,       98,      109,      112,      100,       97
      48,      102,      114,      113,      101,       99,      111,      110,       98
      49,      112,      115,      103,      100,       25,       21,        5,        9
      50,      113,      116,      104,      101,      112,      115,      103,      100
      51,      105,      117,      116,      104,      102,      114,      113,      101
      52,      115,      118,      106,      103,       21,       17,        1,        5
      53,      116,      119,      107,      104,      115,      118,      106,      103
      54,      119,      120,      117,      116,      107,      108,      105,      104
      55,      121,      124,      112,      109,       45,       41,       25,       29
      56,      122,      125,      113,      110,      121,      124,      112,      109
      57,      114,      126,      125,      113,      111,      123,      122,      110
      58,      124,      127,      115,      112,       41,       37,       21,       25
      59,      125,      128,      116,      113,      124,      127,      115,      112
      60,      117,      129,      128,      116,      114,      126,      125,      113
      61,      127,      130,      118,      115,       37,       33,       17,       21
      62,      128,      131,      119,      116,      127,      130,      118,      115
      63,      131,      132,      129,      128,      119,      120,      117,      116
      64,      133,      136,      124,      121,       61,       57,       41,       45
      65,      134,      137,      125,      122,      133,      136,      124,      121
      66,      126,      138,      137,      125,      123,      135,      134,      122
      67,      136,      139,      127,      124,       57,       53,       37,       41
      68,      137,      140,      128,      125,      136,      139,      127,      124
      69,      129,      141,      140,      128,      126,      138,      137,      125
      70,      139,      142,      130,      127,       53,       49,       33,       37
      71,      140,      143,      131,      128,      139,      142,      130,      127
      72,      143,      144,      141,      140,      131,      132,      129,      128
      73,      145,      148,      136,      133,       77,       73,       57,       61
      74,      146,      149,      137,      134,      145,      148,      136,      133
      75,      138,      150,      149,      137,      135,      147,      146,      134
      76,      148,      151,      139,      136,       73,       69,       53,       57
      77,      149,      152,      140,      137,      148,      151,      139,      136
      78,      141,      153,      152,      140,      138,      150,      149,      137
      79,      151,      154,      142,      139,       69,       65,       49,       53
      80,      152,      155,      143,      140,      151,      154,      142,      139
      81,      155,      156,      153,      152,      143,      144,      141,      140
      82,      157,      160,      148,      145,       93,       89,       73,       77
      83,      158,      161,      149,      146,      157,      160,      148,      145
      84,      150,      162,      161,      149,      147,      159,      158,      146
      85,      160,      163,      151,      148,       89,       85,       69,       73
      86,      161,      164,      152,      149,      160,      163,      151,      148
      87,      153,      165,      164,      152,      150,      162,      161,      149
      88,      163,      166,      154,      151,       85,       81,       65,       69
      89,      164,      167,      155,      152,      163,      166,      154,      151
      90,      156,      168,      167,      155,      153,      165,      164,      152
      91,      118,      178,      169,      106,       17,       18,        2,        1
      92,      119,      179,      170,      107,      118,      178,      169,      106
      93,      171,      180,      179,      170,      108,      120,      119,      107
      94,      178,      181,      172,      169,       18,       19,        3,        2
      95,      179,      182,      173,      170,      178,      181,      172,      169
      96,      174,      183,      182,      173,      171,      180,      179,      170
      97,      181,      184,      175,      172,       19,       20,        4,        3
      98,      182,      185,      176,      173,      181,      184,      175,      172
      99,      185,      186,      183,      182,      176,      177,      174,      173
     100,      130,      187,      178,      118,       33,       34,       18,       17
     101,      131,      188,      179,      119,      130,      187,      178,      118
     102,      180,      189,      188,      179,      120,      132,      131,      119
     103,      187,      190,      181,      178,       34,       35,       19,       18
     104,      188,      191,      182,      179,      187,      190,      181,      178
     105,      183,      192,      191,      182,      180,      189,      188,      179
     106,      190,      193,      184,      181,       35,       36,       20,       19
     107,      191,      194,      185,      182,      190,      193,      184,      181
     108,      194,      195,      192,      191,      185,      186,      183,      182
     109,      142,      196,      187,      130,       49,       50,       34,       33
     110,      143,      197,      188,      131,      142,      196,      187,      130
     111,      189,      198,      197,      188,      132,      144,      143,      131
     112,      196,      199,      190,      187,       50,       51,       35,       34
     113,      197,      200,      191,      188,      196,      199,      190,      187
     114,      192,      201,      200,      191,      189,      198,      197,      188
     115,      199,      202,      193,      190,       51,       52,       36,       35
     116,      200,      203,      194,      191,      199,      202,      193,      190
     117,      203,      204,      201,      200,      194,      195,      192,      191
     118,      154,      205,      196,      142,       65,       66,       50,       49
     119,      155,      206,      197,      143,      154,      205,      196,      142
     120,      198,      207,      206,      197,      144,      156,      155,      143
     121,      205,      208,      199,      196,       66,       67,       51,       50
     122,      206,      209,      200,      197,      205,      208,      199,      196
     123,      201,      210,      209,      200,      198,      207,      206,      197
     124,      208,      211,      202,      199,       67,       68,       52,       51
     125,      209,      212,      203,      200,      208,      211,      202,      199
     126,      212,      213,      210,      209,      203,      204,      201,      200
     127,      166,      214,      205,      154,       81,       82,       66,       65
     128,      167,      215,      206,      155,      166,      214,      205,      154
     129,      207,      216,      215,      206,      156,      168,      167,      155
     130,      214,      217,      208,      205,       82,       83,       67,       66
     131,      215,      218,      209,      206,      214,      217,      208,      205
     132,      210,      219,      218,      209,      207,      216,      215,      206
     133,      217,      220,      211,      208,       83,       84,       68,       67
     134,      218,      221,      212,      209,      217,      220,      211,      208
     135,      213,      222,      221,      212,      210,      219,      218,      209
     136,      184,      232,      223,      175,       20,       24,        8,        4
     137,      185,      233,      224,      176,      184,      232,      223,      175
     138,      225,      234,      233,      224,      177,      186,      185,      176
     139,      232,      235,      226,      223,       24,       28,       12,        8
     140,      233,      236,      227,      224,      232,      235,      226,      223
     141,      228,      237,      236,      227,      225,      234,      233,      224
     142,      235,      238,      229,      226,       28,       32,       16,       12
     143,      236,      239,      230,      227,      235,      238,      229,      226
     144,      239,      240,      237,      236,      230,      231,      228,      227
     145,      193,      241,      232,      184,       36,       40,       24,       20
     146,      194,      242,      233,      185,      193,      241,      232,      184
     147,      234,      243,      242,      233,      186,      195,      194,      185
     148,      241,      244,      235,      232,       40,       44,       28,       24
     149,      242,      245,      236,      233,      241,      244,      235,      232
     150,      237,      246,      245,      236,      234,      243,      242,      233
     151,      244,      247,      238,      235,       44,       48,       32,       28
     152,      245,      248,      239,      236,      244,      247,      238,      235
     153,      248,      249,      246,      245,      239,      240,      237,      236
     154,      202,      250,      241,      193,       52,       56,       40,       36
     155,      203,      251,      242,      194,      202,      250,      241,      193
     156,      243,      252,      251,      242,      195,      204,      203,      194
     157,      250,      253,      244,      241,       56,       60,       44,       40
     158,      251,      254,      245,      242,      250,      253,      244,      241
     159,      246,      255,      254,      245,      243,      252,      251,      242
     160,      253,      256,      247,      244,       60,       64,       48,       44
     161,      254,      257,      248,      245,      253,      256,      247,      244
     162,      257,      258,      255,      254,      248,      249,      246,      245
     163,      211,      259,      250,      202,       68,       72,       56,       52
     164,      212,      260,      251,      203,      211,      259,      250,      202
     165,      252,      261,      260,      251,      204,      213,      212,      203
     166,      259,      262,      253,      250,       72,       76,       60,       56
     167,      260,      263,      254,      251,      259,      262,      253,      250
     168,      255,      264,      263,      254,      252,      261,      260,      251
     169,      262,      265,      256,      253,       76,       80,       64,       60
     170,      263,      266,      257,      254,      262,      265,      256,      253
     171,      266,      267,      264,      263,      257,      258,      255,      254
     172,      220,      268,      259,      211,       84,       88,       72,       68
     173,      221,      269,      260,      212,      220,      268,      259,      211
     174,      261,      270,      269,      260,      213,      222,      221,      212
     175,      268,      271,      262,      259,       88,       92,       76,       72
     176,      269,      272,      263,      260,      268,      271,      262,      259
     177,      264,      273,      272,      263,      261,      270,      269,      260
     178,      271,      274,      265,      262,       92,       96,       80,       76
     179,      272,      275,      266,      263,      271,      274,      265,      262
     180,      267,      276,      275,      266,      264,      273,      272,      263
     181,      238,      283,      277,      229,       32,       31,       15,       16
     182,      239,      284,      278,      230,      238,      283,      277,      229
     183,      279,      285,      284,      278,      231,      240,      239,      230
     184,      283,      286,      280,      277,       31,       30,       14,       15
     185,      284,      287,      281,      278,      283,      286,      280,      277
     186,      282,      288,      287,      281,      279,      285,      284,      278
     187,      286,      109,       97,      280,       30,       29,       13,       14
     188,      287,      110,       98,      281,      286,      109,       97,      280
     189,      110,      111,      288,      287,       98,       99,      282,      281
     190,      247,      289,      283,      238,       48,       47,       31,       32
     191,      248,      290,      284,      239,      247,      289,      283,      238
     192,      285,      291,      290,      284,      240,      249,      248,      239
     193,      289,      292,      286,      283,       47,       46,       30,       31
     194,      290,      293,      287,      284,      289,      292,      286,      283
     195,      288,      294,      293,      287,      285,      291,      290,      284
     196,      292,      121,      109,      286,       46,       45,       29,       30
     197,      293,      122,      110,      287,      292,      121,      109,      286
     198,      122,      123,      294,      293,      110,      111,      288,      287
     199,      256,      295,      289,      247,       64,       63,       47,       48
     200,      257,      296,      290,      248,      256,      295,      289,      247
     201,      291,      297,      296,      290,      249,      258,      257,      248
     202,      295,      298,      292,      289,       63,       62,       46,       47
     203,      296,      299,      293,      290,      295,      298,      292,      289
     204,      294,      300,      299,      293,      291,      297,      296,      290
     205,      298,      133,      121,      292,       62,       61,       45,       46
     206,      299,      134,      122,      293,      298,      133,      121,      292
     207,      134,      135,      300,      299,      122,      123,      294,      293
     208,      265,      301,      295,      256,       80,       79,       63,       64
     209,      266,      302,      296,      257,      265,      301,      295,      256
     210,      297,      303,      302,      296,      258,      267,      266,      257
     211,      301,      304,      298,      295,       79,       78,       62,       63
     212,      302,      305,      299,      296,      301,      304,      298,      295
     213,      300,      306,      305,      299,      297,      303,      302,      296
     214,      304,      145,      133,      298,       78,       77,       61,       62
     215,      305,      146,      134,      299,      304,      145,      133,      298
     216,      146,      147,      306,      305,      134,      135,      300,      299
     217,      274,      307,      301,      265,       96,       95,       79,       80
     218,      275,      308,      302,      266,      274,      307,      301,      265
     219,      303,      309,      308,      302,      267,      276,      275,      266
     220,      307,      310,      304,      301,       95,       94,       78,       79
     221,      308,      311,      305,      302,      307,      310,      304,      301
     222,      306,      312,      311,      305,      303,      309,      308,      302
     223,      310,      157,      145,      304,       94,       93,       77,       78
     224,      311,      158,      146,      305,      310,      157,      145,      304
     225,      312,      159,      147,      306,      311,      158,      146,      305
*ELEMENT, TYPE=C3D8I, ELSET=PIA
     226,      314,      318,      114,      102,      313,      317,      111,       99
     227,      315,      319,      117,      105,      314,      318,      114,      102
     228,      120,      320,      319,      117,      108,      316,      315,      105
     229,      318,      322,      126,      114,      317,      321,      123,      111
     230,      319,      323,      129,      117,      318,      322,      126,      114
     231,      132,      324,      323,      129,      120,      320,      319,      117
     232,      322,      326,      138,      126,      321,      325,      135,      123
     233,      323,      327,      141,      129,      322,      326,      138,      126
     234,      144,      328,      327,      141,      132,      324,      323,      129
     235,      326,      330,      150,      138,      325,      329,      147,      135
     236,      327,      331,      153,      141,      326,      330,      150,      138
     237,      156,      332,      331,      153,      144,      328,      327,      141
     238,      330,      334,      162,      150,      329,      333,      159,      147
     239,      331,      335,      165,      153,      330,      334,      162,      150
     240,      332,      336,      168,      156,      331,      335,      165,      153
     241,      337,      340,      180,      171,      316,      320,      120,      108
     242,      338,      341,      183,      174,      337,      340,      180,      171
     243,      186,      342,      341,      183,      177,      339,      338,      174
     244,      340,      343,      189,      180,      320,      324,      132,      120
     245,      341,      344,      192,      183,      340,      343,      189,      180
     246,      195,      345,      344,      192,      186,      342,      341,      183
     247,      343,      346,      198,      189,      324,      328,      144,      132
     248,      344,      347,      201,      192,      343,      346,      198,      189
     249,      204,      348,      347,      201,      195,      345,      344,      192
     250,      346,      349,      207,      198,      328,      332,      156,      144
     251,      347,      350,      210,      201,      346,      349,      207,      198
     252,      213,      351,      350,      210,      204,      348,      347,      201
     253,      349,      352,      216,      207,      332,      336,      168,      156
     254,      350,      353,      219,      210,      349,      352,      216,      207
     255,      351,      354,      222,      213,      350,      353,      219,      210
     256,      355,      358,      234,      225,      339,      342,      186,      177
     257,      356,      359,      237,      228,      355,      358,      234,      225
     258,      240,      360,      359,      237,      231,      357,      356,      228
     259,      358,      361,      243,      234,      342,      345,      195,      186
     260,      359,      362,      246,      237,      358,      361,      243,      234
     261,      249,      363,      362,      246,      240,      360,      359,      237
     262,      361,      364,      252,      243,      345,      348,      204,      195
     263,      362,      365,      255,      246,      361,      364,      252,      243
     264,      258,      366,      365,      255,      249,      363,      362,      246
     265,      364,      367,      261,      252,      348,      351,      213,      204
     266,      365,      368,      264,      255,      364,      367,      261,      252
     267,      267,      369,      368,      264,      258,      366,      365,      255
     268,      367,      370,      270,      261,      351,      354,      222,      213
     269,      368,      371,      273,      264,      367,      370,      270,      261
     270,      369,      372,      276,      267,      368,      371,      273,      264
     271,      373,      375,      285,      279,      357,      360,      240,      231
     272,      374,      376,      288,      282,      373,      375,      285,      279
     273,      111,      317,      376,      288,       99,      313,      374,      282
     274,      375,      377,      291,      285,      360,      363,      249,      240
     275,      376,      378,      294,      288,      375,      377,      291,      285
     276,      123,      321,      378,      294,      111,      317,      376,      288
     277,      377,      379,      297,      291,      363,      366,      258,      249
     278,      378,      380,      300,      294,      377,      379,      297,      291
     279,      135,      325,      380,      300,      123,      321,      378,      294
     280,      379,      381,      303,      297,      366,      369,      267,      258
     281,      380,      382,      306,      300,      379,      381,      303,      297
     282,      147,      329,      382,      306,      135,      325,      380,      300
     283,      381,      383,      309,      303,      369,      372,      276,      267
     284,      382,      384,      312,      306,      381,      383,      309,      303
     285,      384,      333,      329,      382,      312,      159,      147,      306
*ELEMENT, TYPE=C3D8I, ELSET=SAS
     286,      393,      395,      387,      385,      317,      318,      314,      313
     287,      388,      396,      395,      387,      386,      394,      393,      385
     288,      395,      397,      389,      387,      318,      319,      315,      314
     289,      390,      398,      397,      389,      388,      396,      395,      387
     290,      397,      399,      391,      389,      319,      320,      316,      315
     291,      399,      400,      398,      397,      391,      392,      390,      389
     292,      401,      403,      395,      393,      321,      322,      318,      317
     293,      396,      404,      403,      395,      394,      402,      401,      393
     294,      403,      405,      397,      395,      322,      323,      319,      318
     295,      398,      406,      405,      397,      396,      404,      403,      395
     296,      405,      407,      399,      397,      323,      324,      320,      319
     297,      407,      408,      406,      405,      399,      400,      398,      397
     298,      409,      411,      403,      401,      325,      326,      322,      321
     299,      404,      412,      411,      403,      402,      410,      409,      401
     300,      411,      413,      405,      403,      326,      327,      323,      322
     301,      406,      414,      413,      405,      404,      412,      411,      403
     302,      413,      415,      407,      405,      327,      328,      324,      323
     303,      415,      416,      414,      413,      407,      408,      406,      405
     304,      417,      419,      411,      409,      329,      330,      326,      325
     305,      412,      420,      419,      411,      410,      418,      417,      409
     306,      419,      421,      413,      411,      330,      331,      327,      326
     307,      414,      422,      421,      413,      412,      420,      419,      411
     308,      421,      423,      415,      413,      331,      332,      328,      327
     309,      423,      424,      422,      421,      415,      416,      414,      413
     310,      425,      427,      419,      417,      333,      334,      330,      329
     311,      420,      428,      427,      419,      418,      426,      425,      417
     312,      427,      429,      421,      419,      334,      335,      331,      330
     313,      422,      430,      429,      421,      420,      428,      427,      419
     314,      429,      431,      423,      421,      335,      336,      332,      331
     315,      424,      432,      431,      423,      422,      430,      429,      421
     316,      399,      439,      433,      391,      320,      340,      337,      316
     317,      434,      440,      439,      433,      392,      400,      399,      391
     318,      439,      441,      435,      433,      340,      341,      338,      337
     319,      436,      442,      441,      435,      434,      440,      439,      433
     320,      441,      443,      437,      435,      341,      342,      339,      338
     321,      443,      444,      442,      441,      437,      438,      436,      435
     322,      407,      445,      439,      399,      324,      343,      340,      320
     323,      440,      446,      445,      439,      400,      408,      407,      399
     324,      445,      447,      441,      439,      343,      344,      341,      340
     325,      442,      448,      447,      441,      440,      446,      445,      439
     326,      447,      449,      443,      441,      344,      345,      342,      341
     327,      449,      450,      448,      447,      443,      444,      442,      441
     328,      415,      451,      445,      407,      328,      346,      343,      324
     329,      446,      452,      451,      445,      408,      416,      415,      407
     330,      451,      453,      447,      445,      346,      347,      344,      343
     331,      448,      454,      453,      447,      446,      452,      451,      445
     332,      453,      455,      449,      447,      347,      348,      345,      344
     333,      455,      456,      454,      453,      449,      450,      448,      447
     334,      423,      457,      451,      415,      332,      349,      346,      328
     335,      452,      458,      457,      451,      416,      424,      423,      415
     336,      457,      459,      453,      451,      349,      350,      347,      346
     337,      454,      460,      459,      453,      452,      458,      457,      451
     338,      459,      461,      455,      453,      350,      351,      348,      347
     339,      461,      462,      460,      459,      455,      456,      454,      453
     340,      431,      463,      457,      423,      336,      352,      349,      332
     341,      458,      464,      463,      457,      424,      432,      431,      423
     342,      463,      465,      459,      457,      352,      353,      350,      349
     343,      460,      466,      465,      459,      458,      464,      463,      457
     344,      465,      467,      461,      459,      353,      354,      351,      350
     345,      462,      468,      467,      461,      460,      466,      465,      459
     346,      443,      475,      469,      437,      342,      358,      355,      339
     347,      470,      476,      475,      469,      438,      444,      443,      437
     348,      475,      477,      471,      469,      358,      359,      356,      355
     349,      472,      478,      477,      471,      470,      476,      475,      469
     350,      477,      479,      473,      471,      359,      360,      357,      356
     351,      479,      480,      478,      477,      473,      474,      472,      471
     352,      449,      481,      475,      443,      345,      361,      358,      342
     353,      476,      482,      481,      475,      444,      450,      449,      443
     354,      481,      483,      477,      475,      361,      362,      359,      358
     355,      478,      484,      483,      477,      476,      482,      481,      475
     356,      483,      485,      479,      477,      362,      363,      360,      359
     357,      485,      486,      484,      483,      479,      480,      478,      477
     358,      455,      487,      481,      449,      348,      364,      361,      345
     359,      482,      488,      487,      481,      450,      456,      455,      449
     360,      487,      489,      483,      481,      364,      365,      362,      361
     361,      484,      490,      489,      483,      482,      488,      487,      481
     362,      489,      491,      485,      483,      365,      366,      363,      362
     363,      491,      492,      490,      489,      485,      486,      484,      483
     364,      461,      493,      487,      455,      351,      367,      364,      348
     365,      488,      494,      493,      487,      456,      462,      461,      455
     366,      493,      495,      489,      487,      367,      368,      365,      364
     367,      490,      496,      495,      489,      488,      494,      493,      487
     368,      495,      497,      491,      489,      368,      369,      366,      365
     369,      497,      498,      496,      495,      491,      492,      490,      489
     370,      467,      499,      493,      461,      354,      370,      367,      351
     371,      494,      500,      499,      493,      462,      468,      467,      461
     372,      499,      501,      495,      493,      370,      371,      368,      367
     373,      496,      502,      501,      495,      494,      500,      499,      493
     374,      501,      503,      497,      495,      371,      372,      369,      368
     375,      498,      504,      503,      497,      496,      502,      501,      495
     376,      479,      509,      505,      473,      360,      375,      373,      357
     377,      506,      510,      509,      505,      474,      480,      479,      473
     378,      509,      511,      507,      505,      375,      376,      374,      373
     379,      508,      512,      511,      507,      506,      510,      509,      505
     380,      511,      393,      385,      507,      376,      317,      313,      374
     381,      393,      394,      512,      511,      385,      386,      508,      507
     382,      485,      513,      509,      479,      363,      377,      375,      360
     383,      510,      514,      513,      509,      480,      486,      485,      479
     384,      513,      515,      511,      509,      377,      378,      376,      375
     385,      512,      516,      515,      511,      510,      514,      513,      509
     386,      515,      401,      393,      511,      378,      321,      317,      376
     387,      401,      402,      516,      515,      393,      394,      512,      511
     388,      491,      517,      513,      485,      366,      379,      377,      363
     389,      514,      518,      517,      513,      486,      492,      491,      485
     390,      517,      519,      515,      513,      379,      380,      378,      377
     391,      516,      520,      519,      515,      514,      518,      517,      513
     392,      519,      409,      401,      515,      380,      325,      321,      378
     393,      409,      410,      520,      519,      401,      402,      516,      515
     394,      497,      521,      517,      491,      369,      381,      379,      366
     395,      518,      522,      521,      517,      492,      498,      497,      491
     396,      521,      523,      519,      517,      381,      382,      380,      379
     397,      520,      524,      523,      519,      518,      522,      521,      517
     398,      523,      417,      409,      519,      382,      329,      325,      380
     399,      417,      418,      524,      523,      409,      410,      520,      519
     400,      503,      525,      521,      497,      372,      383,      381,      369
     401,      522,      526,      525,      521,      498,      504,      503,      497
     402,      525,      527,      523,      521,      383,      384,      382,      381
     403,      524,      528,      527,      523,      522,      526,      525,      521
     404,      527,      425,      417,      523,      384,      333,      329,      382
     405,      528,      426,      418,      524,      527,      425,      417,      523
     406,      537,      539,      531,      529,      394,      396,      388,      386
     407,      532,      540,      539,      531,      530,      538,      537,      529
     408,      539,      541,      533,      531,      396,      398,      390,      388
     409,      534,      542,      541,      533,      532,      540,      539,      531
     410,      541,      543,      535,      533,      398,      400,      392,      390
     411,      543,      544,      542,      541,      535,      536,      534,      533
     412,      545,      547,      539,      537,      402,      404,      396,      394
     413,      540,      548,      547,      539,      538,      546,      545,      537
     414,      547,      549,      541,      539,      404,      406,      398,      396
     415,      542,      550,      549,      541,      540,      548,      547,      539
     416,      549,      551,      543,      541,      406,      408,      400,      398
     417,      551,      552,      550,      549,      543,      544,      542,      541
     418,      553,      555,      547,      545,      410,      412,      404,      402
     419,      548,      556,      555,      547,      546,      554,      553,      545
     420,      555,      557,      549,      547,      412,      414,      406,      404
     421,      550,      558,      557,      549,      548,      556,      555,      547
     422,      557,      559,      551,      549,      414,      416,      408,      406
     423,      559,      560,      558,      557,      551,      552,      550,      549
     424,      561,      563,      555,      553,      418,      420,      412,      410
     425,      556,      564,      563,      555,      554,      562,      561,      553
     426,      563,      565,      557,      555,      420,      422,      414,      412
     427,      558,      566,      565,      557,      556,      564,      563,      555
     428,      565,      567,      559,      557,      422,      424,      416,      414
     429,      567,      568,      566,      565,      559,      560,      558,      557
     430,      569,      571,      563,      561,      426,      428,      420,      418
     431,      564,      572,      571,      563,      562,      570,      569,      561
     432,      571,      573,      565,      563,      428,      430,      422,      420
     433,      566,      574,      573,      565,      564,      572,      571,      563
     434,      573,      575,      567,      565,      430,      432,      424,      422
     435,      568,      576,      575,      567,      566,      574,      573,      565
     436,      543,      583,      577,      535,      400,      440,      434,      392
     437,      578,      584,      583,      577,      536,      544,      543,      535
     438,      583,      585,      579,      577,      440,      442,      436,      434
     439,      580,      586,      585,      579,      578,      584,      583,      577
     440,      585,      587,      581,      579,      442,      444,      438,      436
     441,      587,      588,      586,      585,      581,      582,      580,      579
     442,      551,      589,      583,      543,      408,      446,      440,      400
     443,      584,      590,      589,      583,      544,      552,      551,      543
     444,      589,      591,      585,      583,      446,      448,      442,      440
     445,      586,      592,      591,      585,      584,      590,      589,      583
     446,      591,      593,      587,      585,      448,      450,      444,      442
     447,      593,      594,      592,      591,      587,      588,      586,      585
     448,      559,      595,      589,      551,      416,      452,      446,      408
     449,      590,      596,      595,      589,      552,      560,      559,      551
     450,      595,      597,      591,      589,      452,      454,      448,      446
     451,      592,      598,      597,      591,      590,      596,      595,      589
     452,      597,      599,      593,      591,      454,      456,      450,      448
     453,      599,      600,      598,      597,      593,      594,      592,      591
     454,      567,      601,      595,      559,      424,      458,      452,      416
     455,      596,      602,      601,      595,      560,      568,      567,      559
     456,      601,      603,      597,      595,      458,      460,      454,      452
     457,      598,      604,      603,      597,      596,      602,      601,      595
     458,      603,      605,      599,      597,      460,      462,      456,      454
     459,      605,      606,      604,      603,      599,      600,      598,      597
     460,      575,      607,      601,      567,      432,      464,      458,      424
     461,      602,      608,      607,      601,      568,      576,      575,      567
     462,      607,      609,      603,      601,      464,      466,      460,      458
     463,      604,      610,      609,      603,      602,      608,      607,      601
     464,      609,      611,      605,      603,      466,      468,      462,      460
     465,      606,      612,      611,      605,      604,      610,      609,      603
     466,      587,      619,      613,      581,      444,      476,      470,      438
     467,      614,      620,      619,      613,      582,      588,      587,      581
     468,      619,      621,      615,      613,      476,      478,      472,      470
     469,      616,      622,      621,      615,      614,      620,      619,      613
     470,      621,      623,      617,      615,      478,      480,      474,      472
     471,      623,      624,      622,      621,      617,      618,      616,      615
     472,      593,      625,      619,      587,      450,      482,      476,      444
     473,      620,      626,      625,      619,      588,      594,      593,      587
     474,      625,      627,      621,      619,      482,      484,      478,      476
     475,      622,      628,      627,      621,      620,      626,      625,      619
     476,      627,      629,      623,      621,      484,      486,      480,      478
     477,      629,      630,      628,      627,      623,      624,      622,      621
     478,      599,      631,      625,      593,      456,      488,      482,      450
     479,      626,      632,      631,      625,      594,      600,      599,      593
     480,      631,      633,      627,      625,      488,      490,      484,      482
     481,      628,      634,      633,      627,      626,      632,      631,      625
     482,      633,      635,      629,      627,      490,      492,      486,      484
     483,      635,      636,      634,      633,      629,      630,      628,      627
     484,      605,      637,      631,      599,      462,      494,      488,      456
     485,      632,      638,      637,      631,      600,      606,      605,      599
     486,      637,      639,      633,      631,      494,      496,      490,      488
     487,      634,      640,      639,      633,      632,      638,      637,      631
     488,      639,      641,      635,      633,      496,      498,      492,      490
     489,      641,      642,      640,      639,      635,      636,      634,      633
     490,      611,      643,      637,      605,      468,      500,      494,      462
     491,      638,      644,      643,      637,      606,      612,      611,      605
     492,      643,      645,      639,      637,      500,      502,      496,      494
     493,      640,      646,      645,      639,      638,      644,      643,      637
     494,      645,      647,      641,      639,      502,      504,      498,      496
     495,      642,      648,      647,      641,      640,      646,      645,      639
     496,      623,      653,      649,      617,      480,      510,      506,      474
     497,      650,      654,      653,      649,      618,      624,      623,      617
     498,      653,      655,      651,      649,      510,      512,      508,      506
     499,      652,      656,      655,      651,      650,      654,      653,      649
     500,      655,      537,      529,      651,      512,      394,      386,      508
     501,      537,      538,      656,      655,      529,      530,      652,      651
     502,      629,      657,      653,      623,      486,      514,      510,      480
     503,      654,      658,      657,      653,      624,      630,      629,      623
     504,      657,      659,      655,      653,      514,      516,      512,      510
     505,      656,      660,      659,      655,      654,      658,      657,      653
     506,      659,      545,      537,      655,      516,      402,      394,      512
     507,      545,      546,      660,      659,      537,      538,      656,      655
     508,      635,      661,      657,      629,      492,      518,      514,      486
     509,      658,      662,      661,      657,      630,      636,      635,      629
     510,      661,      663,      659,      657,      518,      520,      516,      514
     511,      660,      664,      663,      659,      658,      662,      661,      657
     512,      663,      553,      545,      659,      520,      410,      402,      516
     513,      553,      554,      664,      663,      545,      546,      660,      659
     514,      641,      665,      661,      635,      498,      522,      518,      492
     515,      662,      666,      665,      661,      636,      642,      641,      635
     516,      665,      667,      663,      661,      522,      524,      520,      518
     517,      664,      668,      667,      663,      662,      666,      665,      661
     518,      667,      561,      553,      663,      524,      418,      410,      520
     519,      561,      562,      668,      667,      553,      554,      664,      663
     520,      647,      669,      665,      641,      504,      526,      522,      498
     521,      666,      670,      669,      665,      642,      648,      647,      641
     522,      669,      671,      667,      665,      526,      528,      524,      522
     523,      668,      672,      671,      667,      666,      670,      669,      665
     524,      671,      569,      561,      667,      528,      426,      418,      524
     525,      672,      570,      562,      668,      671,      569,      561,      667
*ELEMENT, TYPE=C3D8I, ELSET=DURA
     526,      674,      678,      540,      532,      673,      677,      538,      530
     527,      675,      679,      542,      534,      674,      678,      540,      532
     528,      544,      680,      679,      542,      536,      676,      675,      534
     529,      678,      682,      548,      540,      677,      681,      546,      538
     530,      679,      683,      550,      542,      678,      682,      548,      540
     531,      552,      684,      683,      550,      544,      680,      679,      542
     532,      682,      686,      556,      548,      681,      685,      554,      546
     533,      683,      687,      558,      550,      682,      686,      556,      548
     534,      560,      688,      687,      558,      552,      684,      683,      550
     535,      686,      690,      564,      556,      685,      689,      562,      554
     536,      687,      691,      566,      558,      686,      690,      564,      556
     537,      568,      692,      691,      566,      560,      688,      687,      558
     538,      690,      694,      572,      564,      689,      693,      570,      562
     539,      691,      695,      574,      566,      690,      694,      572,      564
     540,      692,      696,      576,      568,      691,      695,      574,      566
     541,      697,      700,      584,      578,      676,      680,      544,      536
     542,      698,      701,      586,      580,      697,      700,      584,      578
     543,      588,      702,      701,      586,      582,      699,      698,      580
     544,      700,      703,      590,      584,      680,      684,      552,      544
     545,      701,      704,      592,      586,      700,      703,      590,      584
     546,      594,      705,      704,      592,      588,      702,      701,      586
     547,      703,      706,      596,      590,      684,      688,      560,      552
     548,      704,      707,      598,      592,      703,      706,      596,      590
     549,      600,      708,      707,      598,      594,      705,      704,      592
     550,      706,      709,      602,      596,      688,      692,      568,      560
     551,      707,      710,      604,      598,      706,      709,      602,      596
     552,      606,      711,      710,      604,      600,      708,      707,      598
     553,      709,      712,      608,      602,      692,      696,      576,      568
     554,      710,      713,      610,      604,      709,      712,      608,      602
     555,      711,      714,      612,      606,      710,      713,      610,      604
     556,      715,      718,      620,      614,      699,      702,      588,      582
     557,      716,      719,      622,      616,      715,      718,      620,      614
     558,      624,      720,      719,      622,      618,      717,      716,      616
     559,      718,      721,      626,      620,      702,      705,      594,      588
     560,      719,      722,      628,      622,      718,      721,      626,      620
     561,      630,      723,      722,      628,      624,      720,      719,      622
     562,      721,      724,      632,      626,      705,      708,      600,      594
     563,      722,      725,      634,      628,      721,      724,      632,      626
     564,      636,      726,      725,      634,      630,      723,      722,      628
     565,      724,      727,      638,      632,      708,      711,      606,      600
     566,      725,      728,      640,      634,      724,      727,      638,      632
     567,      642,      729,      728,      640,      636,      726,      725,      634
     568,      727,      730,      644,      638,      711,      714,      612,      606
     569,      728,      731,      646,      640,      727,      730,      644,      638
     570,      729,      732,      648,      642,      728,      731,      646,      640
     571,      733,      735,      654,      650,      717,      720,      624,      618
     572,      734,      736,      656,      652,      733,      735,      654,      650
     573,      538,      677,      736,      656,      530,      673,      734,      652
     574,      735,      737,      658,      654,      720,      723,      630,      624
     575,      736,      738,      660,      656,      735,      737,      658,      654
     576,      546,      681,      738,      660,      538,      677,      736,      656
     577,      737,      739,      662,      658,      723,      726,      636,      630
     578,      738,      740,      664,      660,      737,      739,      662,      658
     579,      554,      685,      740,      664,      546,      681,      738,      660
     580,      739,      741,      666,      662,      726,      729,      642,      636
     581,      740,      742,      668,      664,      739,      741,      666,      662
     582,      562,      689,      742,      668,      554,      685,      740,      664
     583,      741,      743,      670,      666,      729,      732,      648,      642
     584,      742,      744,      672,      668,      741,      743,      670,      666
     585,      570,      693,      744,      672,      562,      689,      742,      668
*ELEMENT, TYPE=C3D8I, ELSET=LC
     586,      746,      750,       86,       82,      745,      749,       85,       81
     587,      747,      751,       87,       83,      746,      750,       86,       82
     588,       88,      752,      751,       87,       84,      748,      747,       83
     589,      750,      754,       90,       86,      749,      753,       89,       85
     590,      751,      755,       91,       87,      750,      754,       90,       86
     591,       92,      756,      755,       91,       88,      752,      751,       87
     592,      754,      758,       94,       90,      753,      757,       93,       89
     593,      755,      759,       95,       91,      754,      758,       94,       90
     594,      756,      760,       96,       92,      755,      759,       95,       91
     595,      761,      764,      160,      157,      757,      753,       89,       93
     596,      762,      765,      161,      158,      761,      764,      160,      157
     597,      162,      766,      765,      161,      159,      763,      762,      158
     598,      764,      767,      163,      160,      753,      749,       85,       89
     599,      765,      768,      164,      161,      764,      767,      163,      160
     600,      165,      769,      768,      164,      162,      766,      765,      161
     601,      767,      770,      166,      163,      749,      745,       81,       85
     602,      768,      771,      167,      164,      767,      770,      166,      163
     603,      168,      772,      771,      167,      165,      769,      768,      164
     604,      770,      773,      214,      166,      745,      746,       82,       81
     605,      771,      774,      215,      167,      770,      773,      214,      166
     606,      216,      775,      774,      215,      168,      772,      771,      167
     607,      773,      776,      217,      214,      746,      747,       83,       82
     608,      774,      777,      218,      215,      773,      776,      217,      214
     609,      219,      778,      777,      218,      216,      775,      774,      215
     610,      776,      779,      220,      217,      747,      748,       84,       83
     611,      777,      780,      221,      218,      776,      779,      220,      217
     612,      222,      781,      780,      221,      219,      778,      777,      218
     613,      779,      782,      268,      220,      748,      752,       88,       84
     614,      780,      783,      269,      221,      779,      782,      268,      220
     615,      270,      784,      783,      269,      222,      781,      780,      221
     616,      782,      785,      271,      268,      752,      756,       92,       88
     617,      783,      786,      272,      269,      782,      785,      271,      268
     618,      273,      787,      786,      272,      270,      784,      783,      269
     619,      785,      788,      274,      271,      756,      760,       96,       92
     620,      786,      789,      275,      272,      785,      788,      274,      271
     621,      276,      790,      789,      275,      273,      787,      786,      272
     622,      788,      791,      307,      274,      760,      759,       95,       96
     623,      789,      792,      308,      275,      788,      791,      307,      274
     624,      309,      793,      792,      308,      276,      790,      789,      275
     625,      791,      794,      310,      307,      759,      758,       94,       95
     626,      792,      795,      311,      308,      791,      794,      310,      307
     627,      312,      796,      795,      311,      309,      793,      792,      308
     628,      794,      761,      157,      310,      758,      757,       93,       94
     629,      795,      762,      158,      311,      794,      761,      157,      310
     630,      796,      763,      159,      312,      795,      762,      158,      311
*ELEMENT, TYPE=C3D8I, ELSET=SCLERA_PERI
     631,      334,      798,      766,      162,      333,      797,      763,      159
     632,      335,      799,      769,      165,      334,      798,      766,      162
     633,      336,      800,      772,      168,      335,      799,      769,      165
     634,      352,      801,      775,      216,      336,      800,      772,      168
     635,      353,      802,      778,      219,      352,      801,      775,      216
     636,      354,      803,      781,      222,      353,      802,      778,      219
     637,      370,      804,      784,      270,      354,      803,      781,      222
     638,      371,      805,      787,      273,      370,      804,      784,      270
     639,      372,      806,      790,      276,      371,      805,      787,      273
     640,      383,      807,      793,      309,      372,      806,      790,      276
     641,      384,      808,      796,      312,      383,      807,      793,      309
     642,      808,      797,      333,      384,      796,      763,      159,      312
     643,      809,      811,      427,      425,      797,      798,      334,      333
     644,      428,      812,      811,      427,      426,      810,      809,      425
     645,      811,      813,      429,      427,      798,      799,      335,      334
     646,      430,      814,      813,      429,      428,      812,      811,      427
     647,      813,      815,      431,      429,      799,      800,      336,      335
     648,      432,      816,      815,      431,      430,      814,      813,      429
     649,      815,      817,      463,      431,      800,      801,      352,      336
     650,      464,      818,      817,      463,      432,      816,      815,      431
     651,      817,      819,      465,      463,      801,      802,      353,      352
     652,      466,      820,      819,      465,      464,      818,      817,      463
     653,      819,      821,      467,      465,      802,      803,      354,      353
     654,      468,      822,      821,      467,      466,      820,      819,      465
     655,      821,      823,      499,      467,      803,      804,      370,      354
     656,      500,      824,      823,      499,      468,      822,      821,      467
     657,      823,      825,      501,      499,      804,      805,      371,      370
     658,      502,      826,      825,      501,      500,      824,      823,      499
     659,      825,      827,      503,      501,      805,      806,      372,      371
     660,      504,      828,      827,      503,      502,      826,      825,      501
     661,      827,      829,      525,      503,      806,      807,      383,      372
     662,      526,      830,      829,      525,      504,      828,      827,      503
     663,      829,      831,      527,      525,      807,      808,      384,      383
     664,      528,      832,      831,      527,      526,      830,      829,      525
     665,      831,      809,      425,      527,      808,      797,      333,      384
     666,      832,      810,      426,      528,      831,      809,      425,      527
*ELEMENT, TYPE=C3D8I, ELSET=SCLERA_RING
     667,      833,      835,      571,      569,      810,      812,      428,      426
     668,      572,      836,      835,      571,      570,      834,      833,      569
     669,      835,      837,      573,      571,      812,      814,      430,      428
     670,      574,      838,      837,      573,      572,      836,      835,      571
     671,      837,      839,      575,      573,      814,      816,      432,      430
     672,      576,      840,      839,      575,      574,      838,      837,      573
     673,      839,      841,      607,      575,      816,      818,      464,      432
     674,      608,      842,      841,      607,      576,      840,      839,      575
     675,      841,      843,      609,      607,      818,      820,      466,      464
     676,      610,      844,      843,      609,      608,      842,      841,      607
     677,      843,      845,      611,      609,      820,      822,      468,      466
     678,      612,      846,      845,      611,      610,      844,      843,      609
     679,      845,      847,      643,      611,      822,      824,      500,      468
     680,      644,      848,      847,      643,      612,      846,      845,      611
     681,      847,      849,      645,      643,      824,      826,      502,      500
     682,      646,      850,      849,      645,      644,      848,      847,      643
     683,      849,      851,      647,      645,      826,      828,      504,      502
     684,      648,      852,      851,      647,      646,      850,      849,      645
     685,      851,      853,      669,      647,      828,      830,      526,      504
     686,      670,      854,      853,      669,      648,      852,      851,      647
     687,      853,      855,      671,      669,      830,      832,      528,      526
     688,      672,      856,      855,      671,      670,      854,      853,      669
     689,      855,      833,      569,      671,      832,      810,      426,      528
     690,      856,      834,      570,      672,      855,      833,      569,      671
     691,      694,      858,      836,      572,      693,      857,      834,      570
     692,      695,      859,      838,      574,      694,      858,      836,      572
     693,      696,      860,      840,      576,      695,      859,      838,      574
     694,      712,      861,      842,      608,      696,      860,      840,      576
     695,      713,      862,      844,      610,      712,      861,      842,      608
     696,      714,      863,      846,      612,      713,      862,      844,      610
     697,      730,      864,      848,      644,      714,      863,      846,      612
     698,      731,      865,      850,      646,      730,      864,      848,      644
     699,      732,      866,      852,      648,      731,      865,      850,      646
     700,      743,      867,      854,      670,      732,      866,      852,      648
     701,      744,      868,      856,      672,      743,      867,      854,      670
     702,      834,      857,      868,      856,      570,      693,      744,      672
*ELEMENT, TYPE=C3D8I, ELSET=GLOBO
     703,      870,      874,      750,      746,      869,      873,      749,      745
     704,      871,      875,      751,      747,      870,      874,      750,      746
     705,      752,      876,      875,      751,      748,      872,      871,      747
     706,      874,      878,      754,      750,      873,      877,      753,      749
     707,      875,      879,      755,      751,      874,      878,      754,      750
     708,      756,      880,      879,      755,      752,      876,      875,      751
     709,      878,      882,      758,      754,      877,      881,      757,      753
     710,      879,      883,      759,      755,      878,      882,      758,      754
     711,      880,      884,      760,      756,      879,      883,      759,      755
     712,      885,      888,      764,      761,      881,      877,      753,      757
     713,      886,      889,      765,      762,      885,      888,      764,      761
     714,      766,      890,      889,      765,      763,      887,      886,      762
     715,      888,      891,      767,      764,      877,      873,      749,      753
     716,      889,      892,      768,      765,      888,      891,      767,      764
     717,      769,      893,      892,      768,      766,      890,      889,      765
     718,      891,      894,      770,      767,      873,      869,      745,      749
     719,      892,      895,      771,      768,      891,      894,      770,      767
     720,      772,      896,      895,      771,      769,      893,      892,      768
     721,      894,      897,      773,      770,      869,      870,      746,      745
     722,      895,      898,      774,      771,      894,      897,      773,      770
     723,      775,      899,      898,      774,      772,      896,      895,      771
     724,      897,      900,      776,      773,      870,      871,      747,      746
     725,      898,      901,      777,      774,      897,      900,      776,      773
     726,      778,      902,      901,      777,      775,      899,      898,      774
     727,      900,      903,      779,      776,      871,      872,      748,      747
     728,      901,      904,      780,      777,      900,      903,      779,      776
     729,      781,      905,      904,      780,      778,      902,      901,      777
     730,      903,      906,      782,      779,      872,      876,      752,      748
     731,      904,      907,      783,      780,      903,      906,      782,      779
     732,      784,      908,      907,      783,      781,      905,      904,      780
     733,      906,      909,      785,      782,      876,      880,      756,      752
     734,      907,      910,      786,      783,      906,      909,      785,      782
     735,      787,      911,      910,      786,      784,      908,      907,      783
     736,      909,      912,      788,      785,      880,      884,      760,      756
     737,      910,      913,      789,      786,      909,      912,      788,      785
     738,      790,      914,      913,      789,      787,      911,      910,      786
     739,      912,      915,      791,      788,      884,      883,      759,      760
     740,      913,      916,      792,      789,      912,      915,      791,      788
     741,      793,      917,      916,      792,      790,      914,      913,      789
     742,      915,      918,      794,      791,      883,      882,      758,      759
     743,      916,      919,      795,      792,      915,      918,      794,      791
     744,      796,      920,      919,      795,      793,      917,      916,      792
     745,      918,      885,      761,      794,      882,      881,      757,      758
     746,      919,      886,      762,      795,      918,      885,      761,      794
     747,      920,      887,      763,      796,      919,      886,      762,      795
     748,      798,      922,      890,      766,      797,      921,      887,      763
     749,      799,      923,      893,      769,      798,      922,      890,      766
     750,      800,      924,      896,      772,      799,      923,      893,      769
     751,      801,      925,      899,      775,      800,      924,      896,      772
     752,      802,      926,      902,      778,      801,      925,      899,      775
     753,      803,      927,      905,      781,      802,      926,      902,      778
     754,      804,      928,      908,      784,      803,      927,      905,      781
     755,      805,      929,      911,      787,      804,      928,      908,      784
     756,      806,      930,      914,      790,      805,      929,      911,      787
     757,      807,      931,      917,      793,      806,      930,      914,      790
     758,      808,      932,      920,      796,      807,      931,      917,      793
     759,      932,      921,      797,      808,      920,      887,      763,      796
     760,      933,      935,      811,      809,      921,      922,      798,      797
     761,      812,      936,      935,      811,      810,      934,      933,      809
     762,      935,      937,      813,      811,      922,      923,      799,      798
     763,      814,      938,      937,      813,      812,      936,      935,      811
     764,      937,      939,      815,      813,      923,      924,      800,      799
     765,      816,      940,      939,      815,      814,      938,      937,      813
     766,      939,      941,      817,      815,      924,      925,      801,      800
     767,      818,      942,      941,      817,      816,      940,      939,      815
     768,      941,      943,      819,      817,      925,      926,      802,      801
     769,      820,      944,      943,      819,      818,      942,      941,      817
     770,      943,      945,      821,      819,      926,      927,      803,      802
     771,      822,      946,      945,      821,      820,      944,      943,      819
     772,      945,      947,      823,      821,      927,      928,      804,      803
     773,      824,      948,      947,      823,      822,      946,      945,      821
     774,      947,      949,      825,      823,      928,      929,      805,      804
     775,      826,      950,      949,      825,      824,      948,      947,      823
     776,      949,      951,      827,      825,      929,      930,      806,      805
     777,      828,      952,      951,      827,      826,      950,      949,      825
     778,      951,      953,      829,      827,      930,      931,      807,      806
     779,      830,      954,      953,      829,      828,      952,      951,      827
     780,      953,      955,      831,      829,      931,      932,      808,      807
     781,      832,      956,      955,      831,      830,      954,      953,      829
     782,      955,      933,      809,      831,      932,      921,      797,      808
     783,      956,      934,      810,      832,      955,      933,      809,      831
     784,      957,      959,      835,      833,      934,      936,      812,      810
     785,      836,      960,      959,      835,      834,      958,      957,      833
     786,      959,      961,      837,      835,      936,      938,      814,      812
     787,      838,      962,      961,      837,      836,      960,      959,      835
     788,      961,      963,      839,      837,      938,      940,      816,      814
     789,      840,      964,      963,      839,      838,      962,      961,      837
     790,      963,      965,      841,      839,      940,      942,      818,      816
     791,      842,      966,      965,      841,      840,      964,      963,      839
     792,      965,      967,      843,      841,      942,      944,      820,      818
     793,      844,      968,      967,      843,      842,      966,      965,      841
     794,      967,      969,      845,      843,      944,      946,      822,      820
     795,      846,      970,      969,      845,      844,      968,      967,      843
     796,      969,      971,      847,      845,      946,      948,      824,      822
     797,      848,      972,      971,      847,      846,      970,      969,      845
     798,      971,      973,      849,      847,      948,      950,      826,      824
     799,      850,      974,      973,      849,      848,      972,      971,      847
     800,      973,      975,      851,      849,      950,      952,      828,      826
     801,      852,      976,      975,      851,      850,      974,      973,      849
     802,      975,      977,      853,      851,      952,      954,      830,      828
     803,      854,      978,      977,      853,      852,      976,      975,      851
     804,      977,      979,      855,      853,      954,      956,      832,      830
     805,      856,      980,      979,      855,      854,      978,      977,      853
     806,      979,      957,      833,      855,      956,      934,      810,      832
     807,      980,      958,      834,      856,      979,      957,      833,      855
     808,      858,      982,      960,      836,      857,      981,      958,      834
     809,      859,      983,      962,      838,      858,      982,      960,      836
     810,      860,      984,      964,      840,      859,      983,      962,      838
     811,      861,      985,      966,      842,      860,      984,      964,      840
     812,      862,      986,      968,      844,      861,      985,      966,      842
     813,      863,      987,      970,      846,      862,      986,      968,      844
     814,      864,      988,      972,      848,      863,      987,      970,      846
     815,      865,      989,      974,      850,      864,      988,      972,      848
     816,      866,      990,      976,      852,      865,      989,      974,      850
     817,      867,      991,      978,      854,      866,      990,      976,      852
     818,      868,      992,      980,      856,      867,      991,      978,      854
     819,      992,      981,      857,      868,      980,      958,      834,      856
*NSET, NSET=POSTERIOR_ON
      1,       2,       3,       4,       5,       6,       7,       8
      9,      10,      11,      12,      13,      14,      15,      16
     97,      98,      99,     100,     101,     102,     103,     104
    105,     106,     107,     108,     169,     170,     171,     172
    173,     174,     175,     176,     177,     223,     224,     225
    226,     227,     228,     229,     230,     231,     277,     278
    279,     280,     281,     282
*NSET, NSET=POSTERIOR_PIA
     99,     102,     105,     108,     171,     174,     177,     225
    228,     231,     279,     282,     313,     314,     315,     316
    337,     338,     339,     355,     356,     357,     373,     374
*NSET, NSET=POSTERIOR_SAS
    313,     314,     315,     316,     337,     338,     339,     355
    356,     357,     373,     374,     385,     386,     387,     388
    389,     390,     391,     392,     433,     434,     435,     436
    437,     438,     469,     470,     471,     472,     473,     474
    505,     506,     507,     508,     529,     530,     531,     532
    533,     534,     535,     536,     577,     578,     579,     580
    581,     582,     613,     614,     615,     616,     617,     618
    649,     650,     651,     652
*NSET, NSET=POSTERIOR_DURA
    530,     532,     534,     536,     578,     580,     582,     614
    616,     618,     650,     652,     673,     674,     675,     676
    697,     698,     699,     715,     716,     717,     733,     734
*NSET, NSET=DURA_OUTER
    673,     674,     675,     676,     677,     678,     679,     680
    681,     682,     683,     684,     685,     686,     687,     688
    689,     690,     691,     692,     693,     694,     695,     696
    697,     698,     699,     700,     701,     702,     703,     704
    705,     706,     707,     708,     709,     710,     711,     712
    713,     714,     715,     716,     717,     718,     719,     720
    721,     722,     723,     724,     725,     726,     727,     728
    729,     730,     731,     732,     733,     734,     735,     736
    737,     738,     739,     740,     741,     742,     743,     744
*NSET, NSET=SCLERA_RING_OUTER
    693,     694,     695,     696,     712,     713,     714,     730
    731,     732,     743,     744,     857,     858,     859,     860
    861,     862,     863,     864,     865,     866,     867,     868
*NSET, NSET=GLOBO_OUTER
    857,     858,     859,     860,     861,     862,     863,     864
    865,     866,     867,     868,     981,     982,     983,     984
    985,     986,     987,     988,     989,     990,     991,     992
*NSET, NSET=ANTERIOR_GLOBO
    869,     870,     871,     872,     873,     874,     875,     876
    877,     878,     879,     880,     881,     882,     883,     884
    885,     886,     887,     888,     889,     890,     891,     892
    893,     894,     895,     896,     897,     898,     899,     900
    901,     902,     903,     904,     905,     906,     907,     908
    909,     910,     911,     912,     913,     914,     915,     916
    917,     918,     919,     920,     921,     922,     923,     924
    925,     926,     927,     928,     929,     930,     931,     932
    933,     934,     935,     936,     937,     938,     939,     940
    941,     942,     943,     944,     945,     946,     947,     948
    949,     950,     951,     952,     953,     954,     955,     956
    957,     958,     959,     960,     961,     962,     963,     964
    965,     966,     967,     968,     969,     970,     971,     972
    973,     974,     975,     976,     977,     978,     979,     980
    981,     982,     983,     984,     985,     986,     987,     988
    989,     990,     991,     992
*NSET, NSET=PERTURBATION_STRIP
    682,     683,     686,     687
*SURFACE, NAME=POSTERIOR_ON_SURF, TYPE=ELEMENT
       1, S5
       4, S5
       7, S5
       2, S5
       5, S5
       8, S5
       3, S6
       6, S6
       9, S2
      46, S5
      49, S5
      52, S5
      47, S5
      50, S5
      53, S5
      48, S6
      51, S6
      54, S2
      91, S5
      94, S5
      97, S5
      92, S5
      95, S5
      98, S5
      93, S6
      96, S6
      99, S2
     136, S5
     139, S5
     142, S5
     137, S5
     140, S5
     143, S5
     138, S6
     141, S6
     144, S2
     181, S5
     184, S5
     187, S5
     182, S5
     185, S5
     188, S5
     183, S6
     186, S6
     189, S2
*SURFACE, NAME=POSTERIOR_PIA_SURF, TYPE=ELEMENT
     226, S6
     227, S6
     228, S2
     241, S6
     242, S6
     243, S2
     256, S6
     257, S6
     258, S2
     271, S6
     272, S6
     273, S2
*SURFACE, NAME=POSTERIOR_SAS_SURF, TYPE=ELEMENT
     286, S5
     288, S5
     290, S5
     287, S6
     289, S6
     291, S2
     316, S5
     318, S5
     320, S5
     317, S6
     319, S6
     321, S2
     346, S5
     348, S5
     350, S5
     347, S6
     349, S6
     351, S2
     376, S5
     378, S5
     380, S5
     377, S6
     379, S6
     381, S2
     406, S5
     408, S5
     410, S5
     407, S6
     409, S6
     411, S2
     436, S5
     438, S5
     440, S5
     437, S6
     439, S6
     441, S2
     466, S5
     468, S5
     470, S5
     467, S6
     469, S6
     471, S2
     496, S5
     498, S5
     500, S5
     497, S6
     499, S6
     501, S2
*SURFACE, NAME=POSTERIOR_DURA_SURF, TYPE=ELEMENT
     526, S6
     527, S6
     528, S2
     541, S6
     542, S6
     543, S2
     556, S6
     557, S6
     558, S2
     571, S6
     572, S6
     573, S2
*SURFACE, NAME=DURA_OUTER_SURF, TYPE=ELEMENT
     526, S3
     527, S3
     528, S4
     529, S3
     530, S3
     531, S4
     532, S3
     534, S4
     535, S3
     536, S3
     537, S4
     538, S3
     539, S3
     540, S3
     541, S3
     542, S3
     543, S4
     544, S3
     545, S3
     546, S4
     547, S3
     548, S3
     549, S4
     550, S3
     551, S3
     552, S4
     553, S3
     554, S3
     555, S3
     556, S3
     557, S3
     558, S4
     559, S3
     560, S3
     561, S4
     562, S3
     563, S3
     564, S4
     565, S3
     566, S3
     567, S4
     568, S3
     569, S3
     570, S3
     571, S3
     572, S3
     573, S4
     574, S3
     575, S3
     576, S4
     577, S3
     578, S3
     579, S4
     580, S3
     581, S3
     582, S4
     583, S3
     584, S3
     585, S4
*SURFACE, NAME=SCLERA_RING_OUTER_SURF, TYPE=ELEMENT
     691, S3
     692, S3
     693, S3
     694, S3
     695, S3
     696, S3
     697, S3
     698, S3
     699, S3
     700, S3
     701, S3
     702, S4
*SURFACE, NAME=GLOBO_OUTER_SURF, TYPE=ELEMENT
     808, S3
     809, S3
     810, S3
     811, S3
     812, S3
     813, S3
     814, S3
     815, S3
     816, S3
     817, S3
     818, S3
     819, S1
*SURFACE, NAME=ANTERIOR_GLOBO_SURF, TYPE=ELEMENT
     703, S3
     706, S3
     709, S3
     704, S3
     707, S3
     710, S3
     705, S4
     708, S4
     711, S3
     712, S3
     715, S3
     718, S3
     713, S3
     716, S3
     719, S3
     714, S4
     717, S4
     720, S4
     721, S3
     724, S3
     727, S3
     722, S3
     725, S3
     728, S3
     723, S4
     726, S4
     729, S4
     730, S3
     733, S3
     736, S3
     731, S3
     734, S3
     737, S3
     732, S4
     735, S4
     738, S4
     739, S3
     742, S3
     745, S3
     740, S3
     743, S3
     746, S3
     741, S4
     744, S4
     747, S3
     748, S4
     749, S4
     750, S4
     751, S4
     752, S4
     753, S4
     754, S4
     755, S4
     756, S4
     757, S4
     758, S4
     759, S3
     760, S3
     762, S3
     764, S3
     761, S4
     763, S4
     765, S4
     766, S3
     768, S3
     770, S3
     767, S4
     769, S4
     771, S4
     772, S3
     774, S3
     776, S3
     773, S4
     775, S4
     777, S4
     778, S3
     780, S3
     782, S3
     779, S4
     781, S4
     783, S3
     784, S3
     786, S3
     788, S3
     785, S4
     787, S4
     789, S4
     790, S3
     792, S3
     794, S3
     791, S4
     793, S4
     795, S4
     796, S3
     798, S3
     800, S3
     797, S4
     799, S4
     801, S4
     802, S3
     804, S3
     806, S3
     803, S4
     805, S4
     807, S3
     808, S4
     809, S4
     810, S4
     811, S4
     812, S4
     813, S4
     814, S4
     815, S4
     816, S4
     817, S4
     818, S4
     819, S3
*SURFACE, NAME=PERTURBATION_STRIP_SURF, TYPE=ELEMENT
     533, S3
*SURFACE, NAME=DURA_INNER_SURF, TYPE=ELEMENT
     526, S5
     527, S5
     528, S6
     529, S5
     530, S5
     531, S6
     532, S5
     533, S5
     534, S6
     535, S5
     536, S5
     537, S6
     538, S5
     539, S5
     540, S5
     541, S5
     542, S5
     543, S6
     544, S5
     545, S5
     546, S6
     547, S5
     548, S5
     549, S6
     550, S5
     551, S5
     552, S6
     553, S5
     554, S5
     555, S5
     556, S5
     557, S5
     558, S6
     559, S5
     560, S5
     561, S6
     562, S5
     563, S5
     564, S6
     565, S5
     566, S5
     567, S6
     568, S5
     569, S5
     570, S5
     571, S5
     572, S5
     573, S6
     574, S5
     575, S5
     576, S6
     577, S5
     578, S5
     579, S6
     580, S5
     581, S5
     582, S6
     583, S5
     584, S5
     585, S6
