** Winkler foundation springs em dura_outer (excluindo perturbation_strip)
** Gerado automaticamente por foam_polymesh_to_ccx_inp.py
** k_winkler = 2.000e+05 Pa/m, 992 springs
*NODE, NSET=GHOST_WINKLER
   13714,  1.76847411e-03, -1.76847411e-03,  0.00000000e+00
   13715,  2.07950553e-03, -1.38948118e-03,  0.00000000e+00
   13716,  2.31062272e-03, -9.57091277e-04,  0.00000000e+00
   13717,  2.45294399e-03, -4.87920900e-04,  0.00000000e+00
   13718,  2.50100000e-03,  2.22133423e-19,  0.00000000e+00
   13719,  2.45294399e-03,  4.87920900e-04,  0.00000000e+00
   13720,  2.31062272e-03,  9.57091277e-04,  0.00000000e+00
   13721,  2.07950553e-03,  1.38948118e-03,  0.00000000e+00
   13722,  1.76847411e-03,  1.76847411e-03,  0.00000000e+00
   13723,  1.76847411e-03, -1.76847411e-03,  1.00000000e-03
   13724,  2.07950553e-03, -1.38948118e-03,  1.00000000e-03
   13725,  2.31062272e-03, -9.57091277e-04,  1.00000000e-03
   13726,  2.45294399e-03, -4.87920900e-04,  1.00000000e-03
   13727,  2.50100000e-03,  2.22133423e-19,  1.00000000e-03
   13728,  2.45294399e-03,  4.87920900e-04,  1.00000000e-03
   13729,  2.31062272e-03,  9.57091277e-04,  1.00000000e-03
   13730,  2.07950553e-03,  1.38948118e-03,  1.00000000e-03
   13731,  1.76847411e-03,  1.76847411e-03,  1.00000000e-03
   13732,  1.76847411e-03, -1.76847411e-03,  2.00000000e-03
   13733,  2.07950553e-03, -1.38948118e-03,  2.00000000e-03
   13734,  2.31062272e-03, -9.57091277e-04,  2.00000000e-03
   13735,  2.45294399e-03, -4.87920900e-04,  2.00000000e-03
   13736,  2.50100000e-03,  2.22133423e-19,  2.00000000e-03
   13737,  2.45294399e-03,  4.87920900e-04,  2.00000000e-03
   13738,  2.31062272e-03,  9.57091277e-04,  2.00000000e-03
   13739,  2.07950553e-03,  1.38948118e-03,  2.00000000e-03
   13740,  1.76847411e-03,  1.76847411e-03,  2.00000000e-03
   13741,  1.76847411e-03, -1.76847411e-03,  3.00000000e-03
   13742,  2.07950553e-03, -1.38948118e-03,  3.00000000e-03
   13743,  2.31062272e-03, -9.57091277e-04,  3.00000000e-03
   13744,  2.45294399e-03, -4.87920900e-04,  3.00000000e-03
   13745,  2.50100000e-03,  2.22133423e-19,  3.00000000e-03
   13746,  2.45294399e-03,  4.87920900e-04,  3.00000000e-03
   13747,  2.31062272e-03,  9.57091277e-04,  3.00000000e-03
   13748,  2.07950553e-03,  1.38948118e-03,  3.00000000e-03
   13749,  1.76847411e-03,  1.76847411e-03,  3.00000000e-03
   13750,  1.76847411e-03, -1.76847411e-03,  4.00000000e-03
   13751,  2.07950553e-03, -1.38948118e-03,  4.00000000e-03
   13752,  2.31062272e-03, -9.57091277e-04,  4.00000000e-03
   13753,  2.45294399e-03, -4.87920900e-04,  4.00000000e-03
   13754,  2.50100000e-03,  2.22133423e-19,  4.00000000e-03
   13755,  2.45294399e-03,  4.87920900e-04,  4.00000000e-03
   13756,  2.31062272e-03,  9.57091277e-04,  4.00000000e-03
   13757,  2.07950553e-03,  1.38948118e-03,  4.00000000e-03
   13758,  1.76847411e-03,  1.76847411e-03,  4.00000000e-03
   13759,  1.76847411e-03, -1.76847411e-03,  5.00000000e-03
   13760,  2.07950553e-03, -1.38948118e-03,  5.00000000e-03
   13761,  2.31062272e-03, -9.57091277e-04,  5.00000000e-03
   13762,  2.45294399e-03, -4.87920900e-04,  5.00000000e-03
   13763,  2.50100000e-03,  2.22133423e-19,  5.00000000e-03
   13764,  2.45294399e-03,  4.87920900e-04,  5.00000000e-03
   13765,  2.31062272e-03,  9.57091277e-04,  5.00000000e-03
   13766,  2.07950553e-03,  1.38948118e-03,  5.00000000e-03
   13767,  1.76847411e-03,  1.76847411e-03,  5.00000000e-03
   13768,  1.76847411e-03, -1.76847411e-03,  6.00000000e-03
   13769,  2.07950553e-03, -1.38948118e-03,  6.00000000e-03
   13770,  2.31062272e-03, -9.57091277e-04,  6.00000000e-03
   13771,  2.45294399e-03, -4.87920900e-04,  6.00000000e-03
   13772,  2.50100000e-03,  2.22133423e-19,  6.00000000e-03
   13773,  2.45294399e-03,  4.87920900e-04,  6.00000000e-03
   13774,  2.31062272e-03,  9.57091277e-04,  6.00000000e-03
   13775,  2.07950553e-03,  1.38948118e-03,  6.00000000e-03
   13776,  1.76847411e-03,  1.76847411e-03,  6.00000000e-03
   13777,  1.76847411e-03, -1.76847411e-03,  7.00000000e-03
   13778,  2.07950553e-03, -1.38948118e-03,  7.00000000e-03
   13779,  2.31062272e-03, -9.57091277e-04,  7.00000000e-03
   13780,  2.45294399e-03, -4.87920900e-04,  7.00000000e-03
   13781,  2.50100000e-03,  2.22133423e-19,  7.00000000e-03
   13782,  2.45294399e-03,  4.87920900e-04,  7.00000000e-03
   13783,  2.31062272e-03,  9.57091277e-04,  7.00000000e-03
   13784,  2.07950553e-03,  1.38948118e-03,  7.00000000e-03
   13785,  1.76847411e-03,  1.76847411e-03,  7.00000000e-03
   13786,  1.76847411e-03, -1.76847411e-03,  8.00000000e-03
   13787,  2.07950553e-03, -1.38948118e-03,  8.00000000e-03
   13788,  2.31062272e-03, -9.57091277e-04,  8.00000000e-03
   13789,  2.45294399e-03, -4.87920900e-04,  8.00000000e-03
   13790,  2.50100000e-03,  2.22133423e-19,  8.00000000e-03
   13791,  2.45294399e-03,  4.87920900e-04,  8.00000000e-03
   13792,  2.31062272e-03,  9.57091277e-04,  8.00000000e-03
   13793,  2.07950553e-03,  1.38948118e-03,  8.00000000e-03
   13794,  1.76847411e-03,  1.76847411e-03,  8.00000000e-03
   13795,  1.76847411e-03, -1.76847411e-03,  9.00000000e-03
   13796,  2.07950553e-03, -1.38948118e-03,  9.00000000e-03
   13797,  2.31062272e-03, -9.57091277e-04,  9.00000000e-03
   13798,  2.45294399e-03, -4.87920900e-04,  9.00000000e-03
   13799,  2.50100000e-03,  2.22133423e-19,  9.00000000e-03
   13800,  2.45294399e-03,  4.87920900e-04,  9.00000000e-03
   13801,  2.31062272e-03,  9.57091277e-04,  9.00000000e-03
   13802,  2.07950553e-03,  1.38948118e-03,  9.00000000e-03
   13803,  1.76847411e-03,  1.76847411e-03,  9.00000000e-03
   13804,  1.76847411e-03, -1.76847411e-03,  1.00000000e-02
   13805,  2.07950553e-03, -1.38948118e-03,  1.00000000e-02
   13806,  2.31062272e-03, -9.57091277e-04,  1.00000000e-02
   13807,  2.45294399e-03, -4.87920900e-04,  1.00000000e-02
   13808,  2.50100000e-03,  2.22133423e-19,  1.00000000e-02
   13809,  2.45294399e-03,  4.87920900e-04,  1.00000000e-02
   13810,  2.31062272e-03,  9.57091277e-04,  1.00000000e-02
   13811,  2.07950553e-03,  1.38948118e-03,  1.00000000e-02
   13812,  1.76847411e-03,  1.76847411e-03,  1.00000000e-02
   13813,  1.76847411e-03, -1.76847411e-03,  1.10000000e-02
   13814,  2.07950553e-03, -1.38948118e-03,  1.10000000e-02
   13815,  2.31062272e-03, -9.57091277e-04,  1.10000000e-02
   13816,  2.45294399e-03, -4.87920900e-04,  1.10000000e-02
   13817,  2.50100000e-03,  2.22133423e-19,  1.10000000e-02
   13818,  2.45294399e-03,  4.87920900e-04,  1.10000000e-02
   13819,  2.31062272e-03,  9.57091277e-04,  1.10000000e-02
   13820,  2.07950553e-03,  1.38948118e-03,  1.10000000e-02
   13821,  1.76847411e-03,  1.76847411e-03,  1.10000000e-02
   13822,  1.76847411e-03, -1.76847411e-03,  1.20000000e-02
   13823,  2.07950553e-03, -1.38948118e-03,  1.20000000e-02
   13824,  2.31062272e-03, -9.57091277e-04,  1.20000000e-02
   13825,  2.45294399e-03, -4.87920900e-04,  1.20000000e-02
   13826,  2.50100000e-03,  2.22133423e-19,  1.20000000e-02
   13827,  2.45294399e-03,  4.87920900e-04,  1.20000000e-02
   13828,  2.31062272e-03,  9.57091277e-04,  1.20000000e-02
   13829,  2.07950553e-03,  1.38948118e-03,  1.20000000e-02
   13830,  1.76847411e-03,  1.76847411e-03,  1.20000000e-02
   13831,  1.76847411e-03, -1.76847411e-03,  1.30000000e-02
   13832,  2.07950553e-03, -1.38948118e-03,  1.30000000e-02
   13833,  2.31062272e-03, -9.57091277e-04,  1.30000000e-02
   13834,  2.45294399e-03, -4.87920900e-04,  1.30000000e-02
   13835,  2.50100000e-03,  2.22133423e-19,  1.30000000e-02
   13836,  2.45294399e-03,  4.87920900e-04,  1.30000000e-02
   13837,  2.31062272e-03,  9.57091277e-04,  1.30000000e-02
   13838,  2.07950553e-03,  1.38948118e-03,  1.30000000e-02
   13839,  1.76847411e-03,  1.76847411e-03,  1.30000000e-02
   13840,  1.76847411e-03, -1.76847411e-03,  1.40000000e-02
   13841,  2.07950553e-03, -1.38948118e-03,  1.40000000e-02
   13842,  2.31062272e-03, -9.57091277e-04,  1.40000000e-02
   13843,  2.45294399e-03, -4.87920900e-04,  1.40000000e-02
   13844,  2.50100000e-03,  2.22133423e-19,  1.40000000e-02
   13845,  2.45294399e-03,  4.87920900e-04,  1.40000000e-02
   13846,  2.31062272e-03,  9.57091277e-04,  1.40000000e-02
   13847,  2.07950553e-03,  1.38948118e-03,  1.40000000e-02
   13848,  1.76847411e-03,  1.76847411e-03,  1.40000000e-02
   13849,  1.76847411e-03, -1.76847411e-03,  1.50000000e-02
   13850,  2.07950553e-03, -1.38948118e-03,  1.50000000e-02
   13851,  2.31062272e-03, -9.57091277e-04,  1.50000000e-02
   13852,  2.45294399e-03, -4.87920900e-04,  1.50000000e-02
   13853,  2.50100000e-03,  2.22133423e-19,  1.50000000e-02
   13854,  2.45294399e-03,  4.87920900e-04,  1.50000000e-02
   13855,  2.31062272e-03,  9.57091277e-04,  1.50000000e-02
   13856,  2.07950553e-03,  1.38948118e-03,  1.50000000e-02
   13857,  1.76847411e-03,  1.76847411e-03,  1.50000000e-02
   13858,  1.76847411e-03, -1.76847411e-03,  1.60000000e-02
   13859,  2.07950553e-03, -1.38948118e-03,  1.60000000e-02
   13860,  2.31062272e-03, -9.57091277e-04,  1.60000000e-02
   13861,  2.45294399e-03, -4.87920900e-04,  1.60000000e-02
   13862,  2.50100000e-03,  2.22133423e-19,  1.60000000e-02
   13863,  2.45294399e-03,  4.87920900e-04,  1.60000000e-02
   13864,  2.31062272e-03,  9.57091277e-04,  1.60000000e-02
   13865,  2.07950553e-03,  1.38948118e-03,  1.60000000e-02
   13866,  1.76847411e-03,  1.76847411e-03,  1.60000000e-02
   13867,  1.76847411e-03, -1.76847411e-03,  1.70000000e-02
   13868,  2.07950553e-03, -1.38948118e-03,  1.70000000e-02
   13869,  2.31062272e-03, -9.57091277e-04,  1.70000000e-02
   13870,  2.45294399e-03, -4.87920900e-04,  1.70000000e-02
   13871,  2.50100000e-03,  2.22133423e-19,  1.70000000e-02
   13872,  2.45294399e-03,  4.87920900e-04,  1.70000000e-02
   13873,  2.31062272e-03,  9.57091277e-04,  1.70000000e-02
   13874,  2.07950553e-03,  1.38948118e-03,  1.70000000e-02
   13875,  1.76847411e-03,  1.76847411e-03,  1.70000000e-02
   13876,  1.76847411e-03, -1.76847411e-03,  1.80000000e-02
   13877,  2.07950553e-03, -1.38948118e-03,  1.80000000e-02
   13878,  2.31062272e-03, -9.57091277e-04,  1.80000000e-02
   13879,  2.45294399e-03, -4.87920900e-04,  1.80000000e-02
   13880,  2.50100000e-03,  2.22133423e-19,  1.80000000e-02
   13881,  2.45294399e-03,  4.87920900e-04,  1.80000000e-02
   13882,  2.31062272e-03,  9.57091277e-04,  1.80000000e-02
   13883,  2.07950553e-03,  1.38948118e-03,  1.80000000e-02
   13884,  1.76847411e-03,  1.76847411e-03,  1.80000000e-02
   13885,  1.76847411e-03, -1.76847411e-03,  1.90000000e-02
   13886,  2.07950553e-03, -1.38948118e-03,  1.90000000e-02
   13887,  2.31062272e-03, -9.57091277e-04,  1.90000000e-02
   13888,  2.45294399e-03, -4.87920900e-04,  1.90000000e-02
   13889,  2.50100000e-03,  2.22133423e-19,  1.90000000e-02
   13890,  2.45294399e-03,  4.87920900e-04,  1.90000000e-02
   13891,  2.31062272e-03,  9.57091277e-04,  1.90000000e-02
   13892,  2.07950553e-03,  1.38948118e-03,  1.90000000e-02
   13893,  1.76847411e-03,  1.76847411e-03,  1.90000000e-02
   13894,  1.76847411e-03, -1.76847411e-03,  2.00000000e-02
   13895,  2.07950553e-03, -1.38948118e-03,  2.00000000e-02
   13896,  2.31062272e-03, -9.57091277e-04,  2.00000000e-02
   13897,  2.45294399e-03, -4.87920900e-04,  2.00000000e-02
   13898,  2.50100000e-03,  2.22133423e-19,  2.00000000e-02
   13899,  2.45294399e-03,  4.87920900e-04,  2.00000000e-02
   13900,  2.31062272e-03,  9.57091277e-04,  2.00000000e-02
   13901,  2.07950553e-03,  1.38948118e-03,  2.00000000e-02
   13902,  1.76847411e-03,  1.76847411e-03,  2.00000000e-02
   13903,  1.76847411e-03, -1.76847411e-03,  2.10000000e-02
   13904,  2.07950553e-03, -1.38948118e-03,  2.10000000e-02
   13905,  2.31062272e-03, -9.57091277e-04,  2.10000000e-02
   13906,  2.45294399e-03, -4.87920900e-04,  2.10000000e-02
   13907,  2.50100000e-03,  2.22133423e-19,  2.10000000e-02
   13908,  2.45294399e-03,  4.87920900e-04,  2.10000000e-02
   13909,  2.31062272e-03,  9.57091277e-04,  2.10000000e-02
   13910,  2.07950553e-03,  1.38948118e-03,  2.10000000e-02
   13911,  1.76847411e-03,  1.76847411e-03,  2.10000000e-02
   13912,  1.76847411e-03, -1.76847411e-03,  2.20000000e-02
   13913,  2.07950553e-03, -1.38948118e-03,  2.20000000e-02
   13914,  2.31062272e-03, -9.57091277e-04,  2.20000000e-02
   13915,  2.45294399e-03, -4.87920900e-04,  2.20000000e-02
   13916,  2.50100000e-03,  2.22133423e-19,  2.20000000e-02
   13917,  2.45294399e-03,  4.87920900e-04,  2.20000000e-02
   13918,  2.31062272e-03,  9.57091277e-04,  2.20000000e-02
   13919,  2.07950553e-03,  1.38948118e-03,  2.20000000e-02
   13920,  1.76847411e-03,  1.76847411e-03,  2.20000000e-02
   13921,  1.76847411e-03, -1.76847411e-03,  2.30000000e-02
   13922,  2.07950553e-03, -1.38948118e-03,  2.30000000e-02
   13923,  2.31062272e-03, -9.57091277e-04,  2.30000000e-02
   13924,  2.45294399e-03, -4.87920900e-04,  2.30000000e-02
   13925,  2.50100000e-03,  2.22133423e-19,  2.30000000e-02
   13926,  2.45294399e-03,  4.87920900e-04,  2.30000000e-02
   13927,  2.31062272e-03,  9.57091277e-04,  2.30000000e-02
   13928,  2.07950553e-03,  1.38948118e-03,  2.30000000e-02
   13929,  1.76847411e-03,  1.76847411e-03,  2.30000000e-02
   13930,  1.76847411e-03, -1.76847411e-03,  2.40000000e-02
   13931,  2.07950553e-03, -1.38948118e-03,  2.40000000e-02
   13932,  2.31062272e-03, -9.57091277e-04,  2.40000000e-02
   13933,  2.45294399e-03, -4.87920900e-04,  2.40000000e-02
   13934,  2.50100000e-03,  2.22133423e-19,  2.40000000e-02
   13935,  2.45294399e-03,  4.87920900e-04,  2.40000000e-02
   13936,  2.31062272e-03,  9.57091277e-04,  2.40000000e-02
   13937,  2.07950553e-03,  1.38948118e-03,  2.40000000e-02
   13938,  1.76847411e-03,  1.76847411e-03,  2.40000000e-02
   13939,  1.76847411e-03, -1.76847411e-03,  2.50000000e-02
   13940,  2.07950553e-03, -1.38948118e-03,  2.50000000e-02
   13941,  2.31062272e-03, -9.57091277e-04,  2.50000000e-02
   13942,  2.45294399e-03, -4.87920900e-04,  2.50000000e-02
   13943,  2.50100000e-03,  2.22133423e-19,  2.50000000e-02
   13944,  2.45294399e-03,  4.87920900e-04,  2.50000000e-02
   13945,  2.31062272e-03,  9.57091277e-04,  2.50000000e-02
   13946,  2.07950553e-03,  1.38948118e-03,  2.50000000e-02
   13947,  1.76847411e-03,  1.76847411e-03,  2.50000000e-02
   13948,  1.76847411e-03, -1.76847411e-03,  2.60000000e-02
   13949,  2.07950553e-03, -1.38948118e-03,  2.60000000e-02
   13950,  2.31062272e-03, -9.57091277e-04,  2.60000000e-02
   13951,  2.45294399e-03, -4.87920900e-04,  2.60000000e-02
   13952,  2.50100000e-03,  2.22133423e-19,  2.60000000e-02
   13953,  2.45294399e-03,  4.87920900e-04,  2.60000000e-02
   13954,  2.31062272e-03,  9.57091277e-04,  2.60000000e-02
   13955,  2.07950553e-03,  1.38948118e-03,  2.60000000e-02
   13956,  1.76847411e-03,  1.76847411e-03,  2.60000000e-02
   13957,  1.76847411e-03, -1.76847411e-03,  2.70000000e-02
   13958,  2.07950553e-03, -1.38948118e-03,  2.70000000e-02
   13959,  2.31062272e-03, -9.57091277e-04,  2.70000000e-02
   13960,  2.45294399e-03, -4.87920900e-04,  2.70000000e-02
   13961,  2.50100000e-03,  2.22133423e-19,  2.70000000e-02
   13962,  2.45294399e-03,  4.87920900e-04,  2.70000000e-02
   13963,  2.31062272e-03,  9.57091277e-04,  2.70000000e-02
   13964,  2.07950553e-03,  1.38948118e-03,  2.70000000e-02
   13965,  1.76847411e-03,  1.76847411e-03,  2.70000000e-02
   13966,  1.76847411e-03, -1.76847411e-03,  2.80000000e-02
   13967,  2.07950553e-03, -1.38948118e-03,  2.80000000e-02
   13968,  2.31062272e-03, -9.57091277e-04,  2.80000000e-02
   13969,  2.45294399e-03, -4.87920900e-04,  2.80000000e-02
   13970,  2.50100000e-03,  2.22133423e-19,  2.80000000e-02
   13971,  2.45294399e-03,  4.87920900e-04,  2.80000000e-02
   13972,  2.31062272e-03,  9.57091277e-04,  2.80000000e-02
   13973,  2.07950553e-03,  1.38948118e-03,  2.80000000e-02
   13974,  1.76847411e-03,  1.76847411e-03,  2.80000000e-02
   13975,  1.76847411e-03, -1.76847411e-03,  2.90000000e-02
   13976,  2.07950553e-03, -1.38948118e-03,  2.90000000e-02
   13977,  2.31062272e-03, -9.57091277e-04,  2.90000000e-02
   13978,  2.45294399e-03, -4.87920900e-04,  2.90000000e-02
   13979,  2.50100000e-03,  2.22133423e-19,  2.90000000e-02
   13980,  2.45294399e-03,  4.87920900e-04,  2.90000000e-02
   13981,  2.31062272e-03,  9.57091277e-04,  2.90000000e-02
   13982,  2.07950553e-03,  1.38948118e-03,  2.90000000e-02
   13983,  1.76847411e-03,  1.76847411e-03,  2.90000000e-02
   13984,  1.76847411e-03, -1.76847411e-03,  3.00000000e-02
   13985,  2.07950553e-03, -1.38948118e-03,  3.00000000e-02
   13986,  2.31062272e-03, -9.57091277e-04,  3.00000000e-02
   13987,  2.45294399e-03, -4.87920900e-04,  3.00000000e-02
   13988,  2.50100000e-03,  2.22133423e-19,  3.00000000e-02
   13989,  2.45294399e-03,  4.87920900e-04,  3.00000000e-02
   13990,  2.31062272e-03,  9.57091277e-04,  3.00000000e-02
   13991,  2.07950553e-03,  1.38948118e-03,  3.00000000e-02
   13992,  1.76847411e-03,  1.76847411e-03,  3.00000000e-02
   13993,  1.38948118e-03,  2.07950553e-03,  0.00000000e+00
   13994,  9.57091277e-04,  2.31062272e-03,  0.00000000e+00
   13995,  4.87920900e-04,  2.45294399e-03,  0.00000000e+00
   13996,  2.22133423e-19,  2.50100000e-03,  0.00000000e+00
   13997, -4.87920900e-04,  2.45294399e-03,  0.00000000e+00
   13998, -9.57091277e-04,  2.31062272e-03,  0.00000000e+00
   13999, -1.38948118e-03,  2.07950553e-03,  0.00000000e+00
   14000, -1.76847411e-03,  1.76847411e-03,  0.00000000e+00
   14001,  1.38948118e-03,  2.07950553e-03,  1.00000000e-03
   14002,  9.57091277e-04,  2.31062272e-03,  1.00000000e-03
   14003,  4.87920900e-04,  2.45294399e-03,  1.00000000e-03
   14004,  2.22133423e-19,  2.50100000e-03,  1.00000000e-03
   14005, -4.87920900e-04,  2.45294399e-03,  1.00000000e-03
   14006, -9.57091277e-04,  2.31062272e-03,  1.00000000e-03
   14007, -1.38948118e-03,  2.07950553e-03,  1.00000000e-03
   14008, -1.76847411e-03,  1.76847411e-03,  1.00000000e-03
   14009,  1.38948118e-03,  2.07950553e-03,  2.00000000e-03
   14010,  9.57091277e-04,  2.31062272e-03,  2.00000000e-03
   14011,  4.87920900e-04,  2.45294399e-03,  2.00000000e-03
   14012,  2.22133423e-19,  2.50100000e-03,  2.00000000e-03
   14013, -4.87920900e-04,  2.45294399e-03,  2.00000000e-03
   14014, -9.57091277e-04,  2.31062272e-03,  2.00000000e-03
   14015, -1.38948118e-03,  2.07950553e-03,  2.00000000e-03
   14016, -1.76847411e-03,  1.76847411e-03,  2.00000000e-03
   14017,  1.38948118e-03,  2.07950553e-03,  3.00000000e-03
   14018,  9.57091277e-04,  2.31062272e-03,  3.00000000e-03
   14019,  4.87920900e-04,  2.45294399e-03,  3.00000000e-03
   14020,  2.22133423e-19,  2.50100000e-03,  3.00000000e-03
   14021, -4.87920900e-04,  2.45294399e-03,  3.00000000e-03
   14022, -9.57091277e-04,  2.31062272e-03,  3.00000000e-03
   14023, -1.38948118e-03,  2.07950553e-03,  3.00000000e-03
   14024, -1.76847411e-03,  1.76847411e-03,  3.00000000e-03
   14025,  1.38948118e-03,  2.07950553e-03,  4.00000000e-03
   14026,  9.57091277e-04,  2.31062272e-03,  4.00000000e-03
   14027,  4.87920900e-04,  2.45294399e-03,  4.00000000e-03
   14028,  2.22133423e-19,  2.50100000e-03,  4.00000000e-03
   14029, -4.87920900e-04,  2.45294399e-03,  4.00000000e-03
   14030, -9.57091277e-04,  2.31062272e-03,  4.00000000e-03
   14031, -1.38948118e-03,  2.07950553e-03,  4.00000000e-03
   14032, -1.76847411e-03,  1.76847411e-03,  4.00000000e-03
   14033,  1.38948118e-03,  2.07950553e-03,  5.00000000e-03
   14034,  9.57091277e-04,  2.31062272e-03,  5.00000000e-03
   14035,  4.87920900e-04,  2.45294399e-03,  5.00000000e-03
   14036,  2.22133423e-19,  2.50100000e-03,  5.00000000e-03
   14037, -4.87920900e-04,  2.45294399e-03,  5.00000000e-03
   14038, -9.57091277e-04,  2.31062272e-03,  5.00000000e-03
   14039, -1.38948118e-03,  2.07950553e-03,  5.00000000e-03
   14040, -1.76847411e-03,  1.76847411e-03,  5.00000000e-03
   14041,  1.38948118e-03,  2.07950553e-03,  6.00000000e-03
   14042,  9.57091277e-04,  2.31062272e-03,  6.00000000e-03
   14043,  4.87920900e-04,  2.45294399e-03,  6.00000000e-03
   14044,  2.22133423e-19,  2.50100000e-03,  6.00000000e-03
   14045, -4.87920900e-04,  2.45294399e-03,  6.00000000e-03
   14046, -9.57091277e-04,  2.31062272e-03,  6.00000000e-03
   14047, -1.38948118e-03,  2.07950553e-03,  6.00000000e-03
   14048, -1.76847411e-03,  1.76847411e-03,  6.00000000e-03
   14049,  1.38948118e-03,  2.07950553e-03,  7.00000000e-03
   14050,  9.57091277e-04,  2.31062272e-03,  7.00000000e-03
   14051,  4.87920900e-04,  2.45294399e-03,  7.00000000e-03
   14052,  2.22133423e-19,  2.50100000e-03,  7.00000000e-03
   14053, -4.87920900e-04,  2.45294399e-03,  7.00000000e-03
   14054, -9.57091277e-04,  2.31062272e-03,  7.00000000e-03
   14055, -1.38948118e-03,  2.07950553e-03,  7.00000000e-03
   14056, -1.76847411e-03,  1.76847411e-03,  7.00000000e-03
   14057,  1.38948118e-03,  2.07950553e-03,  8.00000000e-03
   14058,  9.57091277e-04,  2.31062272e-03,  8.00000000e-03
   14059,  4.87920900e-04,  2.45294399e-03,  8.00000000e-03
   14060,  2.22133423e-19,  2.50100000e-03,  8.00000000e-03
   14061, -4.87920900e-04,  2.45294399e-03,  8.00000000e-03
   14062, -9.57091277e-04,  2.31062272e-03,  8.00000000e-03
   14063, -1.38948118e-03,  2.07950553e-03,  8.00000000e-03
   14064, -1.76847411e-03,  1.76847411e-03,  8.00000000e-03
   14065,  1.38948118e-03,  2.07950553e-03,  9.00000000e-03
   14066,  9.57091277e-04,  2.31062272e-03,  9.00000000e-03
   14067,  4.87920900e-04,  2.45294399e-03,  9.00000000e-03
   14068,  2.22133423e-19,  2.50100000e-03,  9.00000000e-03
   14069, -4.87920900e-04,  2.45294399e-03,  9.00000000e-03
   14070, -9.57091277e-04,  2.31062272e-03,  9.00000000e-03
   14071, -1.38948118e-03,  2.07950553e-03,  9.00000000e-03
   14072, -1.76847411e-03,  1.76847411e-03,  9.00000000e-03
   14073,  1.38948118e-03,  2.07950553e-03,  1.00000000e-02
   14074,  9.57091277e-04,  2.31062272e-03,  1.00000000e-02
   14075,  4.87920900e-04,  2.45294399e-03,  1.00000000e-02
   14076,  2.22133423e-19,  2.50100000e-03,  1.00000000e-02
   14077, -4.87920900e-04,  2.45294399e-03,  1.00000000e-02
   14078, -9.57091277e-04,  2.31062272e-03,  1.00000000e-02
   14079, -1.38948118e-03,  2.07950553e-03,  1.00000000e-02
   14080, -1.76847411e-03,  1.76847411e-03,  1.00000000e-02
   14081,  1.38948118e-03,  2.07950553e-03,  1.10000000e-02
   14082,  9.57091277e-04,  2.31062272e-03,  1.10000000e-02
   14083,  4.87920900e-04,  2.45294399e-03,  1.10000000e-02
   14084,  2.22133423e-19,  2.50100000e-03,  1.10000000e-02
   14085, -4.87920900e-04,  2.45294399e-03,  1.10000000e-02
   14086, -9.57091277e-04,  2.31062272e-03,  1.10000000e-02
   14087, -1.38948118e-03,  2.07950553e-03,  1.10000000e-02
   14088, -1.76847411e-03,  1.76847411e-03,  1.10000000e-02
   14089,  1.38948118e-03,  2.07950553e-03,  1.20000000e-02
   14090,  9.57091277e-04,  2.31062272e-03,  1.20000000e-02
   14091,  4.87920900e-04,  2.45294399e-03,  1.20000000e-02
   14092,  2.22133423e-19,  2.50100000e-03,  1.20000000e-02
   14093, -4.87920900e-04,  2.45294399e-03,  1.20000000e-02
   14094, -9.57091277e-04,  2.31062272e-03,  1.20000000e-02
   14095, -1.38948118e-03,  2.07950553e-03,  1.20000000e-02
   14096, -1.76847411e-03,  1.76847411e-03,  1.20000000e-02
   14097,  1.38948118e-03,  2.07950553e-03,  1.30000000e-02
   14098,  9.57091277e-04,  2.31062272e-03,  1.30000000e-02
   14099,  4.87920900e-04,  2.45294399e-03,  1.30000000e-02
   14100,  2.22133423e-19,  2.50100000e-03,  1.30000000e-02
   14101, -4.87920900e-04,  2.45294399e-03,  1.30000000e-02
   14102, -9.57091277e-04,  2.31062272e-03,  1.30000000e-02
   14103, -1.38948118e-03,  2.07950553e-03,  1.30000000e-02
   14104, -1.76847411e-03,  1.76847411e-03,  1.30000000e-02
   14105,  1.38948118e-03,  2.07950553e-03,  1.40000000e-02
   14106,  9.57091277e-04,  2.31062272e-03,  1.40000000e-02
   14107,  4.87920900e-04,  2.45294399e-03,  1.40000000e-02
   14108,  2.22133423e-19,  2.50100000e-03,  1.40000000e-02
   14109, -4.87920900e-04,  2.45294399e-03,  1.40000000e-02
   14110, -9.57091277e-04,  2.31062272e-03,  1.40000000e-02
   14111, -1.38948118e-03,  2.07950553e-03,  1.40000000e-02
   14112, -1.76847411e-03,  1.76847411e-03,  1.40000000e-02
   14113,  1.38948118e-03,  2.07950553e-03,  1.50000000e-02
   14114,  9.57091277e-04,  2.31062272e-03,  1.50000000e-02
   14115,  4.87920900e-04,  2.45294399e-03,  1.50000000e-02
   14116,  2.22133423e-19,  2.50100000e-03,  1.50000000e-02
   14117, -4.87920900e-04,  2.45294399e-03,  1.50000000e-02
   14118, -9.57091277e-04,  2.31062272e-03,  1.50000000e-02
   14119, -1.38948118e-03,  2.07950553e-03,  1.50000000e-02
   14120, -1.76847411e-03,  1.76847411e-03,  1.50000000e-02
   14121,  1.38948118e-03,  2.07950553e-03,  1.60000000e-02
   14122,  9.57091277e-04,  2.31062272e-03,  1.60000000e-02
   14123,  4.87920900e-04,  2.45294399e-03,  1.60000000e-02
   14124,  2.22133423e-19,  2.50100000e-03,  1.60000000e-02
   14125, -4.87920900e-04,  2.45294399e-03,  1.60000000e-02
   14126, -9.57091277e-04,  2.31062272e-03,  1.60000000e-02
   14127, -1.38948118e-03,  2.07950553e-03,  1.60000000e-02
   14128, -1.76847411e-03,  1.76847411e-03,  1.60000000e-02
   14129,  1.38948118e-03,  2.07950553e-03,  1.70000000e-02
   14130,  9.57091277e-04,  2.31062272e-03,  1.70000000e-02
   14131,  4.87920900e-04,  2.45294399e-03,  1.70000000e-02
   14132,  2.22133423e-19,  2.50100000e-03,  1.70000000e-02
   14133, -4.87920900e-04,  2.45294399e-03,  1.70000000e-02
   14134, -9.57091277e-04,  2.31062272e-03,  1.70000000e-02
   14135, -1.38948118e-03,  2.07950553e-03,  1.70000000e-02
   14136, -1.76847411e-03,  1.76847411e-03,  1.70000000e-02
   14137,  1.38948118e-03,  2.07950553e-03,  1.80000000e-02
   14138,  9.57091277e-04,  2.31062272e-03,  1.80000000e-02
   14139,  4.87920900e-04,  2.45294399e-03,  1.80000000e-02
   14140,  2.22133423e-19,  2.50100000e-03,  1.80000000e-02
   14141, -4.87920900e-04,  2.45294399e-03,  1.80000000e-02
   14142, -9.57091277e-04,  2.31062272e-03,  1.80000000e-02
   14143, -1.38948118e-03,  2.07950553e-03,  1.80000000e-02
   14144, -1.76847411e-03,  1.76847411e-03,  1.80000000e-02
   14145,  1.38948118e-03,  2.07950553e-03,  1.90000000e-02
   14146,  9.57091277e-04,  2.31062272e-03,  1.90000000e-02
   14147,  4.87920900e-04,  2.45294399e-03,  1.90000000e-02
   14148,  2.22133423e-19,  2.50100000e-03,  1.90000000e-02
   14149, -4.87920900e-04,  2.45294399e-03,  1.90000000e-02
   14150, -9.57091277e-04,  2.31062272e-03,  1.90000000e-02
   14151, -1.38948118e-03,  2.07950553e-03,  1.90000000e-02
   14152, -1.76847411e-03,  1.76847411e-03,  1.90000000e-02
   14153,  1.38948118e-03,  2.07950553e-03,  2.00000000e-02
   14154,  9.57091277e-04,  2.31062272e-03,  2.00000000e-02
   14155,  4.87920900e-04,  2.45294399e-03,  2.00000000e-02
   14156,  2.22133423e-19,  2.50100000e-03,  2.00000000e-02
   14157, -4.87920900e-04,  2.45294399e-03,  2.00000000e-02
   14158, -9.57091277e-04,  2.31062272e-03,  2.00000000e-02
   14159, -1.38948118e-03,  2.07950553e-03,  2.00000000e-02
   14160, -1.76847411e-03,  1.76847411e-03,  2.00000000e-02
   14161,  1.38948118e-03,  2.07950553e-03,  2.10000000e-02
   14162,  9.57091277e-04,  2.31062272e-03,  2.10000000e-02
   14163,  4.87920900e-04,  2.45294399e-03,  2.10000000e-02
   14164,  2.22133423e-19,  2.50100000e-03,  2.10000000e-02
   14165, -4.87920900e-04,  2.45294399e-03,  2.10000000e-02
   14166, -9.57091277e-04,  2.31062272e-03,  2.10000000e-02
   14167, -1.38948118e-03,  2.07950553e-03,  2.10000000e-02
   14168, -1.76847411e-03,  1.76847411e-03,  2.10000000e-02
   14169,  1.38948118e-03,  2.07950553e-03,  2.20000000e-02
   14170,  9.57091277e-04,  2.31062272e-03,  2.20000000e-02
   14171,  4.87920900e-04,  2.45294399e-03,  2.20000000e-02
   14172,  2.22133423e-19,  2.50100000e-03,  2.20000000e-02
   14173, -4.87920900e-04,  2.45294399e-03,  2.20000000e-02
   14174, -9.57091277e-04,  2.31062272e-03,  2.20000000e-02
   14175, -1.38948118e-03,  2.07950553e-03,  2.20000000e-02
   14176, -1.76847411e-03,  1.76847411e-03,  2.20000000e-02
   14177,  1.38948118e-03,  2.07950553e-03,  2.30000000e-02
   14178,  9.57091277e-04,  2.31062272e-03,  2.30000000e-02
   14179,  4.87920900e-04,  2.45294399e-03,  2.30000000e-02
   14180,  2.22133423e-19,  2.50100000e-03,  2.30000000e-02
   14181, -4.87920900e-04,  2.45294399e-03,  2.30000000e-02
   14182, -9.57091277e-04,  2.31062272e-03,  2.30000000e-02
   14183, -1.38948118e-03,  2.07950553e-03,  2.30000000e-02
   14184, -1.76847411e-03,  1.76847411e-03,  2.30000000e-02
   14185,  1.38948118e-03,  2.07950553e-03,  2.40000000e-02
   14186,  9.57091277e-04,  2.31062272e-03,  2.40000000e-02
   14187,  4.87920900e-04,  2.45294399e-03,  2.40000000e-02
   14188,  2.22133423e-19,  2.50100000e-03,  2.40000000e-02
   14189, -4.87920900e-04,  2.45294399e-03,  2.40000000e-02
   14190, -9.57091277e-04,  2.31062272e-03,  2.40000000e-02
   14191, -1.38948118e-03,  2.07950553e-03,  2.40000000e-02
   14192, -1.76847411e-03,  1.76847411e-03,  2.40000000e-02
   14193,  1.38948118e-03,  2.07950553e-03,  2.50000000e-02
   14194,  9.57091277e-04,  2.31062272e-03,  2.50000000e-02
   14195,  4.87920900e-04,  2.45294399e-03,  2.50000000e-02
   14196,  2.22133423e-19,  2.50100000e-03,  2.50000000e-02
   14197, -4.87920900e-04,  2.45294399e-03,  2.50000000e-02
   14198, -9.57091277e-04,  2.31062272e-03,  2.50000000e-02
   14199, -1.38948118e-03,  2.07950553e-03,  2.50000000e-02
   14200, -1.76847411e-03,  1.76847411e-03,  2.50000000e-02
   14201,  1.38948118e-03,  2.07950553e-03,  2.60000000e-02
   14202,  9.57091277e-04,  2.31062272e-03,  2.60000000e-02
   14203,  4.87920900e-04,  2.45294399e-03,  2.60000000e-02
   14204,  2.22133423e-19,  2.50100000e-03,  2.60000000e-02
   14205, -4.87920900e-04,  2.45294399e-03,  2.60000000e-02
   14206, -9.57091277e-04,  2.31062272e-03,  2.60000000e-02
   14207, -1.38948118e-03,  2.07950553e-03,  2.60000000e-02
   14208, -1.76847411e-03,  1.76847411e-03,  2.60000000e-02
   14209,  1.38948118e-03,  2.07950553e-03,  2.70000000e-02
   14210,  9.57091277e-04,  2.31062272e-03,  2.70000000e-02
   14211,  4.87920900e-04,  2.45294399e-03,  2.70000000e-02
   14212,  2.22133423e-19,  2.50100000e-03,  2.70000000e-02
   14213, -4.87920900e-04,  2.45294399e-03,  2.70000000e-02
   14214, -9.57091277e-04,  2.31062272e-03,  2.70000000e-02
   14215, -1.38948118e-03,  2.07950553e-03,  2.70000000e-02
   14216, -1.76847411e-03,  1.76847411e-03,  2.70000000e-02
   14217,  1.38948118e-03,  2.07950553e-03,  2.80000000e-02
   14218,  9.57091277e-04,  2.31062272e-03,  2.80000000e-02
   14219,  4.87920900e-04,  2.45294399e-03,  2.80000000e-02
   14220,  2.22133423e-19,  2.50100000e-03,  2.80000000e-02
   14221, -4.87920900e-04,  2.45294399e-03,  2.80000000e-02
   14222, -9.57091277e-04,  2.31062272e-03,  2.80000000e-02
   14223, -1.38948118e-03,  2.07950553e-03,  2.80000000e-02
   14224, -1.76847411e-03,  1.76847411e-03,  2.80000000e-02
   14225,  1.38948118e-03,  2.07950553e-03,  2.90000000e-02
   14226,  9.57091277e-04,  2.31062272e-03,  2.90000000e-02
   14227,  4.87920900e-04,  2.45294399e-03,  2.90000000e-02
   14228,  2.22133423e-19,  2.50100000e-03,  2.90000000e-02
   14229, -4.87920900e-04,  2.45294399e-03,  2.90000000e-02
   14230, -9.57091277e-04,  2.31062272e-03,  2.90000000e-02
   14231, -1.38948118e-03,  2.07950553e-03,  2.90000000e-02
   14232, -1.76847411e-03,  1.76847411e-03,  2.90000000e-02
   14233,  1.38948118e-03,  2.07950553e-03,  3.00000000e-02
   14234,  9.57091277e-04,  2.31062272e-03,  3.00000000e-02
   14235,  4.87920900e-04,  2.45294399e-03,  3.00000000e-02
   14236,  2.22133423e-19,  2.50100000e-03,  3.00000000e-02
   14237, -4.87920900e-04,  2.45294399e-03,  3.00000000e-02
   14238, -9.57091277e-04,  2.31062272e-03,  3.00000000e-02
   14239, -1.38948118e-03,  2.07950553e-03,  3.00000000e-02
   14240, -1.76847411e-03,  1.76847411e-03,  3.00000000e-02
   14241, -2.07950553e-03,  1.38948118e-03,  0.00000000e+00
   14242, -2.31062272e-03,  9.57091277e-04,  0.00000000e+00
   14243, -2.45294399e-03,  4.87920900e-04,  0.00000000e+00
   14244, -2.50100000e-03,  2.22133423e-19,  0.00000000e+00
   14245, -2.45294399e-03, -4.87920900e-04,  0.00000000e+00
   14246, -2.31062272e-03, -9.57091277e-04,  0.00000000e+00
   14247, -2.07950553e-03, -1.38948118e-03,  0.00000000e+00
   14248, -1.76847411e-03, -1.76847411e-03,  0.00000000e+00
   14249, -2.07950553e-03,  1.38948118e-03,  1.00000000e-03
   14250, -2.31062272e-03,  9.57091277e-04,  1.00000000e-03
   14251, -2.45294399e-03,  4.87920900e-04,  1.00000000e-03
   14252, -2.50100000e-03,  2.22133423e-19,  1.00000000e-03
   14253, -2.45294399e-03, -4.87920900e-04,  1.00000000e-03
   14254, -2.31062272e-03, -9.57091277e-04,  1.00000000e-03
   14255, -2.07950553e-03, -1.38948118e-03,  1.00000000e-03
   14256, -1.76847411e-03, -1.76847411e-03,  1.00000000e-03
   14257, -2.07950553e-03,  1.38948118e-03,  2.00000000e-03
   14258, -2.31062272e-03,  9.57091277e-04,  2.00000000e-03
   14259, -2.45294399e-03,  4.87920900e-04,  2.00000000e-03
   14260, -2.50100000e-03,  2.22133423e-19,  2.00000000e-03
   14261, -2.45294399e-03, -4.87920900e-04,  2.00000000e-03
   14262, -2.31062272e-03, -9.57091277e-04,  2.00000000e-03
   14263, -2.07950553e-03, -1.38948118e-03,  2.00000000e-03
   14264, -1.76847411e-03, -1.76847411e-03,  2.00000000e-03
   14265, -2.07950553e-03,  1.38948118e-03,  3.00000000e-03
   14266, -2.31062272e-03,  9.57091277e-04,  3.00000000e-03
   14267, -2.45294399e-03,  4.87920900e-04,  3.00000000e-03
   14268, -2.50100000e-03,  2.22133423e-19,  3.00000000e-03
   14269, -2.45294399e-03, -4.87920900e-04,  3.00000000e-03
   14270, -2.31062272e-03, -9.57091277e-04,  3.00000000e-03
   14271, -2.07950553e-03, -1.38948118e-03,  3.00000000e-03
   14272, -1.76847411e-03, -1.76847411e-03,  3.00000000e-03
   14273, -2.07950553e-03,  1.38948118e-03,  4.00000000e-03
   14274, -2.31062272e-03,  9.57091277e-04,  4.00000000e-03
   14275, -2.45294399e-03,  4.87920900e-04,  4.00000000e-03
   14276, -2.50100000e-03,  2.22133423e-19,  4.00000000e-03
   14277, -2.45294399e-03, -4.87920900e-04,  4.00000000e-03
   14278, -2.31062272e-03, -9.57091277e-04,  4.00000000e-03
   14279, -2.07950553e-03, -1.38948118e-03,  4.00000000e-03
   14280, -1.76847411e-03, -1.76847411e-03,  4.00000000e-03
   14281, -2.07950553e-03,  1.38948118e-03,  5.00000000e-03
   14282, -2.31062272e-03,  9.57091277e-04,  5.00000000e-03
   14283, -2.45294399e-03,  4.87920900e-04,  5.00000000e-03
   14284, -2.50100000e-03,  2.22133423e-19,  5.00000000e-03
   14285, -2.45294399e-03, -4.87920900e-04,  5.00000000e-03
   14286, -2.31062272e-03, -9.57091277e-04,  5.00000000e-03
   14287, -2.07950553e-03, -1.38948118e-03,  5.00000000e-03
   14288, -1.76847411e-03, -1.76847411e-03,  5.00000000e-03
   14289, -2.07950553e-03,  1.38948118e-03,  6.00000000e-03
   14290, -2.31062272e-03,  9.57091277e-04,  6.00000000e-03
   14291, -2.45294399e-03,  4.87920900e-04,  6.00000000e-03
   14292, -2.50100000e-03,  2.22133423e-19,  6.00000000e-03
   14293, -2.45294399e-03, -4.87920900e-04,  6.00000000e-03
   14294, -2.31062272e-03, -9.57091277e-04,  6.00000000e-03
   14295, -2.07950553e-03, -1.38948118e-03,  6.00000000e-03
   14296, -1.76847411e-03, -1.76847411e-03,  6.00000000e-03
   14297, -2.07950553e-03,  1.38948118e-03,  7.00000000e-03
   14298, -2.31062272e-03,  9.57091277e-04,  7.00000000e-03
   14299, -2.45294399e-03,  4.87920900e-04,  7.00000000e-03
   14300, -2.50100000e-03,  2.22133423e-19,  7.00000000e-03
   14301, -2.45294399e-03, -4.87920900e-04,  7.00000000e-03
   14302, -2.31062272e-03, -9.57091277e-04,  7.00000000e-03
   14303, -2.07950553e-03, -1.38948118e-03,  7.00000000e-03
   14304, -1.76847411e-03, -1.76847411e-03,  7.00000000e-03
   14305, -2.07950553e-03,  1.38948118e-03,  8.00000000e-03
   14306, -2.31062272e-03,  9.57091277e-04,  8.00000000e-03
   14307, -2.45294399e-03,  4.87920900e-04,  8.00000000e-03
   14308, -2.50100000e-03,  2.22133423e-19,  8.00000000e-03
   14309, -2.45294399e-03, -4.87920900e-04,  8.00000000e-03
   14310, -2.31062272e-03, -9.57091277e-04,  8.00000000e-03
   14311, -2.07950553e-03, -1.38948118e-03,  8.00000000e-03
   14312, -1.76847411e-03, -1.76847411e-03,  8.00000000e-03
   14313, -2.07950553e-03,  1.38948118e-03,  9.00000000e-03
   14314, -2.31062272e-03,  9.57091277e-04,  9.00000000e-03
   14315, -2.45294399e-03,  4.87920900e-04,  9.00000000e-03
   14316, -2.50100000e-03,  2.22133423e-19,  9.00000000e-03
   14317, -2.45294399e-03, -4.87920900e-04,  9.00000000e-03
   14318, -2.31062272e-03, -9.57091277e-04,  9.00000000e-03
   14319, -2.07950553e-03, -1.38948118e-03,  9.00000000e-03
   14320, -1.76847411e-03, -1.76847411e-03,  9.00000000e-03
   14321, -2.07950553e-03,  1.38948118e-03,  1.00000000e-02
   14322, -2.31062272e-03,  9.57091277e-04,  1.00000000e-02
   14323, -2.45294399e-03,  4.87920900e-04,  1.00000000e-02
   14324, -2.50100000e-03,  2.22133423e-19,  1.00000000e-02
   14325, -2.45294399e-03, -4.87920900e-04,  1.00000000e-02
   14326, -2.31062272e-03, -9.57091277e-04,  1.00000000e-02
   14327, -2.07950553e-03, -1.38948118e-03,  1.00000000e-02
   14328, -1.76847411e-03, -1.76847411e-03,  1.00000000e-02
   14329, -2.07950553e-03,  1.38948118e-03,  1.10000000e-02
   14330, -2.31062272e-03,  9.57091277e-04,  1.10000000e-02
   14331, -2.45294399e-03,  4.87920900e-04,  1.10000000e-02
   14332, -2.50100000e-03,  2.22133423e-19,  1.10000000e-02
   14333, -2.45294399e-03, -4.87920900e-04,  1.10000000e-02
   14334, -2.31062272e-03, -9.57091277e-04,  1.10000000e-02
   14335, -2.07950553e-03, -1.38948118e-03,  1.10000000e-02
   14336, -1.76847411e-03, -1.76847411e-03,  1.10000000e-02
   14337, -2.07950553e-03,  1.38948118e-03,  1.20000000e-02
   14338, -2.31062272e-03,  9.57091277e-04,  1.20000000e-02
   14339, -2.45294399e-03,  4.87920900e-04,  1.20000000e-02
   14340, -2.50100000e-03,  2.22133423e-19,  1.20000000e-02
   14341, -2.45294399e-03, -4.87920900e-04,  1.20000000e-02
   14342, -2.31062272e-03, -9.57091277e-04,  1.20000000e-02
   14343, -2.07950553e-03, -1.38948118e-03,  1.20000000e-02
   14344, -1.76847411e-03, -1.76847411e-03,  1.20000000e-02
   14345, -2.07950553e-03,  1.38948118e-03,  1.30000000e-02
   14346, -2.31062272e-03,  9.57091277e-04,  1.30000000e-02
   14347, -2.45294399e-03,  4.87920900e-04,  1.30000000e-02
   14348, -2.50100000e-03,  2.22133423e-19,  1.30000000e-02
   14349, -2.45294399e-03, -4.87920900e-04,  1.30000000e-02
   14350, -2.31062272e-03, -9.57091277e-04,  1.30000000e-02
   14351, -2.07950553e-03, -1.38948118e-03,  1.30000000e-02
   14352, -1.76847411e-03, -1.76847411e-03,  1.30000000e-02
   14353, -2.07950553e-03,  1.38948118e-03,  1.40000000e-02
   14354, -2.31062272e-03,  9.57091277e-04,  1.40000000e-02
   14355, -2.45294399e-03,  4.87920900e-04,  1.40000000e-02
   14356, -2.50100000e-03,  2.22133423e-19,  1.40000000e-02
   14357, -2.45294399e-03, -4.87920900e-04,  1.40000000e-02
   14358, -2.31062272e-03, -9.57091277e-04,  1.40000000e-02
   14359, -2.07950553e-03, -1.38948118e-03,  1.40000000e-02
   14360, -1.76847411e-03, -1.76847411e-03,  1.40000000e-02
   14361, -2.07950553e-03,  1.38948118e-03,  1.50000000e-02
   14362, -2.31062272e-03,  9.57091277e-04,  1.50000000e-02
   14363, -2.45294399e-03,  4.87920900e-04,  1.50000000e-02
   14364, -2.50100000e-03,  2.22133423e-19,  1.50000000e-02
   14365, -2.45294399e-03, -4.87920900e-04,  1.50000000e-02
   14366, -2.31062272e-03, -9.57091277e-04,  1.50000000e-02
   14367, -2.07950553e-03, -1.38948118e-03,  1.50000000e-02
   14368, -1.76847411e-03, -1.76847411e-03,  1.50000000e-02
   14369, -2.07950553e-03,  1.38948118e-03,  1.60000000e-02
   14370, -2.31062272e-03,  9.57091277e-04,  1.60000000e-02
   14371, -2.45294399e-03,  4.87920900e-04,  1.60000000e-02
   14372, -2.50100000e-03,  2.22133423e-19,  1.60000000e-02
   14373, -2.45294399e-03, -4.87920900e-04,  1.60000000e-02
   14374, -2.31062272e-03, -9.57091277e-04,  1.60000000e-02
   14375, -2.07950553e-03, -1.38948118e-03,  1.60000000e-02
   14376, -1.76847411e-03, -1.76847411e-03,  1.60000000e-02
   14377, -2.07950553e-03,  1.38948118e-03,  1.70000000e-02
   14378, -2.31062272e-03,  9.57091277e-04,  1.70000000e-02
   14379, -2.45294399e-03,  4.87920900e-04,  1.70000000e-02
   14380, -2.50100000e-03,  2.22133423e-19,  1.70000000e-02
   14381, -2.45294399e-03, -4.87920900e-04,  1.70000000e-02
   14382, -2.31062272e-03, -9.57091277e-04,  1.70000000e-02
   14383, -2.07950553e-03, -1.38948118e-03,  1.70000000e-02
   14384, -1.76847411e-03, -1.76847411e-03,  1.70000000e-02
   14385, -2.07950553e-03,  1.38948118e-03,  1.80000000e-02
   14386, -2.31062272e-03,  9.57091277e-04,  1.80000000e-02
   14387, -2.45294399e-03,  4.87920900e-04,  1.80000000e-02
   14388, -2.50100000e-03,  2.22133423e-19,  1.80000000e-02
   14389, -2.45294399e-03, -4.87920900e-04,  1.80000000e-02
   14390, -2.31062272e-03, -9.57091277e-04,  1.80000000e-02
   14391, -2.07950553e-03, -1.38948118e-03,  1.80000000e-02
   14392, -1.76847411e-03, -1.76847411e-03,  1.80000000e-02
   14393, -2.07950553e-03,  1.38948118e-03,  1.90000000e-02
   14394, -2.31062272e-03,  9.57091277e-04,  1.90000000e-02
   14395, -2.45294399e-03,  4.87920900e-04,  1.90000000e-02
   14396, -2.50100000e-03,  2.22133423e-19,  1.90000000e-02
   14397, -2.45294399e-03, -4.87920900e-04,  1.90000000e-02
   14398, -2.31062272e-03, -9.57091277e-04,  1.90000000e-02
   14399, -2.07950553e-03, -1.38948118e-03,  1.90000000e-02
   14400, -1.76847411e-03, -1.76847411e-03,  1.90000000e-02
   14401, -2.07950553e-03,  1.38948118e-03,  2.00000000e-02
   14402, -2.31062272e-03,  9.57091277e-04,  2.00000000e-02
   14403, -2.45294399e-03,  4.87920900e-04,  2.00000000e-02
   14404, -2.50100000e-03,  2.22133423e-19,  2.00000000e-02
   14405, -2.45294399e-03, -4.87920900e-04,  2.00000000e-02
   14406, -2.31062272e-03, -9.57091277e-04,  2.00000000e-02
   14407, -2.07950553e-03, -1.38948118e-03,  2.00000000e-02
   14408, -1.76847411e-03, -1.76847411e-03,  2.00000000e-02
   14409, -2.07950553e-03,  1.38948118e-03,  2.10000000e-02
   14410, -2.31062272e-03,  9.57091277e-04,  2.10000000e-02
   14411, -2.45294399e-03,  4.87920900e-04,  2.10000000e-02
   14412, -2.50100000e-03,  2.22133423e-19,  2.10000000e-02
   14413, -2.45294399e-03, -4.87920900e-04,  2.10000000e-02
   14414, -2.31062272e-03, -9.57091277e-04,  2.10000000e-02
   14415, -2.07950553e-03, -1.38948118e-03,  2.10000000e-02
   14416, -1.76847411e-03, -1.76847411e-03,  2.10000000e-02
   14417, -2.07950553e-03,  1.38948118e-03,  2.20000000e-02
   14418, -2.31062272e-03,  9.57091277e-04,  2.20000000e-02
   14419, -2.45294399e-03,  4.87920900e-04,  2.20000000e-02
   14420, -2.50100000e-03,  2.22133423e-19,  2.20000000e-02
   14421, -2.45294399e-03, -4.87920900e-04,  2.20000000e-02
   14422, -2.31062272e-03, -9.57091277e-04,  2.20000000e-02
   14423, -2.07950553e-03, -1.38948118e-03,  2.20000000e-02
   14424, -1.76847411e-03, -1.76847411e-03,  2.20000000e-02
   14425, -2.07950553e-03,  1.38948118e-03,  2.30000000e-02
   14426, -2.31062272e-03,  9.57091277e-04,  2.30000000e-02
   14427, -2.45294399e-03,  4.87920900e-04,  2.30000000e-02
   14428, -2.50100000e-03,  2.22133423e-19,  2.30000000e-02
   14429, -2.45294399e-03, -4.87920900e-04,  2.30000000e-02
   14430, -2.31062272e-03, -9.57091277e-04,  2.30000000e-02
   14431, -2.07950553e-03, -1.38948118e-03,  2.30000000e-02
   14432, -1.76847411e-03, -1.76847411e-03,  2.30000000e-02
   14433, -2.07950553e-03,  1.38948118e-03,  2.40000000e-02
   14434, -2.31062272e-03,  9.57091277e-04,  2.40000000e-02
   14435, -2.45294399e-03,  4.87920900e-04,  2.40000000e-02
   14436, -2.50100000e-03,  2.22133423e-19,  2.40000000e-02
   14437, -2.45294399e-03, -4.87920900e-04,  2.40000000e-02
   14438, -2.31062272e-03, -9.57091277e-04,  2.40000000e-02
   14439, -2.07950553e-03, -1.38948118e-03,  2.40000000e-02
   14440, -1.76847411e-03, -1.76847411e-03,  2.40000000e-02
   14441, -2.07950553e-03,  1.38948118e-03,  2.50000000e-02
   14442, -2.31062272e-03,  9.57091277e-04,  2.50000000e-02
   14443, -2.45294399e-03,  4.87920900e-04,  2.50000000e-02
   14444, -2.50100000e-03,  2.22133423e-19,  2.50000000e-02
   14445, -2.45294399e-03, -4.87920900e-04,  2.50000000e-02
   14446, -2.31062272e-03, -9.57091277e-04,  2.50000000e-02
   14447, -2.07950553e-03, -1.38948118e-03,  2.50000000e-02
   14448, -1.76847411e-03, -1.76847411e-03,  2.50000000e-02
   14449, -2.07950553e-03,  1.38948118e-03,  2.60000000e-02
   14450, -2.31062272e-03,  9.57091277e-04,  2.60000000e-02
   14451, -2.45294399e-03,  4.87920900e-04,  2.60000000e-02
   14452, -2.50100000e-03,  2.22133423e-19,  2.60000000e-02
   14453, -2.45294399e-03, -4.87920900e-04,  2.60000000e-02
   14454, -2.31062272e-03, -9.57091277e-04,  2.60000000e-02
   14455, -2.07950553e-03, -1.38948118e-03,  2.60000000e-02
   14456, -1.76847411e-03, -1.76847411e-03,  2.60000000e-02
   14457, -2.07950553e-03,  1.38948118e-03,  2.70000000e-02
   14458, -2.31062272e-03,  9.57091277e-04,  2.70000000e-02
   14459, -2.45294399e-03,  4.87920900e-04,  2.70000000e-02
   14460, -2.50100000e-03,  2.22133423e-19,  2.70000000e-02
   14461, -2.45294399e-03, -4.87920900e-04,  2.70000000e-02
   14462, -2.31062272e-03, -9.57091277e-04,  2.70000000e-02
   14463, -2.07950553e-03, -1.38948118e-03,  2.70000000e-02
   14464, -1.76847411e-03, -1.76847411e-03,  2.70000000e-02
   14465, -2.07950553e-03,  1.38948118e-03,  2.80000000e-02
   14466, -2.31062272e-03,  9.57091277e-04,  2.80000000e-02
   14467, -2.45294399e-03,  4.87920900e-04,  2.80000000e-02
   14468, -2.50100000e-03,  2.22133423e-19,  2.80000000e-02
   14469, -2.45294399e-03, -4.87920900e-04,  2.80000000e-02
   14470, -2.31062272e-03, -9.57091277e-04,  2.80000000e-02
   14471, -2.07950553e-03, -1.38948118e-03,  2.80000000e-02
   14472, -1.76847411e-03, -1.76847411e-03,  2.80000000e-02
   14473, -2.07950553e-03,  1.38948118e-03,  2.90000000e-02
   14474, -2.31062272e-03,  9.57091277e-04,  2.90000000e-02
   14475, -2.45294399e-03,  4.87920900e-04,  2.90000000e-02
   14476, -2.50100000e-03,  2.22133423e-19,  2.90000000e-02
   14477, -2.45294399e-03, -4.87920900e-04,  2.90000000e-02
   14478, -2.31062272e-03, -9.57091277e-04,  2.90000000e-02
   14479, -2.07950553e-03, -1.38948118e-03,  2.90000000e-02
   14480, -1.76847411e-03, -1.76847411e-03,  2.90000000e-02
   14481, -2.07950553e-03,  1.38948118e-03,  3.00000000e-02
   14482, -2.31062272e-03,  9.57091277e-04,  3.00000000e-02
   14483, -2.45294399e-03,  4.87920900e-04,  3.00000000e-02
   14484, -2.50100000e-03,  2.22133423e-19,  3.00000000e-02
   14485, -2.45294399e-03, -4.87920900e-04,  3.00000000e-02
   14486, -2.31062272e-03, -9.57091277e-04,  3.00000000e-02
   14487, -2.07950553e-03, -1.38948118e-03,  3.00000000e-02
   14488, -1.76847411e-03, -1.76847411e-03,  3.00000000e-02
   14489, -1.38948118e-03, -2.07950553e-03,  0.00000000e+00
   14490, -9.57091277e-04, -2.31062272e-03,  0.00000000e+00
   14491, -4.87920900e-04, -2.45294399e-03,  0.00000000e+00
   14492, -2.22133423e-19, -2.50100000e-03,  0.00000000e+00
   14493,  4.87920900e-04, -2.45294399e-03,  0.00000000e+00
   14494,  9.57091277e-04, -2.31062272e-03,  0.00000000e+00
   14495,  1.38948118e-03, -2.07950553e-03,  0.00000000e+00
   14496, -1.38948118e-03, -2.07950553e-03,  1.00000000e-03
   14497, -9.57091277e-04, -2.31062272e-03,  1.00000000e-03
   14498, -4.87920900e-04, -2.45294399e-03,  1.00000000e-03
   14499, -2.22133423e-19, -2.50100000e-03,  1.00000000e-03
   14500,  4.87920900e-04, -2.45294399e-03,  1.00000000e-03
   14501,  9.57091277e-04, -2.31062272e-03,  1.00000000e-03
   14502,  1.38948118e-03, -2.07950553e-03,  1.00000000e-03
   14503, -1.38948118e-03, -2.07950553e-03,  2.00000000e-03
   14504, -9.57091277e-04, -2.31062272e-03,  2.00000000e-03
   14505, -4.87920900e-04, -2.45294399e-03,  2.00000000e-03
   14506, -2.22133423e-19, -2.50100000e-03,  2.00000000e-03
   14507,  4.87920900e-04, -2.45294399e-03,  2.00000000e-03
   14508,  9.57091277e-04, -2.31062272e-03,  2.00000000e-03
   14509,  1.38948118e-03, -2.07950553e-03,  2.00000000e-03
   14510, -1.38948118e-03, -2.07950553e-03,  3.00000000e-03
   14511, -9.57091277e-04, -2.31062272e-03,  3.00000000e-03
   14512, -4.87920900e-04, -2.45294399e-03,  3.00000000e-03
   14513, -2.22133423e-19, -2.50100000e-03,  3.00000000e-03
   14514,  4.87920900e-04, -2.45294399e-03,  3.00000000e-03
   14515,  9.57091277e-04, -2.31062272e-03,  3.00000000e-03
   14516,  1.38948118e-03, -2.07950553e-03,  3.00000000e-03
   14517, -1.38948118e-03, -2.07950553e-03,  4.00000000e-03
   14518, -9.57091277e-04, -2.31062272e-03,  4.00000000e-03
   14519, -4.87920900e-04, -2.45294399e-03,  4.00000000e-03
   14520, -2.22133423e-19, -2.50100000e-03,  4.00000000e-03
   14521,  4.87920900e-04, -2.45294399e-03,  4.00000000e-03
   14522,  9.57091277e-04, -2.31062272e-03,  4.00000000e-03
   14523,  1.38948118e-03, -2.07950553e-03,  4.00000000e-03
   14524, -1.38948118e-03, -2.07950553e-03,  5.00000000e-03
   14525, -9.57091277e-04, -2.31062272e-03,  5.00000000e-03
   14526, -4.87920900e-04, -2.45294399e-03,  5.00000000e-03
   14527, -2.22133423e-19, -2.50100000e-03,  5.00000000e-03
   14528,  4.87920900e-04, -2.45294399e-03,  5.00000000e-03
   14529,  9.57091277e-04, -2.31062272e-03,  5.00000000e-03
   14530,  1.38948118e-03, -2.07950553e-03,  5.00000000e-03
   14531, -1.38948118e-03, -2.07950553e-03,  6.00000000e-03
   14532, -9.57091277e-04, -2.31062272e-03,  6.00000000e-03
   14533, -4.87920900e-04, -2.45294399e-03,  6.00000000e-03
   14534, -2.22133423e-19, -2.50100000e-03,  6.00000000e-03
   14535,  4.87920900e-04, -2.45294399e-03,  6.00000000e-03
   14536,  9.57091277e-04, -2.31062272e-03,  6.00000000e-03
   14537,  1.38948118e-03, -2.07950553e-03,  6.00000000e-03
   14538, -1.38948118e-03, -2.07950553e-03,  7.00000000e-03
   14539, -9.57091277e-04, -2.31062272e-03,  7.00000000e-03
   14540, -4.87920900e-04, -2.45294399e-03,  7.00000000e-03
   14541, -2.22133423e-19, -2.50100000e-03,  7.00000000e-03
   14542,  4.87920900e-04, -2.45294399e-03,  7.00000000e-03
   14543,  9.57091277e-04, -2.31062272e-03,  7.00000000e-03
   14544,  1.38948118e-03, -2.07950553e-03,  7.00000000e-03
   14545, -1.38948118e-03, -2.07950553e-03,  8.00000000e-03
   14546, -9.57091277e-04, -2.31062272e-03,  8.00000000e-03
   14547, -4.87920900e-04, -2.45294399e-03,  8.00000000e-03
   14548, -2.22133423e-19, -2.50100000e-03,  8.00000000e-03
   14549,  4.87920900e-04, -2.45294399e-03,  8.00000000e-03
   14550,  9.57091277e-04, -2.31062272e-03,  8.00000000e-03
   14551,  1.38948118e-03, -2.07950553e-03,  8.00000000e-03
   14552, -1.38948118e-03, -2.07950553e-03,  9.00000000e-03
   14553, -9.57091277e-04, -2.31062272e-03,  9.00000000e-03
   14554, -4.87920900e-04, -2.45294399e-03,  9.00000000e-03
   14555, -2.22133423e-19, -2.50100000e-03,  9.00000000e-03
   14556,  4.87920900e-04, -2.45294399e-03,  9.00000000e-03
   14557,  9.57091277e-04, -2.31062272e-03,  9.00000000e-03
   14558,  1.38948118e-03, -2.07950553e-03,  9.00000000e-03
   14559, -1.38948118e-03, -2.07950553e-03,  1.00000000e-02
   14560, -9.57091277e-04, -2.31062272e-03,  1.00000000e-02
   14561, -4.87920900e-04, -2.45294399e-03,  1.00000000e-02
   14562, -2.22133423e-19, -2.50100000e-03,  1.00000000e-02
   14563,  4.87920900e-04, -2.45294399e-03,  1.00000000e-02
   14564,  9.57091277e-04, -2.31062272e-03,  1.00000000e-02
   14565,  1.38948118e-03, -2.07950553e-03,  1.00000000e-02
   14566, -1.38948118e-03, -2.07950553e-03,  1.10000000e-02
   14567, -9.57091277e-04, -2.31062272e-03,  1.10000000e-02
   14568, -4.87920900e-04, -2.45294399e-03,  1.10000000e-02
   14569, -2.22133423e-19, -2.50100000e-03,  1.10000000e-02
   14570,  4.87920900e-04, -2.45294399e-03,  1.10000000e-02
   14571,  9.57091277e-04, -2.31062272e-03,  1.10000000e-02
   14572,  1.38948118e-03, -2.07950553e-03,  1.10000000e-02
   14573, -1.38948118e-03, -2.07950553e-03,  1.20000000e-02
   14574, -9.57091277e-04, -2.31062272e-03,  1.20000000e-02
   14575, -4.87920900e-04, -2.45294399e-03,  1.20000000e-02
   14576, -2.22133423e-19, -2.50100000e-03,  1.20000000e-02
   14577,  4.87920900e-04, -2.45294399e-03,  1.20000000e-02
   14578,  9.57091277e-04, -2.31062272e-03,  1.20000000e-02
   14579,  1.38948118e-03, -2.07950553e-03,  1.20000000e-02
   14580, -1.38948118e-03, -2.07950553e-03,  1.30000000e-02
   14581, -9.57091277e-04, -2.31062272e-03,  1.30000000e-02
   14582, -4.87920900e-04, -2.45294399e-03,  1.30000000e-02
   14583, -2.22133423e-19, -2.50100000e-03,  1.30000000e-02
   14584,  4.87920900e-04, -2.45294399e-03,  1.30000000e-02
   14585,  9.57091277e-04, -2.31062272e-03,  1.30000000e-02
   14586,  1.38948118e-03, -2.07950553e-03,  1.30000000e-02
   14587, -1.38948118e-03, -2.07950553e-03,  1.40000000e-02
   14588, -9.57091277e-04, -2.31062272e-03,  1.40000000e-02
   14589, -4.87920900e-04, -2.45294399e-03,  1.40000000e-02
   14590, -2.22133423e-19, -2.50100000e-03,  1.40000000e-02
   14591,  4.87920900e-04, -2.45294399e-03,  1.40000000e-02
   14592,  9.57091277e-04, -2.31062272e-03,  1.40000000e-02
   14593,  1.38948118e-03, -2.07950553e-03,  1.40000000e-02
   14594, -1.38948118e-03, -2.07950553e-03,  1.50000000e-02
   14595, -9.57091277e-04, -2.31062272e-03,  1.50000000e-02
   14596, -4.87920900e-04, -2.45294399e-03,  1.50000000e-02
   14597, -2.22133423e-19, -2.50100000e-03,  1.50000000e-02
   14598,  4.87920900e-04, -2.45294399e-03,  1.50000000e-02
   14599,  9.57091277e-04, -2.31062272e-03,  1.50000000e-02
   14600,  1.38948118e-03, -2.07950553e-03,  1.50000000e-02
   14601, -1.38948118e-03, -2.07950553e-03,  1.60000000e-02
   14602, -9.57091277e-04, -2.31062272e-03,  1.60000000e-02
   14603, -4.87920900e-04, -2.45294399e-03,  1.60000000e-02
   14604, -2.22133423e-19, -2.50100000e-03,  1.60000000e-02
   14605,  4.87920900e-04, -2.45294399e-03,  1.60000000e-02
   14606,  9.57091277e-04, -2.31062272e-03,  1.60000000e-02
   14607,  1.38948118e-03, -2.07950553e-03,  1.60000000e-02
   14608, -1.38948118e-03, -2.07950553e-03,  1.70000000e-02
   14609, -9.57091277e-04, -2.31062272e-03,  1.70000000e-02
   14610, -4.87920900e-04, -2.45294399e-03,  1.70000000e-02
   14611, -2.22133423e-19, -2.50100000e-03,  1.70000000e-02
   14612,  4.87920900e-04, -2.45294399e-03,  1.70000000e-02
   14613,  9.57091277e-04, -2.31062272e-03,  1.70000000e-02
   14614,  1.38948118e-03, -2.07950553e-03,  1.70000000e-02
   14615, -1.38948118e-03, -2.07950553e-03,  1.80000000e-02
   14616, -9.57091277e-04, -2.31062272e-03,  1.80000000e-02
   14617, -4.87920900e-04, -2.45294399e-03,  1.80000000e-02
   14618, -2.22133423e-19, -2.50100000e-03,  1.80000000e-02
   14619,  4.87920900e-04, -2.45294399e-03,  1.80000000e-02
   14620,  9.57091277e-04, -2.31062272e-03,  1.80000000e-02
   14621,  1.38948118e-03, -2.07950553e-03,  1.80000000e-02
   14622, -1.38948118e-03, -2.07950553e-03,  1.90000000e-02
   14623, -9.57091277e-04, -2.31062272e-03,  1.90000000e-02
   14624, -4.87920900e-04, -2.45294399e-03,  1.90000000e-02
   14625, -2.22133423e-19, -2.50100000e-03,  1.90000000e-02
   14626,  4.87920900e-04, -2.45294399e-03,  1.90000000e-02
   14627,  9.57091277e-04, -2.31062272e-03,  1.90000000e-02
   14628,  1.38948118e-03, -2.07950553e-03,  1.90000000e-02
   14629, -1.38948118e-03, -2.07950553e-03,  2.00000000e-02
   14630, -9.57091277e-04, -2.31062272e-03,  2.00000000e-02
   14631, -4.87920900e-04, -2.45294399e-03,  2.00000000e-02
   14632, -2.22133423e-19, -2.50100000e-03,  2.00000000e-02
   14633,  4.87920900e-04, -2.45294399e-03,  2.00000000e-02
   14634,  9.57091277e-04, -2.31062272e-03,  2.00000000e-02
   14635,  1.38948118e-03, -2.07950553e-03,  2.00000000e-02
   14636, -1.38948118e-03, -2.07950553e-03,  2.10000000e-02
   14637, -9.57091277e-04, -2.31062272e-03,  2.10000000e-02
   14638, -4.87920900e-04, -2.45294399e-03,  2.10000000e-02
   14639, -2.22133423e-19, -2.50100000e-03,  2.10000000e-02
   14640,  4.87920900e-04, -2.45294399e-03,  2.10000000e-02
   14641,  9.57091277e-04, -2.31062272e-03,  2.10000000e-02
   14642,  1.38948118e-03, -2.07950553e-03,  2.10000000e-02
   14643, -1.38948118e-03, -2.07950553e-03,  2.20000000e-02
   14644, -9.57091277e-04, -2.31062272e-03,  2.20000000e-02
   14645, -4.87920900e-04, -2.45294399e-03,  2.20000000e-02
   14646, -2.22133423e-19, -2.50100000e-03,  2.20000000e-02
   14647,  4.87920900e-04, -2.45294399e-03,  2.20000000e-02
   14648,  9.57091277e-04, -2.31062272e-03,  2.20000000e-02
   14649,  1.38948118e-03, -2.07950553e-03,  2.20000000e-02
   14650, -1.38948118e-03, -2.07950553e-03,  2.30000000e-02
   14651, -9.57091277e-04, -2.31062272e-03,  2.30000000e-02
   14652, -4.87920900e-04, -2.45294399e-03,  2.30000000e-02
   14653, -2.22133423e-19, -2.50100000e-03,  2.30000000e-02
   14654,  4.87920900e-04, -2.45294399e-03,  2.30000000e-02
   14655,  9.57091277e-04, -2.31062272e-03,  2.30000000e-02
   14656,  1.38948118e-03, -2.07950553e-03,  2.30000000e-02
   14657, -1.38948118e-03, -2.07950553e-03,  2.40000000e-02
   14658, -9.57091277e-04, -2.31062272e-03,  2.40000000e-02
   14659, -4.87920900e-04, -2.45294399e-03,  2.40000000e-02
   14660, -2.22133423e-19, -2.50100000e-03,  2.40000000e-02
   14661,  4.87920900e-04, -2.45294399e-03,  2.40000000e-02
   14662,  9.57091277e-04, -2.31062272e-03,  2.40000000e-02
   14663,  1.38948118e-03, -2.07950553e-03,  2.40000000e-02
   14664, -1.38948118e-03, -2.07950553e-03,  2.50000000e-02
   14665, -9.57091277e-04, -2.31062272e-03,  2.50000000e-02
   14666, -4.87920900e-04, -2.45294399e-03,  2.50000000e-02
   14667, -2.22133423e-19, -2.50100000e-03,  2.50000000e-02
   14668,  4.87920900e-04, -2.45294399e-03,  2.50000000e-02
   14669,  9.57091277e-04, -2.31062272e-03,  2.50000000e-02
   14670,  1.38948118e-03, -2.07950553e-03,  2.50000000e-02
   14671, -1.38948118e-03, -2.07950553e-03,  2.60000000e-02
   14672, -9.57091277e-04, -2.31062272e-03,  2.60000000e-02
   14673, -4.87920900e-04, -2.45294399e-03,  2.60000000e-02
   14674, -2.22133423e-19, -2.50100000e-03,  2.60000000e-02
   14675,  4.87920900e-04, -2.45294399e-03,  2.60000000e-02
   14676,  9.57091277e-04, -2.31062272e-03,  2.60000000e-02
   14677,  1.38948118e-03, -2.07950553e-03,  2.60000000e-02
   14678, -1.38948118e-03, -2.07950553e-03,  2.70000000e-02
   14679, -9.57091277e-04, -2.31062272e-03,  2.70000000e-02
   14680, -4.87920900e-04, -2.45294399e-03,  2.70000000e-02
   14681, -2.22133423e-19, -2.50100000e-03,  2.70000000e-02
   14682,  4.87920900e-04, -2.45294399e-03,  2.70000000e-02
   14683,  9.57091277e-04, -2.31062272e-03,  2.70000000e-02
   14684,  1.38948118e-03, -2.07950553e-03,  2.70000000e-02
   14685, -1.38948118e-03, -2.07950553e-03,  2.80000000e-02
   14686, -9.57091277e-04, -2.31062272e-03,  2.80000000e-02
   14687, -4.87920900e-04, -2.45294399e-03,  2.80000000e-02
   14688, -2.22133423e-19, -2.50100000e-03,  2.80000000e-02
   14689,  4.87920900e-04, -2.45294399e-03,  2.80000000e-02
   14690,  9.57091277e-04, -2.31062272e-03,  2.80000000e-02
   14691,  1.38948118e-03, -2.07950553e-03,  2.80000000e-02
   14692, -1.38948118e-03, -2.07950553e-03,  2.90000000e-02
   14693, -9.57091277e-04, -2.31062272e-03,  2.90000000e-02
   14694, -4.87920900e-04, -2.45294399e-03,  2.90000000e-02
   14695, -2.22133423e-19, -2.50100000e-03,  2.90000000e-02
   14696,  4.87920900e-04, -2.45294399e-03,  2.90000000e-02
   14697,  9.57091277e-04, -2.31062272e-03,  2.90000000e-02
   14698,  1.38948118e-03, -2.07950553e-03,  2.90000000e-02
   14699, -1.38948118e-03, -2.07950553e-03,  3.00000000e-02
   14700, -9.57091277e-04, -2.31062272e-03,  3.00000000e-02
   14701, -4.87920900e-04, -2.45294399e-03,  3.00000000e-02
   14702, -2.22133423e-19, -2.50100000e-03,  3.00000000e-02
   14703,  4.87920900e-04, -2.45294399e-03,  3.00000000e-02
   14704,  9.57091277e-04, -2.31062272e-03,  3.00000000e-02
   14705,  1.38948118e-03, -2.07950553e-03,  3.00000000e-02
*ELEMENT, TYPE=SPRINGA, ELSET=WK_0
   11649,     9458,    13714
*SPRING, ELSET=WK_0

4.900857e-02
*ELEMENT, TYPE=SPRINGA, ELSET=WK_1
   11650,     9461,    13715
*SPRING, ELSET=WK_1

4.900857e-02
*ELEMENT, TYPE=SPRINGA, ELSET=WK_2
   11651,     9464,    13716
*SPRING, ELSET=WK_2

4.900857e-02
*ELEMENT, TYPE=SPRINGA, ELSET=WK_3
   11652,     9467,    13717
*SPRING, ELSET=WK_3

4.900857e-02
*ELEMENT, TYPE=SPRINGA, ELSET=WK_4
   11653,     9470,    13718
*SPRING, ELSET=WK_4

4.900857e-02
*ELEMENT, TYPE=SPRINGA, ELSET=WK_5
   11654,     9473,    13719
*SPRING, ELSET=WK_5

4.900857e-02
*ELEMENT, TYPE=SPRINGA, ELSET=WK_6
   11655,     9476,    13720
*SPRING, ELSET=WK_6

4.900857e-02
*ELEMENT, TYPE=SPRINGA, ELSET=WK_7
   11656,     9479,    13721
*SPRING, ELSET=WK_7

4.900857e-02
*ELEMENT, TYPE=SPRINGA, ELSET=WK_8
   11657,     9482,    13722
*SPRING, ELSET=WK_8

4.900857e-02
*ELEMENT, TYPE=SPRINGA, ELSET=WK_9
   11658,     9485,    13723
*SPRING, ELSET=WK_9

9.801714e-02
*ELEMENT, TYPE=SPRINGA, ELSET=WK_10
   11659,     9488,    13724
*SPRING, ELSET=WK_10

9.801714e-02
*ELEMENT, TYPE=SPRINGA, ELSET=WK_11
   11660,     9491,    13725
*SPRING, ELSET=WK_11

9.801714e-02
*ELEMENT, TYPE=SPRINGA, ELSET=WK_12
   11661,     9494,    13726
*SPRING, ELSET=WK_12

9.801714e-02
*ELEMENT, TYPE=SPRINGA, ELSET=WK_13
   11662,     9497,    13727
*SPRING, ELSET=WK_13

9.801714e-02
*ELEMENT, TYPE=SPRINGA, ELSET=WK_14
   11663,     9500,    13728
*SPRING, ELSET=WK_14

9.801714e-02
*ELEMENT, TYPE=SPRINGA, ELSET=WK_15
   11664,     9503,    13729
*SPRING, ELSET=WK_15

9.801714e-02
*ELEMENT, TYPE=SPRINGA, ELSET=WK_16
   11665,     9506,    13730
*SPRING, ELSET=WK_16

9.801714e-02
*ELEMENT, TYPE=SPRINGA, ELSET=WK_17
   11666,     9509,    13731
*SPRING, ELSET=WK_17

9.801714e-02
*ELEMENT, TYPE=SPRINGA, ELSET=WK_18
   11667,     9512,    13732
*SPRING, ELSET=WK_18

9.801714e-02
*ELEMENT, TYPE=SPRINGA, ELSET=WK_19
   11668,     9515,    13733
*SPRING, ELSET=WK_19

9.801714e-02
*ELEMENT, TYPE=SPRINGA, ELSET=WK_20
   11669,     9518,    13734
*SPRING, ELSET=WK_20

9.801714e-02
*ELEMENT, TYPE=SPRINGA, ELSET=WK_21
   11670,     9521,    13735
*SPRING, ELSET=WK_21

9.801714e-02
*ELEMENT, TYPE=SPRINGA, ELSET=WK_22
   11671,     9524,    13736
*SPRING, ELSET=WK_22

9.801714e-02
*ELEMENT, TYPE=SPRINGA, ELSET=WK_23
   11672,     9527,    13737
*SPRING, ELSET=WK_23

9.801714e-02
*ELEMENT, TYPE=SPRINGA, ELSET=WK_24
   11673,     9530,    13738
*SPRING, ELSET=WK_24

9.801714e-02
*ELEMENT, TYPE=SPRINGA, ELSET=WK_25
   11674,     9533,    13739
*SPRING, ELSET=WK_25

9.801714e-02
*ELEMENT, TYPE=SPRINGA, ELSET=WK_26
   11675,     9536,    13740
*SPRING, ELSET=WK_26

9.801714e-02
*ELEMENT, TYPE=SPRINGA, ELSET=WK_27
   11676,     9539,    13741
*SPRING, ELSET=WK_27

9.801714e-02
*ELEMENT, TYPE=SPRINGA, ELSET=WK_28
   11677,     9542,    13742
*SPRING, ELSET=WK_28

9.801714e-02
*ELEMENT, TYPE=SPRINGA, ELSET=WK_29
   11678,     9545,    13743
*SPRING, ELSET=WK_29

9.801714e-02
*ELEMENT, TYPE=SPRINGA, ELSET=WK_30
   11679,     9548,    13744
*SPRING, ELSET=WK_30

9.801714e-02
*ELEMENT, TYPE=SPRINGA, ELSET=WK_31
   11680,     9551,    13745
*SPRING, ELSET=WK_31

9.801714e-02
*ELEMENT, TYPE=SPRINGA, ELSET=WK_32
   11681,     9554,    13746
*SPRING, ELSET=WK_32

9.801714e-02
*ELEMENT, TYPE=SPRINGA, ELSET=WK_33
   11682,     9557,    13747
*SPRING, ELSET=WK_33

9.801714e-02
*ELEMENT, TYPE=SPRINGA, ELSET=WK_34
   11683,     9560,    13748
*SPRING, ELSET=WK_34

9.801714e-02
*ELEMENT, TYPE=SPRINGA, ELSET=WK_35
   11684,     9563,    13749
*SPRING, ELSET=WK_35

9.801714e-02
*ELEMENT, TYPE=SPRINGA, ELSET=WK_36
   11685,     9566,    13750
*SPRING, ELSET=WK_36

9.801714e-02
*ELEMENT, TYPE=SPRINGA, ELSET=WK_37
   11686,     9569,    13751
*SPRING, ELSET=WK_37

9.801714e-02
*ELEMENT, TYPE=SPRINGA, ELSET=WK_38
   11687,     9572,    13752
*SPRING, ELSET=WK_38

9.801714e-02
*ELEMENT, TYPE=SPRINGA, ELSET=WK_39
   11688,     9575,    13753
*SPRING, ELSET=WK_39

9.801714e-02
*ELEMENT, TYPE=SPRINGA, ELSET=WK_40
   11689,     9578,    13754
*SPRING, ELSET=WK_40

9.801714e-02
*ELEMENT, TYPE=SPRINGA, ELSET=WK_41
   11690,     9581,    13755
*SPRING, ELSET=WK_41

9.801714e-02
*ELEMENT, TYPE=SPRINGA, ELSET=WK_42
   11691,     9584,    13756
*SPRING, ELSET=WK_42

9.801714e-02
*ELEMENT, TYPE=SPRINGA, ELSET=WK_43
   11692,     9587,    13757
*SPRING, ELSET=WK_43

9.801714e-02
*ELEMENT, TYPE=SPRINGA, ELSET=WK_44
   11693,     9590,    13758
*SPRING, ELSET=WK_44

9.801714e-02
*ELEMENT, TYPE=SPRINGA, ELSET=WK_45
   11694,     9593,    13759
*SPRING, ELSET=WK_45

9.801714e-02
*ELEMENT, TYPE=SPRINGA, ELSET=WK_46
   11695,     9596,    13760
*SPRING, ELSET=WK_46

9.801714e-02
*ELEMENT, TYPE=SPRINGA, ELSET=WK_47
   11696,     9599,    13761
*SPRING, ELSET=WK_47

9.801714e-02
*ELEMENT, TYPE=SPRINGA, ELSET=WK_48
   11697,     9602,    13762
*SPRING, ELSET=WK_48

9.801714e-02
*ELEMENT, TYPE=SPRINGA, ELSET=WK_49
   11698,     9605,    13763
*SPRING, ELSET=WK_49

9.801714e-02
*ELEMENT, TYPE=SPRINGA, ELSET=WK_50
   11699,     9608,    13764
*SPRING, ELSET=WK_50

9.801714e-02
*ELEMENT, TYPE=SPRINGA, ELSET=WK_51
   11700,     9611,    13765
*SPRING, ELSET=WK_51

9.801714e-02
*ELEMENT, TYPE=SPRINGA, ELSET=WK_52
   11701,     9614,    13766
*SPRING, ELSET=WK_52

9.801714e-02
*ELEMENT, TYPE=SPRINGA, ELSET=WK_53
   11702,     9617,    13767
*SPRING, ELSET=WK_53

9.801714e-02
*ELEMENT, TYPE=SPRINGA, ELSET=WK_54
   11703,     9620,    13768
*SPRING, ELSET=WK_54

9.801714e-02
*ELEMENT, TYPE=SPRINGA, ELSET=WK_55
   11704,     9623,    13769
*SPRING, ELSET=WK_55

9.801714e-02
*ELEMENT, TYPE=SPRINGA, ELSET=WK_56
   11705,     9626,    13770
*SPRING, ELSET=WK_56

9.801714e-02
*ELEMENT, TYPE=SPRINGA, ELSET=WK_57
   11706,     9629,    13771
*SPRING, ELSET=WK_57

9.801714e-02
*ELEMENT, TYPE=SPRINGA, ELSET=WK_58
   11707,     9632,    13772
*SPRING, ELSET=WK_58

9.801714e-02
*ELEMENT, TYPE=SPRINGA, ELSET=WK_59
   11708,     9635,    13773
*SPRING, ELSET=WK_59

9.801714e-02
*ELEMENT, TYPE=SPRINGA, ELSET=WK_60
   11709,     9638,    13774
*SPRING, ELSET=WK_60

9.801714e-02
*ELEMENT, TYPE=SPRINGA, ELSET=WK_61
   11710,     9641,    13775
*SPRING, ELSET=WK_61

9.801714e-02
*ELEMENT, TYPE=SPRINGA, ELSET=WK_62
   11711,     9644,    13776
*SPRING, ELSET=WK_62

9.801714e-02
*ELEMENT, TYPE=SPRINGA, ELSET=WK_63
   11712,     9647,    13777
*SPRING, ELSET=WK_63

9.801714e-02
*ELEMENT, TYPE=SPRINGA, ELSET=WK_64
   11713,     9650,    13778
*SPRING, ELSET=WK_64

9.801714e-02
*ELEMENT, TYPE=SPRINGA, ELSET=WK_65
   11714,     9653,    13779
*SPRING, ELSET=WK_65

9.801714e-02
*ELEMENT, TYPE=SPRINGA, ELSET=WK_66
   11715,     9656,    13780
*SPRING, ELSET=WK_66

9.801714e-02
*ELEMENT, TYPE=SPRINGA, ELSET=WK_67
   11716,     9659,    13781
*SPRING, ELSET=WK_67

9.801714e-02
*ELEMENT, TYPE=SPRINGA, ELSET=WK_68
   11717,     9662,    13782
*SPRING, ELSET=WK_68

9.801714e-02
*ELEMENT, TYPE=SPRINGA, ELSET=WK_69
   11718,     9665,    13783
*SPRING, ELSET=WK_69

9.801714e-02
*ELEMENT, TYPE=SPRINGA, ELSET=WK_70
   11719,     9668,    13784
*SPRING, ELSET=WK_70

9.801714e-02
*ELEMENT, TYPE=SPRINGA, ELSET=WK_71
   11720,     9671,    13785
*SPRING, ELSET=WK_71

9.801714e-02
*ELEMENT, TYPE=SPRINGA, ELSET=WK_72
   11721,     9674,    13786
*SPRING, ELSET=WK_72

9.801714e-02
*ELEMENT, TYPE=SPRINGA, ELSET=WK_73
   11722,     9677,    13787
*SPRING, ELSET=WK_73

9.801714e-02
*ELEMENT, TYPE=SPRINGA, ELSET=WK_74
   11723,     9680,    13788
*SPRING, ELSET=WK_74

9.801714e-02
*ELEMENT, TYPE=SPRINGA, ELSET=WK_75
   11724,     9683,    13789
*SPRING, ELSET=WK_75

9.801714e-02
*ELEMENT, TYPE=SPRINGA, ELSET=WK_76
   11725,     9686,    13790
*SPRING, ELSET=WK_76

9.801714e-02
*ELEMENT, TYPE=SPRINGA, ELSET=WK_77
   11726,     9689,    13791
*SPRING, ELSET=WK_77

9.801714e-02
*ELEMENT, TYPE=SPRINGA, ELSET=WK_78
   11727,     9692,    13792
*SPRING, ELSET=WK_78

9.801714e-02
*ELEMENT, TYPE=SPRINGA, ELSET=WK_79
   11728,     9695,    13793
*SPRING, ELSET=WK_79

9.801714e-02
*ELEMENT, TYPE=SPRINGA, ELSET=WK_80
   11729,     9698,    13794
*SPRING, ELSET=WK_80

9.801714e-02
*ELEMENT, TYPE=SPRINGA, ELSET=WK_81
   11730,     9701,    13795
*SPRING, ELSET=WK_81

9.801714e-02
*ELEMENT, TYPE=SPRINGA, ELSET=WK_82
   11731,     9704,    13796
*SPRING, ELSET=WK_82

9.801714e-02
*ELEMENT, TYPE=SPRINGA, ELSET=WK_83
   11732,     9707,    13797
*SPRING, ELSET=WK_83

9.801714e-02
*ELEMENT, TYPE=SPRINGA, ELSET=WK_84
   11733,     9710,    13798
*SPRING, ELSET=WK_84

9.801714e-02
*ELEMENT, TYPE=SPRINGA, ELSET=WK_85
   11734,     9713,    13799
*SPRING, ELSET=WK_85

9.801714e-02
*ELEMENT, TYPE=SPRINGA, ELSET=WK_86
   11735,     9716,    13800
*SPRING, ELSET=WK_86

9.801714e-02
*ELEMENT, TYPE=SPRINGA, ELSET=WK_87
   11736,     9719,    13801
*SPRING, ELSET=WK_87

9.801714e-02
*ELEMENT, TYPE=SPRINGA, ELSET=WK_88
   11737,     9722,    13802
*SPRING, ELSET=WK_88

9.801714e-02
*ELEMENT, TYPE=SPRINGA, ELSET=WK_89
   11738,     9725,    13803
*SPRING, ELSET=WK_89

9.801714e-02
*ELEMENT, TYPE=SPRINGA, ELSET=WK_90
   11739,     9728,    13804
*SPRING, ELSET=WK_90

9.801714e-02
*ELEMENT, TYPE=SPRINGA, ELSET=WK_91
   11740,     9731,    13805
*SPRING, ELSET=WK_91

9.801714e-02
*ELEMENT, TYPE=SPRINGA, ELSET=WK_92
   11741,     9734,    13806
*SPRING, ELSET=WK_92

9.801714e-02
*ELEMENT, TYPE=SPRINGA, ELSET=WK_93
   11742,     9737,    13807
*SPRING, ELSET=WK_93

9.801714e-02
*ELEMENT, TYPE=SPRINGA, ELSET=WK_94
   11743,     9740,    13808
*SPRING, ELSET=WK_94

9.801714e-02
*ELEMENT, TYPE=SPRINGA, ELSET=WK_95
   11744,     9743,    13809
*SPRING, ELSET=WK_95

9.801714e-02
*ELEMENT, TYPE=SPRINGA, ELSET=WK_96
   11745,     9746,    13810
*SPRING, ELSET=WK_96

9.801714e-02
*ELEMENT, TYPE=SPRINGA, ELSET=WK_97
   11746,     9749,    13811
*SPRING, ELSET=WK_97

9.801714e-02
*ELEMENT, TYPE=SPRINGA, ELSET=WK_98
   11747,     9752,    13812
*SPRING, ELSET=WK_98

9.801714e-02
*ELEMENT, TYPE=SPRINGA, ELSET=WK_99
   11748,     9755,    13813
*SPRING, ELSET=WK_99

9.801714e-02
*ELEMENT, TYPE=SPRINGA, ELSET=WK_100
   11749,     9758,    13814
*SPRING, ELSET=WK_100

9.801714e-02
*ELEMENT, TYPE=SPRINGA, ELSET=WK_101
   11750,     9761,    13815
*SPRING, ELSET=WK_101

9.801714e-02
*ELEMENT, TYPE=SPRINGA, ELSET=WK_102
   11751,     9764,    13816
*SPRING, ELSET=WK_102

9.801714e-02
*ELEMENT, TYPE=SPRINGA, ELSET=WK_103
   11752,     9767,    13817
*SPRING, ELSET=WK_103

9.801714e-02
*ELEMENT, TYPE=SPRINGA, ELSET=WK_104
   11753,     9770,    13818
*SPRING, ELSET=WK_104

9.801714e-02
*ELEMENT, TYPE=SPRINGA, ELSET=WK_105
   11754,     9773,    13819
*SPRING, ELSET=WK_105

9.801714e-02
*ELEMENT, TYPE=SPRINGA, ELSET=WK_106
   11755,     9776,    13820
*SPRING, ELSET=WK_106

9.801714e-02
*ELEMENT, TYPE=SPRINGA, ELSET=WK_107
   11756,     9779,    13821
*SPRING, ELSET=WK_107

9.801714e-02
*ELEMENT, TYPE=SPRINGA, ELSET=WK_108
   11757,     9782,    13822
*SPRING, ELSET=WK_108

9.801714e-02
*ELEMENT, TYPE=SPRINGA, ELSET=WK_109
   11758,     9785,    13823
*SPRING, ELSET=WK_109

9.801714e-02
*ELEMENT, TYPE=SPRINGA, ELSET=WK_110
   11759,     9788,    13824
*SPRING, ELSET=WK_110

9.801714e-02
*ELEMENT, TYPE=SPRINGA, ELSET=WK_111
   11760,     9791,    13825
*SPRING, ELSET=WK_111

9.801714e-02
*ELEMENT, TYPE=SPRINGA, ELSET=WK_112
   11761,     9794,    13826
*SPRING, ELSET=WK_112

9.801714e-02
*ELEMENT, TYPE=SPRINGA, ELSET=WK_113
   11762,     9797,    13827
*SPRING, ELSET=WK_113

9.801714e-02
*ELEMENT, TYPE=SPRINGA, ELSET=WK_114
   11763,     9800,    13828
*SPRING, ELSET=WK_114

9.801714e-02
*ELEMENT, TYPE=SPRINGA, ELSET=WK_115
   11764,     9803,    13829
*SPRING, ELSET=WK_115

9.801714e-02
*ELEMENT, TYPE=SPRINGA, ELSET=WK_116
   11765,     9806,    13830
*SPRING, ELSET=WK_116

9.801714e-02
*ELEMENT, TYPE=SPRINGA, ELSET=WK_117
   11766,     9809,    13831
*SPRING, ELSET=WK_117

9.801714e-02
*ELEMENT, TYPE=SPRINGA, ELSET=WK_118
   11767,     9812,    13832
*SPRING, ELSET=WK_118

9.801714e-02
*ELEMENT, TYPE=SPRINGA, ELSET=WK_119
   11768,     9815,    13833
*SPRING, ELSET=WK_119

9.801714e-02
*ELEMENT, TYPE=SPRINGA, ELSET=WK_120
   11769,     9818,    13834
*SPRING, ELSET=WK_120

9.801714e-02
*ELEMENT, TYPE=SPRINGA, ELSET=WK_121
   11770,     9821,    13835
*SPRING, ELSET=WK_121

9.801714e-02
*ELEMENT, TYPE=SPRINGA, ELSET=WK_122
   11771,     9824,    13836
*SPRING, ELSET=WK_122

9.801714e-02
*ELEMENT, TYPE=SPRINGA, ELSET=WK_123
   11772,     9827,    13837
*SPRING, ELSET=WK_123

9.801714e-02
*ELEMENT, TYPE=SPRINGA, ELSET=WK_124
   11773,     9830,    13838
*SPRING, ELSET=WK_124

9.801714e-02
*ELEMENT, TYPE=SPRINGA, ELSET=WK_125
   11774,     9833,    13839
*SPRING, ELSET=WK_125

9.801714e-02
*ELEMENT, TYPE=SPRINGA, ELSET=WK_126
   11775,     9836,    13840
*SPRING, ELSET=WK_126

9.801714e-02
*ELEMENT, TYPE=SPRINGA, ELSET=WK_127
   11776,     9839,    13841
*SPRING, ELSET=WK_127

9.801714e-02
*ELEMENT, TYPE=SPRINGA, ELSET=WK_128
   11777,     9842,    13842
*SPRING, ELSET=WK_128

9.801714e-02
*ELEMENT, TYPE=SPRINGA, ELSET=WK_129
   11778,     9845,    13843
*SPRING, ELSET=WK_129

9.801714e-02
*ELEMENT, TYPE=SPRINGA, ELSET=WK_130
   11779,     9848,    13844
*SPRING, ELSET=WK_130

9.801714e-02
*ELEMENT, TYPE=SPRINGA, ELSET=WK_131
   11780,     9851,    13845
*SPRING, ELSET=WK_131

9.801714e-02
*ELEMENT, TYPE=SPRINGA, ELSET=WK_132
   11781,     9854,    13846
*SPRING, ELSET=WK_132

9.801714e-02
*ELEMENT, TYPE=SPRINGA, ELSET=WK_133
   11782,     9857,    13847
*SPRING, ELSET=WK_133

9.801714e-02
*ELEMENT, TYPE=SPRINGA, ELSET=WK_134
   11783,     9860,    13848
*SPRING, ELSET=WK_134

9.801714e-02
*ELEMENT, TYPE=SPRINGA, ELSET=WK_135
   11784,     9863,    13849
*SPRING, ELSET=WK_135

9.801714e-02
*ELEMENT, TYPE=SPRINGA, ELSET=WK_136
   11785,     9866,    13850
*SPRING, ELSET=WK_136

9.801714e-02
*ELEMENT, TYPE=SPRINGA, ELSET=WK_137
   11786,     9869,    13851
*SPRING, ELSET=WK_137

9.801714e-02
*ELEMENT, TYPE=SPRINGA, ELSET=WK_138
   11787,     9872,    13852
*SPRING, ELSET=WK_138

9.801714e-02
*ELEMENT, TYPE=SPRINGA, ELSET=WK_139
   11788,     9875,    13853
*SPRING, ELSET=WK_139

9.801714e-02
*ELEMENT, TYPE=SPRINGA, ELSET=WK_140
   11789,     9878,    13854
*SPRING, ELSET=WK_140

9.801714e-02
*ELEMENT, TYPE=SPRINGA, ELSET=WK_141
   11790,     9881,    13855
*SPRING, ELSET=WK_141

9.801714e-02
*ELEMENT, TYPE=SPRINGA, ELSET=WK_142
   11791,     9884,    13856
*SPRING, ELSET=WK_142

9.801714e-02
*ELEMENT, TYPE=SPRINGA, ELSET=WK_143
   11792,     9887,    13857
*SPRING, ELSET=WK_143

9.801714e-02
*ELEMENT, TYPE=SPRINGA, ELSET=WK_144
   11793,     9890,    13858
*SPRING, ELSET=WK_144

9.801714e-02
*ELEMENT, TYPE=SPRINGA, ELSET=WK_145
   11794,     9893,    13859
*SPRING, ELSET=WK_145

9.801714e-02
*ELEMENT, TYPE=SPRINGA, ELSET=WK_146
   11795,     9896,    13860
*SPRING, ELSET=WK_146

9.801714e-02
*ELEMENT, TYPE=SPRINGA, ELSET=WK_147
   11796,     9899,    13861
*SPRING, ELSET=WK_147

9.801714e-02
*ELEMENT, TYPE=SPRINGA, ELSET=WK_148
   11797,     9902,    13862
*SPRING, ELSET=WK_148

9.801714e-02
*ELEMENT, TYPE=SPRINGA, ELSET=WK_149
   11798,     9905,    13863
*SPRING, ELSET=WK_149

9.801714e-02
*ELEMENT, TYPE=SPRINGA, ELSET=WK_150
   11799,     9908,    13864
*SPRING, ELSET=WK_150

9.801714e-02
*ELEMENT, TYPE=SPRINGA, ELSET=WK_151
   11800,     9911,    13865
*SPRING, ELSET=WK_151

9.801714e-02
*ELEMENT, TYPE=SPRINGA, ELSET=WK_152
   11801,     9914,    13866
*SPRING, ELSET=WK_152

9.801714e-02
*ELEMENT, TYPE=SPRINGA, ELSET=WK_153
   11802,     9917,    13867
*SPRING, ELSET=WK_153

9.801714e-02
*ELEMENT, TYPE=SPRINGA, ELSET=WK_154
   11803,     9920,    13868
*SPRING, ELSET=WK_154

9.801714e-02
*ELEMENT, TYPE=SPRINGA, ELSET=WK_155
   11804,     9923,    13869
*SPRING, ELSET=WK_155

9.801714e-02
*ELEMENT, TYPE=SPRINGA, ELSET=WK_156
   11805,     9926,    13870
*SPRING, ELSET=WK_156

9.801714e-02
*ELEMENT, TYPE=SPRINGA, ELSET=WK_157
   11806,     9929,    13871
*SPRING, ELSET=WK_157

9.801714e-02
*ELEMENT, TYPE=SPRINGA, ELSET=WK_158
   11807,     9932,    13872
*SPRING, ELSET=WK_158

9.801714e-02
*ELEMENT, TYPE=SPRINGA, ELSET=WK_159
   11808,     9935,    13873
*SPRING, ELSET=WK_159

9.801714e-02
*ELEMENT, TYPE=SPRINGA, ELSET=WK_160
   11809,     9938,    13874
*SPRING, ELSET=WK_160

9.801714e-02
*ELEMENT, TYPE=SPRINGA, ELSET=WK_161
   11810,     9941,    13875
*SPRING, ELSET=WK_161

9.801714e-02
*ELEMENT, TYPE=SPRINGA, ELSET=WK_162
   11811,     9944,    13876
*SPRING, ELSET=WK_162

9.801714e-02
*ELEMENT, TYPE=SPRINGA, ELSET=WK_163
   11812,     9947,    13877
*SPRING, ELSET=WK_163

9.801714e-02
*ELEMENT, TYPE=SPRINGA, ELSET=WK_164
   11813,     9950,    13878
*SPRING, ELSET=WK_164

9.801714e-02
*ELEMENT, TYPE=SPRINGA, ELSET=WK_165
   11814,     9953,    13879
*SPRING, ELSET=WK_165

9.801714e-02
*ELEMENT, TYPE=SPRINGA, ELSET=WK_166
   11815,     9956,    13880
*SPRING, ELSET=WK_166

9.801714e-02
*ELEMENT, TYPE=SPRINGA, ELSET=WK_167
   11816,     9959,    13881
*SPRING, ELSET=WK_167

9.801714e-02
*ELEMENT, TYPE=SPRINGA, ELSET=WK_168
   11817,     9962,    13882
*SPRING, ELSET=WK_168

9.801714e-02
*ELEMENT, TYPE=SPRINGA, ELSET=WK_169
   11818,     9965,    13883
*SPRING, ELSET=WK_169

9.801714e-02
*ELEMENT, TYPE=SPRINGA, ELSET=WK_170
   11819,     9968,    13884
*SPRING, ELSET=WK_170

9.801714e-02
*ELEMENT, TYPE=SPRINGA, ELSET=WK_171
   11820,     9971,    13885
*SPRING, ELSET=WK_171

9.801714e-02
*ELEMENT, TYPE=SPRINGA, ELSET=WK_172
   11821,     9974,    13886
*SPRING, ELSET=WK_172

9.801714e-02
*ELEMENT, TYPE=SPRINGA, ELSET=WK_173
   11822,     9977,    13887
*SPRING, ELSET=WK_173

9.801714e-02
*ELEMENT, TYPE=SPRINGA, ELSET=WK_174
   11823,     9980,    13888
*SPRING, ELSET=WK_174

9.801714e-02
*ELEMENT, TYPE=SPRINGA, ELSET=WK_175
   11824,     9983,    13889
*SPRING, ELSET=WK_175

9.801714e-02
*ELEMENT, TYPE=SPRINGA, ELSET=WK_176
   11825,     9986,    13890
*SPRING, ELSET=WK_176

9.801714e-02
*ELEMENT, TYPE=SPRINGA, ELSET=WK_177
   11826,     9989,    13891
*SPRING, ELSET=WK_177

9.801714e-02
*ELEMENT, TYPE=SPRINGA, ELSET=WK_178
   11827,     9992,    13892
*SPRING, ELSET=WK_178

9.801714e-02
*ELEMENT, TYPE=SPRINGA, ELSET=WK_179
   11828,     9995,    13893
*SPRING, ELSET=WK_179

9.801714e-02
*ELEMENT, TYPE=SPRINGA, ELSET=WK_180
   11829,     9998,    13894
*SPRING, ELSET=WK_180

9.801714e-02
*ELEMENT, TYPE=SPRINGA, ELSET=WK_181
   11830,    10001,    13895
*SPRING, ELSET=WK_181

9.801714e-02
*ELEMENT, TYPE=SPRINGA, ELSET=WK_182
   11831,    10004,    13896
*SPRING, ELSET=WK_182

9.801714e-02
*ELEMENT, TYPE=SPRINGA, ELSET=WK_183
   11832,    10007,    13897
*SPRING, ELSET=WK_183

9.801714e-02
*ELEMENT, TYPE=SPRINGA, ELSET=WK_184
   11833,    10010,    13898
*SPRING, ELSET=WK_184

9.801714e-02
*ELEMENT, TYPE=SPRINGA, ELSET=WK_185
   11834,    10013,    13899
*SPRING, ELSET=WK_185

9.801714e-02
*ELEMENT, TYPE=SPRINGA, ELSET=WK_186
   11835,    10016,    13900
*SPRING, ELSET=WK_186

9.801714e-02
*ELEMENT, TYPE=SPRINGA, ELSET=WK_187
   11836,    10019,    13901
*SPRING, ELSET=WK_187

9.801714e-02
*ELEMENT, TYPE=SPRINGA, ELSET=WK_188
   11837,    10022,    13902
*SPRING, ELSET=WK_188

9.801714e-02
*ELEMENT, TYPE=SPRINGA, ELSET=WK_189
   11838,    10025,    13903
*SPRING, ELSET=WK_189

9.801714e-02
*ELEMENT, TYPE=SPRINGA, ELSET=WK_190
   11839,    10028,    13904
*SPRING, ELSET=WK_190

9.801714e-02
*ELEMENT, TYPE=SPRINGA, ELSET=WK_191
   11840,    10031,    13905
*SPRING, ELSET=WK_191

9.801714e-02
*ELEMENT, TYPE=SPRINGA, ELSET=WK_192
   11841,    10034,    13906
*SPRING, ELSET=WK_192

9.801714e-02
*ELEMENT, TYPE=SPRINGA, ELSET=WK_193
   11842,    10037,    13907
*SPRING, ELSET=WK_193

9.801714e-02
*ELEMENT, TYPE=SPRINGA, ELSET=WK_194
   11843,    10040,    13908
*SPRING, ELSET=WK_194

9.801714e-02
*ELEMENT, TYPE=SPRINGA, ELSET=WK_195
   11844,    10043,    13909
*SPRING, ELSET=WK_195

9.801714e-02
*ELEMENT, TYPE=SPRINGA, ELSET=WK_196
   11845,    10046,    13910
*SPRING, ELSET=WK_196

9.801714e-02
*ELEMENT, TYPE=SPRINGA, ELSET=WK_197
   11846,    10049,    13911
*SPRING, ELSET=WK_197

9.801714e-02
*ELEMENT, TYPE=SPRINGA, ELSET=WK_198
   11847,    10052,    13912
*SPRING, ELSET=WK_198

9.801714e-02
*ELEMENT, TYPE=SPRINGA, ELSET=WK_199
   11848,    10055,    13913
*SPRING, ELSET=WK_199

9.801714e-02
*ELEMENT, TYPE=SPRINGA, ELSET=WK_200
   11849,    10058,    13914
*SPRING, ELSET=WK_200

9.801714e-02
*ELEMENT, TYPE=SPRINGA, ELSET=WK_201
   11850,    10061,    13915
*SPRING, ELSET=WK_201

7.351286e-02
*ELEMENT, TYPE=SPRINGA, ELSET=WK_202
   11851,    10064,    13916
*SPRING, ELSET=WK_202

4.900857e-02
*ELEMENT, TYPE=SPRINGA, ELSET=WK_203
   11852,    10067,    13917
*SPRING, ELSET=WK_203

7.351286e-02
*ELEMENT, TYPE=SPRINGA, ELSET=WK_204
   11853,    10070,    13918
*SPRING, ELSET=WK_204

9.801714e-02
*ELEMENT, TYPE=SPRINGA, ELSET=WK_205
   11854,    10073,    13919
*SPRING, ELSET=WK_205

9.801714e-02
*ELEMENT, TYPE=SPRINGA, ELSET=WK_206
   11855,    10076,    13920
*SPRING, ELSET=WK_206

9.801714e-02
*ELEMENT, TYPE=SPRINGA, ELSET=WK_207
   11856,    10079,    13921
*SPRING, ELSET=WK_207

9.801714e-02
*ELEMENT, TYPE=SPRINGA, ELSET=WK_208
   11857,    10082,    13922
*SPRING, ELSET=WK_208

9.801714e-02
*ELEMENT, TYPE=SPRINGA, ELSET=WK_209
   11858,    10085,    13923
*SPRING, ELSET=WK_209

9.801714e-02
*ELEMENT, TYPE=SPRINGA, ELSET=WK_210
   11859,    10088,    13924
*SPRING, ELSET=WK_210

7.351286e-02
*ELEMENT, TYPE=SPRINGA, ELSET=WK_211
   11860,    10091,    13925
*SPRING, ELSET=WK_211

4.900857e-02
*ELEMENT, TYPE=SPRINGA, ELSET=WK_212
   11861,    10094,    13926
*SPRING, ELSET=WK_212

7.351286e-02
*ELEMENT, TYPE=SPRINGA, ELSET=WK_213
   11862,    10097,    13927
*SPRING, ELSET=WK_213

9.801714e-02
*ELEMENT, TYPE=SPRINGA, ELSET=WK_214
   11863,    10100,    13928
*SPRING, ELSET=WK_214

9.801714e-02
*ELEMENT, TYPE=SPRINGA, ELSET=WK_215
   11864,    10103,    13929
*SPRING, ELSET=WK_215

9.801714e-02
*ELEMENT, TYPE=SPRINGA, ELSET=WK_216
   11865,    10106,    13930
*SPRING, ELSET=WK_216

9.801714e-02
*ELEMENT, TYPE=SPRINGA, ELSET=WK_217
   11866,    10109,    13931
*SPRING, ELSET=WK_217

9.801714e-02
*ELEMENT, TYPE=SPRINGA, ELSET=WK_218
   11867,    10112,    13932
*SPRING, ELSET=WK_218

9.801714e-02
*ELEMENT, TYPE=SPRINGA, ELSET=WK_219
   11868,    10115,    13933
*SPRING, ELSET=WK_219

9.801714e-02
*ELEMENT, TYPE=SPRINGA, ELSET=WK_220
   11869,    10118,    13934
*SPRING, ELSET=WK_220

9.801714e-02
*ELEMENT, TYPE=SPRINGA, ELSET=WK_221
   11870,    10121,    13935
*SPRING, ELSET=WK_221

9.801714e-02
*ELEMENT, TYPE=SPRINGA, ELSET=WK_222
   11871,    10124,    13936
*SPRING, ELSET=WK_222

9.801714e-02
*ELEMENT, TYPE=SPRINGA, ELSET=WK_223
   11872,    10127,    13937
*SPRING, ELSET=WK_223

9.801714e-02
*ELEMENT, TYPE=SPRINGA, ELSET=WK_224
   11873,    10130,    13938
*SPRING, ELSET=WK_224

9.801714e-02
*ELEMENT, TYPE=SPRINGA, ELSET=WK_225
   11874,    10133,    13939
*SPRING, ELSET=WK_225

9.801714e-02
*ELEMENT, TYPE=SPRINGA, ELSET=WK_226
   11875,    10136,    13940
*SPRING, ELSET=WK_226

9.801714e-02
*ELEMENT, TYPE=SPRINGA, ELSET=WK_227
   11876,    10139,    13941
*SPRING, ELSET=WK_227

9.801714e-02
*ELEMENT, TYPE=SPRINGA, ELSET=WK_228
   11877,    10142,    13942
*SPRING, ELSET=WK_228

9.801714e-02
*ELEMENT, TYPE=SPRINGA, ELSET=WK_229
   11878,    10145,    13943
*SPRING, ELSET=WK_229

9.801714e-02
*ELEMENT, TYPE=SPRINGA, ELSET=WK_230
   11879,    10148,    13944
*SPRING, ELSET=WK_230

9.801714e-02
*ELEMENT, TYPE=SPRINGA, ELSET=WK_231
   11880,    10151,    13945
*SPRING, ELSET=WK_231

9.801714e-02
*ELEMENT, TYPE=SPRINGA, ELSET=WK_232
   11881,    10154,    13946
*SPRING, ELSET=WK_232

9.801714e-02
*ELEMENT, TYPE=SPRINGA, ELSET=WK_233
   11882,    10157,    13947
*SPRING, ELSET=WK_233

9.801714e-02
*ELEMENT, TYPE=SPRINGA, ELSET=WK_234
   11883,    10160,    13948
*SPRING, ELSET=WK_234

9.801714e-02
*ELEMENT, TYPE=SPRINGA, ELSET=WK_235
   11884,    10163,    13949
*SPRING, ELSET=WK_235

9.801714e-02
*ELEMENT, TYPE=SPRINGA, ELSET=WK_236
   11885,    10166,    13950
*SPRING, ELSET=WK_236

9.801714e-02
*ELEMENT, TYPE=SPRINGA, ELSET=WK_237
   11886,    10169,    13951
*SPRING, ELSET=WK_237

9.801714e-02
*ELEMENT, TYPE=SPRINGA, ELSET=WK_238
   11887,    10172,    13952
*SPRING, ELSET=WK_238

9.801714e-02
*ELEMENT, TYPE=SPRINGA, ELSET=WK_239
   11888,    10175,    13953
*SPRING, ELSET=WK_239

9.801714e-02
*ELEMENT, TYPE=SPRINGA, ELSET=WK_240
   11889,    10178,    13954
*SPRING, ELSET=WK_240

9.801714e-02
*ELEMENT, TYPE=SPRINGA, ELSET=WK_241
   11890,    10181,    13955
*SPRING, ELSET=WK_241

9.801714e-02
*ELEMENT, TYPE=SPRINGA, ELSET=WK_242
   11891,    10184,    13956
*SPRING, ELSET=WK_242

9.801714e-02
*ELEMENT, TYPE=SPRINGA, ELSET=WK_243
   11892,    10187,    13957
*SPRING, ELSET=WK_243

9.801714e-02
*ELEMENT, TYPE=SPRINGA, ELSET=WK_244
   11893,    10190,    13958
*SPRING, ELSET=WK_244

9.801714e-02
*ELEMENT, TYPE=SPRINGA, ELSET=WK_245
   11894,    10193,    13959
*SPRING, ELSET=WK_245

9.801714e-02
*ELEMENT, TYPE=SPRINGA, ELSET=WK_246
   11895,    10196,    13960
*SPRING, ELSET=WK_246

9.801714e-02
*ELEMENT, TYPE=SPRINGA, ELSET=WK_247
   11896,    10199,    13961
*SPRING, ELSET=WK_247

9.801714e-02
*ELEMENT, TYPE=SPRINGA, ELSET=WK_248
   11897,    10202,    13962
*SPRING, ELSET=WK_248

9.801714e-02
*ELEMENT, TYPE=SPRINGA, ELSET=WK_249
   11898,    10205,    13963
*SPRING, ELSET=WK_249

9.801714e-02
*ELEMENT, TYPE=SPRINGA, ELSET=WK_250
   11899,    10208,    13964
*SPRING, ELSET=WK_250

9.801714e-02
*ELEMENT, TYPE=SPRINGA, ELSET=WK_251
   11900,    10211,    13965
*SPRING, ELSET=WK_251

9.801714e-02
*ELEMENT, TYPE=SPRINGA, ELSET=WK_252
   11901,    10214,    13966
*SPRING, ELSET=WK_252

9.801714e-02
*ELEMENT, TYPE=SPRINGA, ELSET=WK_253
   11902,    10217,    13967
*SPRING, ELSET=WK_253

9.801714e-02
*ELEMENT, TYPE=SPRINGA, ELSET=WK_254
   11903,    10220,    13968
*SPRING, ELSET=WK_254

9.801714e-02
*ELEMENT, TYPE=SPRINGA, ELSET=WK_255
   11904,    10223,    13969
*SPRING, ELSET=WK_255

9.801714e-02
*ELEMENT, TYPE=SPRINGA, ELSET=WK_256
   11905,    10226,    13970
*SPRING, ELSET=WK_256

9.801714e-02
*ELEMENT, TYPE=SPRINGA, ELSET=WK_257
   11906,    10229,    13971
*SPRING, ELSET=WK_257

9.801714e-02
*ELEMENT, TYPE=SPRINGA, ELSET=WK_258
   11907,    10232,    13972
*SPRING, ELSET=WK_258

9.801714e-02
*ELEMENT, TYPE=SPRINGA, ELSET=WK_259
   11908,    10235,    13973
*SPRING, ELSET=WK_259

9.801714e-02
*ELEMENT, TYPE=SPRINGA, ELSET=WK_260
   11909,    10238,    13974
*SPRING, ELSET=WK_260

9.801714e-02
*ELEMENT, TYPE=SPRINGA, ELSET=WK_261
   11910,    10241,    13975
*SPRING, ELSET=WK_261

9.801714e-02
*ELEMENT, TYPE=SPRINGA, ELSET=WK_262
   11911,    10244,    13976
*SPRING, ELSET=WK_262

9.801714e-02
*ELEMENT, TYPE=SPRINGA, ELSET=WK_263
   11912,    10247,    13977
*SPRING, ELSET=WK_263

9.801714e-02
*ELEMENT, TYPE=SPRINGA, ELSET=WK_264
   11913,    10250,    13978
*SPRING, ELSET=WK_264

9.801714e-02
*ELEMENT, TYPE=SPRINGA, ELSET=WK_265
   11914,    10253,    13979
*SPRING, ELSET=WK_265

9.801714e-02
*ELEMENT, TYPE=SPRINGA, ELSET=WK_266
   11915,    10256,    13980
*SPRING, ELSET=WK_266

9.801714e-02
*ELEMENT, TYPE=SPRINGA, ELSET=WK_267
   11916,    10259,    13981
*SPRING, ELSET=WK_267

9.801714e-02
*ELEMENT, TYPE=SPRINGA, ELSET=WK_268
   11917,    10262,    13982
*SPRING, ELSET=WK_268

9.801714e-02
*ELEMENT, TYPE=SPRINGA, ELSET=WK_269
   11918,    10265,    13983
*SPRING, ELSET=WK_269

9.801714e-02
*ELEMENT, TYPE=SPRINGA, ELSET=WK_270
   11919,    10268,    13984
*SPRING, ELSET=WK_270

4.900857e-02
*ELEMENT, TYPE=SPRINGA, ELSET=WK_271
   11920,    10271,    13985
*SPRING, ELSET=WK_271

4.900857e-02
*ELEMENT, TYPE=SPRINGA, ELSET=WK_272
   11921,    10274,    13986
*SPRING, ELSET=WK_272

4.900857e-02
*ELEMENT, TYPE=SPRINGA, ELSET=WK_273
   11922,    10277,    13987
*SPRING, ELSET=WK_273

4.900857e-02
*ELEMENT, TYPE=SPRINGA, ELSET=WK_274
   11923,    10280,    13988
*SPRING, ELSET=WK_274

4.900857e-02
*ELEMENT, TYPE=SPRINGA, ELSET=WK_275
   11924,    10283,    13989
*SPRING, ELSET=WK_275

4.900857e-02
*ELEMENT, TYPE=SPRINGA, ELSET=WK_276
   11925,    10286,    13990
*SPRING, ELSET=WK_276

4.900857e-02
*ELEMENT, TYPE=SPRINGA, ELSET=WK_277
   11926,    10289,    13991
*SPRING, ELSET=WK_277

4.900857e-02
*ELEMENT, TYPE=SPRINGA, ELSET=WK_278
   11927,    10292,    13992
*SPRING, ELSET=WK_278

4.900857e-02
*ELEMENT, TYPE=SPRINGA, ELSET=WK_279
   11928,    10295,    13993
*SPRING, ELSET=WK_279

4.900857e-02
*ELEMENT, TYPE=SPRINGA, ELSET=WK_280
   11929,    10298,    13994
*SPRING, ELSET=WK_280

4.900857e-02
*ELEMENT, TYPE=SPRINGA, ELSET=WK_281
   11930,    10301,    13995
*SPRING, ELSET=WK_281

4.900857e-02
*ELEMENT, TYPE=SPRINGA, ELSET=WK_282
   11931,    10304,    13996
*SPRING, ELSET=WK_282

4.900857e-02
*ELEMENT, TYPE=SPRINGA, ELSET=WK_283
   11932,    10307,    13997
*SPRING, ELSET=WK_283

4.900857e-02
*ELEMENT, TYPE=SPRINGA, ELSET=WK_284
   11933,    10310,    13998
*SPRING, ELSET=WK_284

4.900857e-02
*ELEMENT, TYPE=SPRINGA, ELSET=WK_285
   11934,    10313,    13999
*SPRING, ELSET=WK_285

4.900857e-02
*ELEMENT, TYPE=SPRINGA, ELSET=WK_286
   11935,    10316,    14000
*SPRING, ELSET=WK_286

4.900857e-02
*ELEMENT, TYPE=SPRINGA, ELSET=WK_287
   11936,    10319,    14001
*SPRING, ELSET=WK_287

9.801714e-02
*ELEMENT, TYPE=SPRINGA, ELSET=WK_288
   11937,    10322,    14002
*SPRING, ELSET=WK_288

9.801714e-02
*ELEMENT, TYPE=SPRINGA, ELSET=WK_289
   11938,    10325,    14003
*SPRING, ELSET=WK_289

9.801714e-02
*ELEMENT, TYPE=SPRINGA, ELSET=WK_290
   11939,    10328,    14004
*SPRING, ELSET=WK_290

9.801714e-02
*ELEMENT, TYPE=SPRINGA, ELSET=WK_291
   11940,    10331,    14005
*SPRING, ELSET=WK_291

9.801714e-02
*ELEMENT, TYPE=SPRINGA, ELSET=WK_292
   11941,    10334,    14006
*SPRING, ELSET=WK_292

9.801714e-02
*ELEMENT, TYPE=SPRINGA, ELSET=WK_293
   11942,    10337,    14007
*SPRING, ELSET=WK_293

9.801714e-02
*ELEMENT, TYPE=SPRINGA, ELSET=WK_294
   11943,    10340,    14008
*SPRING, ELSET=WK_294

9.801714e-02
*ELEMENT, TYPE=SPRINGA, ELSET=WK_295
   11944,    10343,    14009
*SPRING, ELSET=WK_295

9.801714e-02
*ELEMENT, TYPE=SPRINGA, ELSET=WK_296
   11945,    10346,    14010
*SPRING, ELSET=WK_296

9.801714e-02
*ELEMENT, TYPE=SPRINGA, ELSET=WK_297
   11946,    10349,    14011
*SPRING, ELSET=WK_297

9.801714e-02
*ELEMENT, TYPE=SPRINGA, ELSET=WK_298
   11947,    10352,    14012
*SPRING, ELSET=WK_298

9.801714e-02
*ELEMENT, TYPE=SPRINGA, ELSET=WK_299
   11948,    10355,    14013
*SPRING, ELSET=WK_299

9.801714e-02
*ELEMENT, TYPE=SPRINGA, ELSET=WK_300
   11949,    10358,    14014
*SPRING, ELSET=WK_300

9.801714e-02
*ELEMENT, TYPE=SPRINGA, ELSET=WK_301
   11950,    10361,    14015
*SPRING, ELSET=WK_301

9.801714e-02
*ELEMENT, TYPE=SPRINGA, ELSET=WK_302
   11951,    10364,    14016
*SPRING, ELSET=WK_302

9.801714e-02
*ELEMENT, TYPE=SPRINGA, ELSET=WK_303
   11952,    10367,    14017
*SPRING, ELSET=WK_303

9.801714e-02
*ELEMENT, TYPE=SPRINGA, ELSET=WK_304
   11953,    10370,    14018
*SPRING, ELSET=WK_304

9.801714e-02
*ELEMENT, TYPE=SPRINGA, ELSET=WK_305
   11954,    10373,    14019
*SPRING, ELSET=WK_305

9.801714e-02
*ELEMENT, TYPE=SPRINGA, ELSET=WK_306
   11955,    10376,    14020
*SPRING, ELSET=WK_306

9.801714e-02
*ELEMENT, TYPE=SPRINGA, ELSET=WK_307
   11956,    10379,    14021
*SPRING, ELSET=WK_307

9.801714e-02
*ELEMENT, TYPE=SPRINGA, ELSET=WK_308
   11957,    10382,    14022
*SPRING, ELSET=WK_308

9.801714e-02
*ELEMENT, TYPE=SPRINGA, ELSET=WK_309
   11958,    10385,    14023
*SPRING, ELSET=WK_309

9.801714e-02
*ELEMENT, TYPE=SPRINGA, ELSET=WK_310
   11959,    10388,    14024
*SPRING, ELSET=WK_310

9.801714e-02
*ELEMENT, TYPE=SPRINGA, ELSET=WK_311
   11960,    10391,    14025
*SPRING, ELSET=WK_311

9.801714e-02
*ELEMENT, TYPE=SPRINGA, ELSET=WK_312
   11961,    10394,    14026
*SPRING, ELSET=WK_312

9.801714e-02
*ELEMENT, TYPE=SPRINGA, ELSET=WK_313
   11962,    10397,    14027
*SPRING, ELSET=WK_313

9.801714e-02
*ELEMENT, TYPE=SPRINGA, ELSET=WK_314
   11963,    10400,    14028
*SPRING, ELSET=WK_314

9.801714e-02
*ELEMENT, TYPE=SPRINGA, ELSET=WK_315
   11964,    10403,    14029
*SPRING, ELSET=WK_315

9.801714e-02
*ELEMENT, TYPE=SPRINGA, ELSET=WK_316
   11965,    10406,    14030
*SPRING, ELSET=WK_316

9.801714e-02
*ELEMENT, TYPE=SPRINGA, ELSET=WK_317
   11966,    10409,    14031
*SPRING, ELSET=WK_317

9.801714e-02
*ELEMENT, TYPE=SPRINGA, ELSET=WK_318
   11967,    10412,    14032
*SPRING, ELSET=WK_318

9.801714e-02
*ELEMENT, TYPE=SPRINGA, ELSET=WK_319
   11968,    10415,    14033
*SPRING, ELSET=WK_319

9.801714e-02
*ELEMENT, TYPE=SPRINGA, ELSET=WK_320
   11969,    10418,    14034
*SPRING, ELSET=WK_320

9.801714e-02
*ELEMENT, TYPE=SPRINGA, ELSET=WK_321
   11970,    10421,    14035
*SPRING, ELSET=WK_321

9.801714e-02
*ELEMENT, TYPE=SPRINGA, ELSET=WK_322
   11971,    10424,    14036
*SPRING, ELSET=WK_322

9.801714e-02
*ELEMENT, TYPE=SPRINGA, ELSET=WK_323
   11972,    10427,    14037
*SPRING, ELSET=WK_323

9.801714e-02
*ELEMENT, TYPE=SPRINGA, ELSET=WK_324
   11973,    10430,    14038
*SPRING, ELSET=WK_324

9.801714e-02
*ELEMENT, TYPE=SPRINGA, ELSET=WK_325
   11974,    10433,    14039
*SPRING, ELSET=WK_325

9.801714e-02
*ELEMENT, TYPE=SPRINGA, ELSET=WK_326
   11975,    10436,    14040
*SPRING, ELSET=WK_326

9.801714e-02
*ELEMENT, TYPE=SPRINGA, ELSET=WK_327
   11976,    10439,    14041
*SPRING, ELSET=WK_327

9.801714e-02
*ELEMENT, TYPE=SPRINGA, ELSET=WK_328
   11977,    10442,    14042
*SPRING, ELSET=WK_328

9.801714e-02
*ELEMENT, TYPE=SPRINGA, ELSET=WK_329
   11978,    10445,    14043
*SPRING, ELSET=WK_329

9.801714e-02
*ELEMENT, TYPE=SPRINGA, ELSET=WK_330
   11979,    10448,    14044
*SPRING, ELSET=WK_330

9.801714e-02
*ELEMENT, TYPE=SPRINGA, ELSET=WK_331
   11980,    10451,    14045
*SPRING, ELSET=WK_331

9.801714e-02
*ELEMENT, TYPE=SPRINGA, ELSET=WK_332
   11981,    10454,    14046
*SPRING, ELSET=WK_332

9.801714e-02
*ELEMENT, TYPE=SPRINGA, ELSET=WK_333
   11982,    10457,    14047
*SPRING, ELSET=WK_333

9.801714e-02
*ELEMENT, TYPE=SPRINGA, ELSET=WK_334
   11983,    10460,    14048
*SPRING, ELSET=WK_334

9.801714e-02
*ELEMENT, TYPE=SPRINGA, ELSET=WK_335
   11984,    10463,    14049
*SPRING, ELSET=WK_335

9.801714e-02
*ELEMENT, TYPE=SPRINGA, ELSET=WK_336
   11985,    10466,    14050
*SPRING, ELSET=WK_336

9.801714e-02
*ELEMENT, TYPE=SPRINGA, ELSET=WK_337
   11986,    10469,    14051
*SPRING, ELSET=WK_337

9.801714e-02
*ELEMENT, TYPE=SPRINGA, ELSET=WK_338
   11987,    10472,    14052
*SPRING, ELSET=WK_338

9.801714e-02
*ELEMENT, TYPE=SPRINGA, ELSET=WK_339
   11988,    10475,    14053
*SPRING, ELSET=WK_339

9.801714e-02
*ELEMENT, TYPE=SPRINGA, ELSET=WK_340
   11989,    10478,    14054
*SPRING, ELSET=WK_340

9.801714e-02
*ELEMENT, TYPE=SPRINGA, ELSET=WK_341
   11990,    10481,    14055
*SPRING, ELSET=WK_341

9.801714e-02
*ELEMENT, TYPE=SPRINGA, ELSET=WK_342
   11991,    10484,    14056
*SPRING, ELSET=WK_342

9.801714e-02
*ELEMENT, TYPE=SPRINGA, ELSET=WK_343
   11992,    10487,    14057
*SPRING, ELSET=WK_343

9.801714e-02
*ELEMENT, TYPE=SPRINGA, ELSET=WK_344
   11993,    10490,    14058
*SPRING, ELSET=WK_344

9.801714e-02
*ELEMENT, TYPE=SPRINGA, ELSET=WK_345
   11994,    10493,    14059
*SPRING, ELSET=WK_345

9.801714e-02
*ELEMENT, TYPE=SPRINGA, ELSET=WK_346
   11995,    10496,    14060
*SPRING, ELSET=WK_346

9.801714e-02
*ELEMENT, TYPE=SPRINGA, ELSET=WK_347
   11996,    10499,    14061
*SPRING, ELSET=WK_347

9.801714e-02
*ELEMENT, TYPE=SPRINGA, ELSET=WK_348
   11997,    10502,    14062
*SPRING, ELSET=WK_348

9.801714e-02
*ELEMENT, TYPE=SPRINGA, ELSET=WK_349
   11998,    10505,    14063
*SPRING, ELSET=WK_349

9.801714e-02
*ELEMENT, TYPE=SPRINGA, ELSET=WK_350
   11999,    10508,    14064
*SPRING, ELSET=WK_350

9.801714e-02
*ELEMENT, TYPE=SPRINGA, ELSET=WK_351
   12000,    10511,    14065
*SPRING, ELSET=WK_351

9.801714e-02
*ELEMENT, TYPE=SPRINGA, ELSET=WK_352
   12001,    10514,    14066
*SPRING, ELSET=WK_352

9.801714e-02
*ELEMENT, TYPE=SPRINGA, ELSET=WK_353
   12002,    10517,    14067
*SPRING, ELSET=WK_353

9.801714e-02
*ELEMENT, TYPE=SPRINGA, ELSET=WK_354
   12003,    10520,    14068
*SPRING, ELSET=WK_354

9.801714e-02
*ELEMENT, TYPE=SPRINGA, ELSET=WK_355
   12004,    10523,    14069
*SPRING, ELSET=WK_355

9.801714e-02
*ELEMENT, TYPE=SPRINGA, ELSET=WK_356
   12005,    10526,    14070
*SPRING, ELSET=WK_356

9.801714e-02
*ELEMENT, TYPE=SPRINGA, ELSET=WK_357
   12006,    10529,    14071
*SPRING, ELSET=WK_357

9.801714e-02
*ELEMENT, TYPE=SPRINGA, ELSET=WK_358
   12007,    10532,    14072
*SPRING, ELSET=WK_358

9.801714e-02
*ELEMENT, TYPE=SPRINGA, ELSET=WK_359
   12008,    10535,    14073
*SPRING, ELSET=WK_359

9.801714e-02
*ELEMENT, TYPE=SPRINGA, ELSET=WK_360
   12009,    10538,    14074
*SPRING, ELSET=WK_360

9.801714e-02
*ELEMENT, TYPE=SPRINGA, ELSET=WK_361
   12010,    10541,    14075
*SPRING, ELSET=WK_361

9.801714e-02
*ELEMENT, TYPE=SPRINGA, ELSET=WK_362
   12011,    10544,    14076
*SPRING, ELSET=WK_362

9.801714e-02
*ELEMENT, TYPE=SPRINGA, ELSET=WK_363
   12012,    10547,    14077
*SPRING, ELSET=WK_363

9.801714e-02
*ELEMENT, TYPE=SPRINGA, ELSET=WK_364
   12013,    10550,    14078
*SPRING, ELSET=WK_364

9.801714e-02
*ELEMENT, TYPE=SPRINGA, ELSET=WK_365
   12014,    10553,    14079
*SPRING, ELSET=WK_365

9.801714e-02
*ELEMENT, TYPE=SPRINGA, ELSET=WK_366
   12015,    10556,    14080
*SPRING, ELSET=WK_366

9.801714e-02
*ELEMENT, TYPE=SPRINGA, ELSET=WK_367
   12016,    10559,    14081
*SPRING, ELSET=WK_367

9.801714e-02
*ELEMENT, TYPE=SPRINGA, ELSET=WK_368
   12017,    10562,    14082
*SPRING, ELSET=WK_368

9.801714e-02
*ELEMENT, TYPE=SPRINGA, ELSET=WK_369
   12018,    10565,    14083
*SPRING, ELSET=WK_369

9.801714e-02
*ELEMENT, TYPE=SPRINGA, ELSET=WK_370
   12019,    10568,    14084
*SPRING, ELSET=WK_370

9.801714e-02
*ELEMENT, TYPE=SPRINGA, ELSET=WK_371
   12020,    10571,    14085
*SPRING, ELSET=WK_371

9.801714e-02
*ELEMENT, TYPE=SPRINGA, ELSET=WK_372
   12021,    10574,    14086
*SPRING, ELSET=WK_372

9.801714e-02
*ELEMENT, TYPE=SPRINGA, ELSET=WK_373
   12022,    10577,    14087
*SPRING, ELSET=WK_373

9.801714e-02
*ELEMENT, TYPE=SPRINGA, ELSET=WK_374
   12023,    10580,    14088
*SPRING, ELSET=WK_374

9.801714e-02
*ELEMENT, TYPE=SPRINGA, ELSET=WK_375
   12024,    10583,    14089
*SPRING, ELSET=WK_375

9.801714e-02
*ELEMENT, TYPE=SPRINGA, ELSET=WK_376
   12025,    10586,    14090
*SPRING, ELSET=WK_376

9.801714e-02
*ELEMENT, TYPE=SPRINGA, ELSET=WK_377
   12026,    10589,    14091
*SPRING, ELSET=WK_377

9.801714e-02
*ELEMENT, TYPE=SPRINGA, ELSET=WK_378
   12027,    10592,    14092
*SPRING, ELSET=WK_378

9.801714e-02
*ELEMENT, TYPE=SPRINGA, ELSET=WK_379
   12028,    10595,    14093
*SPRING, ELSET=WK_379

9.801714e-02
*ELEMENT, TYPE=SPRINGA, ELSET=WK_380
   12029,    10598,    14094
*SPRING, ELSET=WK_380

9.801714e-02
*ELEMENT, TYPE=SPRINGA, ELSET=WK_381
   12030,    10601,    14095
*SPRING, ELSET=WK_381

9.801714e-02
*ELEMENT, TYPE=SPRINGA, ELSET=WK_382
   12031,    10604,    14096
*SPRING, ELSET=WK_382

9.801714e-02
*ELEMENT, TYPE=SPRINGA, ELSET=WK_383
   12032,    10607,    14097
*SPRING, ELSET=WK_383

9.801714e-02
*ELEMENT, TYPE=SPRINGA, ELSET=WK_384
   12033,    10610,    14098
*SPRING, ELSET=WK_384

9.801714e-02
*ELEMENT, TYPE=SPRINGA, ELSET=WK_385
   12034,    10613,    14099
*SPRING, ELSET=WK_385

9.801714e-02
*ELEMENT, TYPE=SPRINGA, ELSET=WK_386
   12035,    10616,    14100
*SPRING, ELSET=WK_386

9.801714e-02
*ELEMENT, TYPE=SPRINGA, ELSET=WK_387
   12036,    10619,    14101
*SPRING, ELSET=WK_387

9.801714e-02
*ELEMENT, TYPE=SPRINGA, ELSET=WK_388
   12037,    10622,    14102
*SPRING, ELSET=WK_388

9.801714e-02
*ELEMENT, TYPE=SPRINGA, ELSET=WK_389
   12038,    10625,    14103
*SPRING, ELSET=WK_389

9.801714e-02
*ELEMENT, TYPE=SPRINGA, ELSET=WK_390
   12039,    10628,    14104
*SPRING, ELSET=WK_390

9.801714e-02
*ELEMENT, TYPE=SPRINGA, ELSET=WK_391
   12040,    10631,    14105
*SPRING, ELSET=WK_391

9.801714e-02
*ELEMENT, TYPE=SPRINGA, ELSET=WK_392
   12041,    10634,    14106
*SPRING, ELSET=WK_392

9.801714e-02
*ELEMENT, TYPE=SPRINGA, ELSET=WK_393
   12042,    10637,    14107
*SPRING, ELSET=WK_393

9.801714e-02
*ELEMENT, TYPE=SPRINGA, ELSET=WK_394
   12043,    10640,    14108
*SPRING, ELSET=WK_394

9.801714e-02
*ELEMENT, TYPE=SPRINGA, ELSET=WK_395
   12044,    10643,    14109
*SPRING, ELSET=WK_395

9.801714e-02
*ELEMENT, TYPE=SPRINGA, ELSET=WK_396
   12045,    10646,    14110
*SPRING, ELSET=WK_396

9.801714e-02
*ELEMENT, TYPE=SPRINGA, ELSET=WK_397
   12046,    10649,    14111
*SPRING, ELSET=WK_397

9.801714e-02
*ELEMENT, TYPE=SPRINGA, ELSET=WK_398
   12047,    10652,    14112
*SPRING, ELSET=WK_398

9.801714e-02
*ELEMENT, TYPE=SPRINGA, ELSET=WK_399
   12048,    10655,    14113
*SPRING, ELSET=WK_399

9.801714e-02
*ELEMENT, TYPE=SPRINGA, ELSET=WK_400
   12049,    10658,    14114
*SPRING, ELSET=WK_400

9.801714e-02
*ELEMENT, TYPE=SPRINGA, ELSET=WK_401
   12050,    10661,    14115
*SPRING, ELSET=WK_401

9.801714e-02
*ELEMENT, TYPE=SPRINGA, ELSET=WK_402
   12051,    10664,    14116
*SPRING, ELSET=WK_402

9.801714e-02
*ELEMENT, TYPE=SPRINGA, ELSET=WK_403
   12052,    10667,    14117
*SPRING, ELSET=WK_403

9.801714e-02
*ELEMENT, TYPE=SPRINGA, ELSET=WK_404
   12053,    10670,    14118
*SPRING, ELSET=WK_404

9.801714e-02
*ELEMENT, TYPE=SPRINGA, ELSET=WK_405
   12054,    10673,    14119
*SPRING, ELSET=WK_405

9.801714e-02
*ELEMENT, TYPE=SPRINGA, ELSET=WK_406
   12055,    10676,    14120
*SPRING, ELSET=WK_406

9.801714e-02
*ELEMENT, TYPE=SPRINGA, ELSET=WK_407
   12056,    10679,    14121
*SPRING, ELSET=WK_407

9.801714e-02
*ELEMENT, TYPE=SPRINGA, ELSET=WK_408
   12057,    10682,    14122
*SPRING, ELSET=WK_408

9.801714e-02
*ELEMENT, TYPE=SPRINGA, ELSET=WK_409
   12058,    10685,    14123
*SPRING, ELSET=WK_409

9.801714e-02
*ELEMENT, TYPE=SPRINGA, ELSET=WK_410
   12059,    10688,    14124
*SPRING, ELSET=WK_410

9.801714e-02
*ELEMENT, TYPE=SPRINGA, ELSET=WK_411
   12060,    10691,    14125
*SPRING, ELSET=WK_411

9.801714e-02
*ELEMENT, TYPE=SPRINGA, ELSET=WK_412
   12061,    10694,    14126
*SPRING, ELSET=WK_412

9.801714e-02
*ELEMENT, TYPE=SPRINGA, ELSET=WK_413
   12062,    10697,    14127
*SPRING, ELSET=WK_413

9.801714e-02
*ELEMENT, TYPE=SPRINGA, ELSET=WK_414
   12063,    10700,    14128
*SPRING, ELSET=WK_414

9.801714e-02
*ELEMENT, TYPE=SPRINGA, ELSET=WK_415
   12064,    10703,    14129
*SPRING, ELSET=WK_415

9.801714e-02
*ELEMENT, TYPE=SPRINGA, ELSET=WK_416
   12065,    10706,    14130
*SPRING, ELSET=WK_416

9.801714e-02
*ELEMENT, TYPE=SPRINGA, ELSET=WK_417
   12066,    10709,    14131
*SPRING, ELSET=WK_417

9.801714e-02
*ELEMENT, TYPE=SPRINGA, ELSET=WK_418
   12067,    10712,    14132
*SPRING, ELSET=WK_418

9.801714e-02
*ELEMENT, TYPE=SPRINGA, ELSET=WK_419
   12068,    10715,    14133
*SPRING, ELSET=WK_419

9.801714e-02
*ELEMENT, TYPE=SPRINGA, ELSET=WK_420
   12069,    10718,    14134
*SPRING, ELSET=WK_420

9.801714e-02
*ELEMENT, TYPE=SPRINGA, ELSET=WK_421
   12070,    10721,    14135
*SPRING, ELSET=WK_421

9.801714e-02
*ELEMENT, TYPE=SPRINGA, ELSET=WK_422
   12071,    10724,    14136
*SPRING, ELSET=WK_422

9.801714e-02
*ELEMENT, TYPE=SPRINGA, ELSET=WK_423
   12072,    10727,    14137
*SPRING, ELSET=WK_423

9.801714e-02
*ELEMENT, TYPE=SPRINGA, ELSET=WK_424
   12073,    10730,    14138
*SPRING, ELSET=WK_424

9.801714e-02
*ELEMENT, TYPE=SPRINGA, ELSET=WK_425
   12074,    10733,    14139
*SPRING, ELSET=WK_425

9.801714e-02
*ELEMENT, TYPE=SPRINGA, ELSET=WK_426
   12075,    10736,    14140
*SPRING, ELSET=WK_426

9.801714e-02
*ELEMENT, TYPE=SPRINGA, ELSET=WK_427
   12076,    10739,    14141
*SPRING, ELSET=WK_427

9.801714e-02
*ELEMENT, TYPE=SPRINGA, ELSET=WK_428
   12077,    10742,    14142
*SPRING, ELSET=WK_428

9.801714e-02
*ELEMENT, TYPE=SPRINGA, ELSET=WK_429
   12078,    10745,    14143
*SPRING, ELSET=WK_429

9.801714e-02
*ELEMENT, TYPE=SPRINGA, ELSET=WK_430
   12079,    10748,    14144
*SPRING, ELSET=WK_430

9.801714e-02
*ELEMENT, TYPE=SPRINGA, ELSET=WK_431
   12080,    10751,    14145
*SPRING, ELSET=WK_431

9.801714e-02
*ELEMENT, TYPE=SPRINGA, ELSET=WK_432
   12081,    10754,    14146
*SPRING, ELSET=WK_432

9.801714e-02
*ELEMENT, TYPE=SPRINGA, ELSET=WK_433
   12082,    10757,    14147
*SPRING, ELSET=WK_433

9.801714e-02
*ELEMENT, TYPE=SPRINGA, ELSET=WK_434
   12083,    10760,    14148
*SPRING, ELSET=WK_434

9.801714e-02
*ELEMENT, TYPE=SPRINGA, ELSET=WK_435
   12084,    10763,    14149
*SPRING, ELSET=WK_435

9.801714e-02
*ELEMENT, TYPE=SPRINGA, ELSET=WK_436
   12085,    10766,    14150
*SPRING, ELSET=WK_436

9.801714e-02
*ELEMENT, TYPE=SPRINGA, ELSET=WK_437
   12086,    10769,    14151
*SPRING, ELSET=WK_437

9.801714e-02
*ELEMENT, TYPE=SPRINGA, ELSET=WK_438
   12087,    10772,    14152
*SPRING, ELSET=WK_438

9.801714e-02
*ELEMENT, TYPE=SPRINGA, ELSET=WK_439
   12088,    10775,    14153
*SPRING, ELSET=WK_439

9.801714e-02
*ELEMENT, TYPE=SPRINGA, ELSET=WK_440
   12089,    10778,    14154
*SPRING, ELSET=WK_440

9.801714e-02
*ELEMENT, TYPE=SPRINGA, ELSET=WK_441
   12090,    10781,    14155
*SPRING, ELSET=WK_441

9.801714e-02
*ELEMENT, TYPE=SPRINGA, ELSET=WK_442
   12091,    10784,    14156
*SPRING, ELSET=WK_442

9.801714e-02
*ELEMENT, TYPE=SPRINGA, ELSET=WK_443
   12092,    10787,    14157
*SPRING, ELSET=WK_443

9.801714e-02
*ELEMENT, TYPE=SPRINGA, ELSET=WK_444
   12093,    10790,    14158
*SPRING, ELSET=WK_444

9.801714e-02
*ELEMENT, TYPE=SPRINGA, ELSET=WK_445
   12094,    10793,    14159
*SPRING, ELSET=WK_445

9.801714e-02
*ELEMENT, TYPE=SPRINGA, ELSET=WK_446
   12095,    10796,    14160
*SPRING, ELSET=WK_446

9.801714e-02
*ELEMENT, TYPE=SPRINGA, ELSET=WK_447
   12096,    10799,    14161
*SPRING, ELSET=WK_447

9.801714e-02
*ELEMENT, TYPE=SPRINGA, ELSET=WK_448
   12097,    10802,    14162
*SPRING, ELSET=WK_448

9.801714e-02
*ELEMENT, TYPE=SPRINGA, ELSET=WK_449
   12098,    10805,    14163
*SPRING, ELSET=WK_449

9.801714e-02
*ELEMENT, TYPE=SPRINGA, ELSET=WK_450
   12099,    10808,    14164
*SPRING, ELSET=WK_450

9.801714e-02
*ELEMENT, TYPE=SPRINGA, ELSET=WK_451
   12100,    10811,    14165
*SPRING, ELSET=WK_451

9.801714e-02
*ELEMENT, TYPE=SPRINGA, ELSET=WK_452
   12101,    10814,    14166
*SPRING, ELSET=WK_452

9.801714e-02
*ELEMENT, TYPE=SPRINGA, ELSET=WK_453
   12102,    10817,    14167
*SPRING, ELSET=WK_453

9.801714e-02
*ELEMENT, TYPE=SPRINGA, ELSET=WK_454
   12103,    10820,    14168
*SPRING, ELSET=WK_454

9.801714e-02
*ELEMENT, TYPE=SPRINGA, ELSET=WK_455
   12104,    10823,    14169
*SPRING, ELSET=WK_455

9.801714e-02
*ELEMENT, TYPE=SPRINGA, ELSET=WK_456
   12105,    10826,    14170
*SPRING, ELSET=WK_456

9.801714e-02
*ELEMENT, TYPE=SPRINGA, ELSET=WK_457
   12106,    10829,    14171
*SPRING, ELSET=WK_457

9.801714e-02
*ELEMENT, TYPE=SPRINGA, ELSET=WK_458
   12107,    10832,    14172
*SPRING, ELSET=WK_458

9.801714e-02
*ELEMENT, TYPE=SPRINGA, ELSET=WK_459
   12108,    10835,    14173
*SPRING, ELSET=WK_459

9.801714e-02
*ELEMENT, TYPE=SPRINGA, ELSET=WK_460
   12109,    10838,    14174
*SPRING, ELSET=WK_460

9.801714e-02
*ELEMENT, TYPE=SPRINGA, ELSET=WK_461
   12110,    10841,    14175
*SPRING, ELSET=WK_461

9.801714e-02
*ELEMENT, TYPE=SPRINGA, ELSET=WK_462
   12111,    10844,    14176
*SPRING, ELSET=WK_462

9.801714e-02
*ELEMENT, TYPE=SPRINGA, ELSET=WK_463
   12112,    10847,    14177
*SPRING, ELSET=WK_463

9.801714e-02
*ELEMENT, TYPE=SPRINGA, ELSET=WK_464
   12113,    10850,    14178
*SPRING, ELSET=WK_464

9.801714e-02
*ELEMENT, TYPE=SPRINGA, ELSET=WK_465
   12114,    10853,    14179
*SPRING, ELSET=WK_465

9.801714e-02
*ELEMENT, TYPE=SPRINGA, ELSET=WK_466
   12115,    10856,    14180
*SPRING, ELSET=WK_466

9.801714e-02
*ELEMENT, TYPE=SPRINGA, ELSET=WK_467
   12116,    10859,    14181
*SPRING, ELSET=WK_467

9.801714e-02
*ELEMENT, TYPE=SPRINGA, ELSET=WK_468
   12117,    10862,    14182
*SPRING, ELSET=WK_468

9.801714e-02
*ELEMENT, TYPE=SPRINGA, ELSET=WK_469
   12118,    10865,    14183
*SPRING, ELSET=WK_469

9.801714e-02
*ELEMENT, TYPE=SPRINGA, ELSET=WK_470
   12119,    10868,    14184
*SPRING, ELSET=WK_470

9.801714e-02
*ELEMENT, TYPE=SPRINGA, ELSET=WK_471
   12120,    10871,    14185
*SPRING, ELSET=WK_471

9.801714e-02
*ELEMENT, TYPE=SPRINGA, ELSET=WK_472
   12121,    10874,    14186
*SPRING, ELSET=WK_472

9.801714e-02
*ELEMENT, TYPE=SPRINGA, ELSET=WK_473
   12122,    10877,    14187
*SPRING, ELSET=WK_473

9.801714e-02
*ELEMENT, TYPE=SPRINGA, ELSET=WK_474
   12123,    10880,    14188
*SPRING, ELSET=WK_474

9.801714e-02
*ELEMENT, TYPE=SPRINGA, ELSET=WK_475
   12124,    10883,    14189
*SPRING, ELSET=WK_475

9.801714e-02
*ELEMENT, TYPE=SPRINGA, ELSET=WK_476
   12125,    10886,    14190
*SPRING, ELSET=WK_476

9.801714e-02
*ELEMENT, TYPE=SPRINGA, ELSET=WK_477
   12126,    10889,    14191
*SPRING, ELSET=WK_477

9.801714e-02
*ELEMENT, TYPE=SPRINGA, ELSET=WK_478
   12127,    10892,    14192
*SPRING, ELSET=WK_478

9.801714e-02
*ELEMENT, TYPE=SPRINGA, ELSET=WK_479
   12128,    10895,    14193
*SPRING, ELSET=WK_479

9.801714e-02
*ELEMENT, TYPE=SPRINGA, ELSET=WK_480
   12129,    10898,    14194
*SPRING, ELSET=WK_480

9.801714e-02
*ELEMENT, TYPE=SPRINGA, ELSET=WK_481
   12130,    10901,    14195
*SPRING, ELSET=WK_481

9.801714e-02
*ELEMENT, TYPE=SPRINGA, ELSET=WK_482
   12131,    10904,    14196
*SPRING, ELSET=WK_482

9.801714e-02
*ELEMENT, TYPE=SPRINGA, ELSET=WK_483
   12132,    10907,    14197
*SPRING, ELSET=WK_483

9.801714e-02
*ELEMENT, TYPE=SPRINGA, ELSET=WK_484
   12133,    10910,    14198
*SPRING, ELSET=WK_484

9.801714e-02
*ELEMENT, TYPE=SPRINGA, ELSET=WK_485
   12134,    10913,    14199
*SPRING, ELSET=WK_485

9.801714e-02
*ELEMENT, TYPE=SPRINGA, ELSET=WK_486
   12135,    10916,    14200
*SPRING, ELSET=WK_486

9.801714e-02
*ELEMENT, TYPE=SPRINGA, ELSET=WK_487
   12136,    10919,    14201
*SPRING, ELSET=WK_487

9.801714e-02
*ELEMENT, TYPE=SPRINGA, ELSET=WK_488
   12137,    10922,    14202
*SPRING, ELSET=WK_488

9.801714e-02
*ELEMENT, TYPE=SPRINGA, ELSET=WK_489
   12138,    10925,    14203
*SPRING, ELSET=WK_489

9.801714e-02
*ELEMENT, TYPE=SPRINGA, ELSET=WK_490
   12139,    10928,    14204
*SPRING, ELSET=WK_490

9.801714e-02
*ELEMENT, TYPE=SPRINGA, ELSET=WK_491
   12140,    10931,    14205
*SPRING, ELSET=WK_491

9.801714e-02
*ELEMENT, TYPE=SPRINGA, ELSET=WK_492
   12141,    10934,    14206
*SPRING, ELSET=WK_492

9.801714e-02
*ELEMENT, TYPE=SPRINGA, ELSET=WK_493
   12142,    10937,    14207
*SPRING, ELSET=WK_493

9.801714e-02
*ELEMENT, TYPE=SPRINGA, ELSET=WK_494
   12143,    10940,    14208
*SPRING, ELSET=WK_494

9.801714e-02
*ELEMENT, TYPE=SPRINGA, ELSET=WK_495
   12144,    10943,    14209
*SPRING, ELSET=WK_495

9.801714e-02
*ELEMENT, TYPE=SPRINGA, ELSET=WK_496
   12145,    10946,    14210
*SPRING, ELSET=WK_496

9.801714e-02
*ELEMENT, TYPE=SPRINGA, ELSET=WK_497
   12146,    10949,    14211
*SPRING, ELSET=WK_497

9.801714e-02
*ELEMENT, TYPE=SPRINGA, ELSET=WK_498
   12147,    10952,    14212
*SPRING, ELSET=WK_498

9.801714e-02
*ELEMENT, TYPE=SPRINGA, ELSET=WK_499
   12148,    10955,    14213
*SPRING, ELSET=WK_499

9.801714e-02
*ELEMENT, TYPE=SPRINGA, ELSET=WK_500
   12149,    10958,    14214
*SPRING, ELSET=WK_500

9.801714e-02
*ELEMENT, TYPE=SPRINGA, ELSET=WK_501
   12150,    10961,    14215
*SPRING, ELSET=WK_501

9.801714e-02
*ELEMENT, TYPE=SPRINGA, ELSET=WK_502
   12151,    10964,    14216
*SPRING, ELSET=WK_502

9.801714e-02
*ELEMENT, TYPE=SPRINGA, ELSET=WK_503
   12152,    10967,    14217
*SPRING, ELSET=WK_503

9.801714e-02
*ELEMENT, TYPE=SPRINGA, ELSET=WK_504
   12153,    10970,    14218
*SPRING, ELSET=WK_504

9.801714e-02
*ELEMENT, TYPE=SPRINGA, ELSET=WK_505
   12154,    10973,    14219
*SPRING, ELSET=WK_505

9.801714e-02
*ELEMENT, TYPE=SPRINGA, ELSET=WK_506
   12155,    10976,    14220
*SPRING, ELSET=WK_506

9.801714e-02
*ELEMENT, TYPE=SPRINGA, ELSET=WK_507
   12156,    10979,    14221
*SPRING, ELSET=WK_507

9.801714e-02
*ELEMENT, TYPE=SPRINGA, ELSET=WK_508
   12157,    10982,    14222
*SPRING, ELSET=WK_508

9.801714e-02
*ELEMENT, TYPE=SPRINGA, ELSET=WK_509
   12158,    10985,    14223
*SPRING, ELSET=WK_509

9.801714e-02
*ELEMENT, TYPE=SPRINGA, ELSET=WK_510
   12159,    10988,    14224
*SPRING, ELSET=WK_510

9.801714e-02
*ELEMENT, TYPE=SPRINGA, ELSET=WK_511
   12160,    10991,    14225
*SPRING, ELSET=WK_511

9.801714e-02
*ELEMENT, TYPE=SPRINGA, ELSET=WK_512
   12161,    10994,    14226
*SPRING, ELSET=WK_512

9.801714e-02
*ELEMENT, TYPE=SPRINGA, ELSET=WK_513
   12162,    10997,    14227
*SPRING, ELSET=WK_513

9.801714e-02
*ELEMENT, TYPE=SPRINGA, ELSET=WK_514
   12163,    11000,    14228
*SPRING, ELSET=WK_514

9.801714e-02
*ELEMENT, TYPE=SPRINGA, ELSET=WK_515
   12164,    11003,    14229
*SPRING, ELSET=WK_515

9.801714e-02
*ELEMENT, TYPE=SPRINGA, ELSET=WK_516
   12165,    11006,    14230
*SPRING, ELSET=WK_516

9.801714e-02
*ELEMENT, TYPE=SPRINGA, ELSET=WK_517
   12166,    11009,    14231
*SPRING, ELSET=WK_517

9.801714e-02
*ELEMENT, TYPE=SPRINGA, ELSET=WK_518
   12167,    11012,    14232
*SPRING, ELSET=WK_518

9.801714e-02
*ELEMENT, TYPE=SPRINGA, ELSET=WK_519
   12168,    11015,    14233
*SPRING, ELSET=WK_519

4.900857e-02
*ELEMENT, TYPE=SPRINGA, ELSET=WK_520
   12169,    11018,    14234
*SPRING, ELSET=WK_520

4.900857e-02
*ELEMENT, TYPE=SPRINGA, ELSET=WK_521
   12170,    11021,    14235
*SPRING, ELSET=WK_521

4.900857e-02
*ELEMENT, TYPE=SPRINGA, ELSET=WK_522
   12171,    11024,    14236
*SPRING, ELSET=WK_522

4.900857e-02
*ELEMENT, TYPE=SPRINGA, ELSET=WK_523
   12172,    11027,    14237
*SPRING, ELSET=WK_523

4.900857e-02
*ELEMENT, TYPE=SPRINGA, ELSET=WK_524
   12173,    11030,    14238
*SPRING, ELSET=WK_524

4.900857e-02
*ELEMENT, TYPE=SPRINGA, ELSET=WK_525
   12174,    11033,    14239
*SPRING, ELSET=WK_525

4.900857e-02
*ELEMENT, TYPE=SPRINGA, ELSET=WK_526
   12175,    11036,    14240
*SPRING, ELSET=WK_526

4.900857e-02
*ELEMENT, TYPE=SPRINGA, ELSET=WK_527
   12176,    11039,    14241
*SPRING, ELSET=WK_527

4.900857e-02
*ELEMENT, TYPE=SPRINGA, ELSET=WK_528
   12177,    11042,    14242
*SPRING, ELSET=WK_528

4.900857e-02
*ELEMENT, TYPE=SPRINGA, ELSET=WK_529
   12178,    11045,    14243
*SPRING, ELSET=WK_529

4.900857e-02
*ELEMENT, TYPE=SPRINGA, ELSET=WK_530
   12179,    11048,    14244
*SPRING, ELSET=WK_530

4.900857e-02
*ELEMENT, TYPE=SPRINGA, ELSET=WK_531
   12180,    11051,    14245
*SPRING, ELSET=WK_531

4.900857e-02
*ELEMENT, TYPE=SPRINGA, ELSET=WK_532
   12181,    11054,    14246
*SPRING, ELSET=WK_532

4.900857e-02
*ELEMENT, TYPE=SPRINGA, ELSET=WK_533
   12182,    11057,    14247
*SPRING, ELSET=WK_533

4.900857e-02
*ELEMENT, TYPE=SPRINGA, ELSET=WK_534
   12183,    11060,    14248
*SPRING, ELSET=WK_534

4.900857e-02
*ELEMENT, TYPE=SPRINGA, ELSET=WK_535
   12184,    11063,    14249
*SPRING, ELSET=WK_535

9.801714e-02
*ELEMENT, TYPE=SPRINGA, ELSET=WK_536
   12185,    11066,    14250
*SPRING, ELSET=WK_536

9.801714e-02
*ELEMENT, TYPE=SPRINGA, ELSET=WK_537
   12186,    11069,    14251
*SPRING, ELSET=WK_537

9.801714e-02
*ELEMENT, TYPE=SPRINGA, ELSET=WK_538
   12187,    11072,    14252
*SPRING, ELSET=WK_538

9.801714e-02
*ELEMENT, TYPE=SPRINGA, ELSET=WK_539
   12188,    11075,    14253
*SPRING, ELSET=WK_539

9.801714e-02
*ELEMENT, TYPE=SPRINGA, ELSET=WK_540
   12189,    11078,    14254
*SPRING, ELSET=WK_540

9.801714e-02
*ELEMENT, TYPE=SPRINGA, ELSET=WK_541
   12190,    11081,    14255
*SPRING, ELSET=WK_541

9.801714e-02
*ELEMENT, TYPE=SPRINGA, ELSET=WK_542
   12191,    11084,    14256
*SPRING, ELSET=WK_542

9.801714e-02
*ELEMENT, TYPE=SPRINGA, ELSET=WK_543
   12192,    11087,    14257
*SPRING, ELSET=WK_543

9.801714e-02
*ELEMENT, TYPE=SPRINGA, ELSET=WK_544
   12193,    11090,    14258
*SPRING, ELSET=WK_544

9.801714e-02
*ELEMENT, TYPE=SPRINGA, ELSET=WK_545
   12194,    11093,    14259
*SPRING, ELSET=WK_545

9.801714e-02
*ELEMENT, TYPE=SPRINGA, ELSET=WK_546
   12195,    11096,    14260
*SPRING, ELSET=WK_546

9.801714e-02
*ELEMENT, TYPE=SPRINGA, ELSET=WK_547
   12196,    11099,    14261
*SPRING, ELSET=WK_547

9.801714e-02
*ELEMENT, TYPE=SPRINGA, ELSET=WK_548
   12197,    11102,    14262
*SPRING, ELSET=WK_548

9.801714e-02
*ELEMENT, TYPE=SPRINGA, ELSET=WK_549
   12198,    11105,    14263
*SPRING, ELSET=WK_549

9.801714e-02
*ELEMENT, TYPE=SPRINGA, ELSET=WK_550
   12199,    11108,    14264
*SPRING, ELSET=WK_550

9.801714e-02
*ELEMENT, TYPE=SPRINGA, ELSET=WK_551
   12200,    11111,    14265
*SPRING, ELSET=WK_551

9.801714e-02
*ELEMENT, TYPE=SPRINGA, ELSET=WK_552
   12201,    11114,    14266
*SPRING, ELSET=WK_552

9.801714e-02
*ELEMENT, TYPE=SPRINGA, ELSET=WK_553
   12202,    11117,    14267
*SPRING, ELSET=WK_553

9.801714e-02
*ELEMENT, TYPE=SPRINGA, ELSET=WK_554
   12203,    11120,    14268
*SPRING, ELSET=WK_554

9.801714e-02
*ELEMENT, TYPE=SPRINGA, ELSET=WK_555
   12204,    11123,    14269
*SPRING, ELSET=WK_555

9.801714e-02
*ELEMENT, TYPE=SPRINGA, ELSET=WK_556
   12205,    11126,    14270
*SPRING, ELSET=WK_556

9.801714e-02
*ELEMENT, TYPE=SPRINGA, ELSET=WK_557
   12206,    11129,    14271
*SPRING, ELSET=WK_557

9.801714e-02
*ELEMENT, TYPE=SPRINGA, ELSET=WK_558
   12207,    11132,    14272
*SPRING, ELSET=WK_558

9.801714e-02
*ELEMENT, TYPE=SPRINGA, ELSET=WK_559
   12208,    11135,    14273
*SPRING, ELSET=WK_559

9.801714e-02
*ELEMENT, TYPE=SPRINGA, ELSET=WK_560
   12209,    11138,    14274
*SPRING, ELSET=WK_560

9.801714e-02
*ELEMENT, TYPE=SPRINGA, ELSET=WK_561
   12210,    11141,    14275
*SPRING, ELSET=WK_561

9.801714e-02
*ELEMENT, TYPE=SPRINGA, ELSET=WK_562
   12211,    11144,    14276
*SPRING, ELSET=WK_562

9.801714e-02
*ELEMENT, TYPE=SPRINGA, ELSET=WK_563
   12212,    11147,    14277
*SPRING, ELSET=WK_563

9.801714e-02
*ELEMENT, TYPE=SPRINGA, ELSET=WK_564
   12213,    11150,    14278
*SPRING, ELSET=WK_564

9.801714e-02
*ELEMENT, TYPE=SPRINGA, ELSET=WK_565
   12214,    11153,    14279
*SPRING, ELSET=WK_565

9.801714e-02
*ELEMENT, TYPE=SPRINGA, ELSET=WK_566
   12215,    11156,    14280
*SPRING, ELSET=WK_566

9.801714e-02
*ELEMENT, TYPE=SPRINGA, ELSET=WK_567
   12216,    11159,    14281
*SPRING, ELSET=WK_567

9.801714e-02
*ELEMENT, TYPE=SPRINGA, ELSET=WK_568
   12217,    11162,    14282
*SPRING, ELSET=WK_568

9.801714e-02
*ELEMENT, TYPE=SPRINGA, ELSET=WK_569
   12218,    11165,    14283
*SPRING, ELSET=WK_569

9.801714e-02
*ELEMENT, TYPE=SPRINGA, ELSET=WK_570
   12219,    11168,    14284
*SPRING, ELSET=WK_570

9.801714e-02
*ELEMENT, TYPE=SPRINGA, ELSET=WK_571
   12220,    11171,    14285
*SPRING, ELSET=WK_571

9.801714e-02
*ELEMENT, TYPE=SPRINGA, ELSET=WK_572
   12221,    11174,    14286
*SPRING, ELSET=WK_572

9.801714e-02
*ELEMENT, TYPE=SPRINGA, ELSET=WK_573
   12222,    11177,    14287
*SPRING, ELSET=WK_573

9.801714e-02
*ELEMENT, TYPE=SPRINGA, ELSET=WK_574
   12223,    11180,    14288
*SPRING, ELSET=WK_574

9.801714e-02
*ELEMENT, TYPE=SPRINGA, ELSET=WK_575
   12224,    11183,    14289
*SPRING, ELSET=WK_575

9.801714e-02
*ELEMENT, TYPE=SPRINGA, ELSET=WK_576
   12225,    11186,    14290
*SPRING, ELSET=WK_576

9.801714e-02
*ELEMENT, TYPE=SPRINGA, ELSET=WK_577
   12226,    11189,    14291
*SPRING, ELSET=WK_577

9.801714e-02
*ELEMENT, TYPE=SPRINGA, ELSET=WK_578
   12227,    11192,    14292
*SPRING, ELSET=WK_578

9.801714e-02
*ELEMENT, TYPE=SPRINGA, ELSET=WK_579
   12228,    11195,    14293
*SPRING, ELSET=WK_579

9.801714e-02
*ELEMENT, TYPE=SPRINGA, ELSET=WK_580
   12229,    11198,    14294
*SPRING, ELSET=WK_580

9.801714e-02
*ELEMENT, TYPE=SPRINGA, ELSET=WK_581
   12230,    11201,    14295
*SPRING, ELSET=WK_581

9.801714e-02
*ELEMENT, TYPE=SPRINGA, ELSET=WK_582
   12231,    11204,    14296
*SPRING, ELSET=WK_582

9.801714e-02
*ELEMENT, TYPE=SPRINGA, ELSET=WK_583
   12232,    11207,    14297
*SPRING, ELSET=WK_583

9.801714e-02
*ELEMENT, TYPE=SPRINGA, ELSET=WK_584
   12233,    11210,    14298
*SPRING, ELSET=WK_584

9.801714e-02
*ELEMENT, TYPE=SPRINGA, ELSET=WK_585
   12234,    11213,    14299
*SPRING, ELSET=WK_585

9.801714e-02
*ELEMENT, TYPE=SPRINGA, ELSET=WK_586
   12235,    11216,    14300
*SPRING, ELSET=WK_586

9.801714e-02
*ELEMENT, TYPE=SPRINGA, ELSET=WK_587
   12236,    11219,    14301
*SPRING, ELSET=WK_587

9.801714e-02
*ELEMENT, TYPE=SPRINGA, ELSET=WK_588
   12237,    11222,    14302
*SPRING, ELSET=WK_588

9.801714e-02
*ELEMENT, TYPE=SPRINGA, ELSET=WK_589
   12238,    11225,    14303
*SPRING, ELSET=WK_589

9.801714e-02
*ELEMENT, TYPE=SPRINGA, ELSET=WK_590
   12239,    11228,    14304
*SPRING, ELSET=WK_590

9.801714e-02
*ELEMENT, TYPE=SPRINGA, ELSET=WK_591
   12240,    11231,    14305
*SPRING, ELSET=WK_591

9.801714e-02
*ELEMENT, TYPE=SPRINGA, ELSET=WK_592
   12241,    11234,    14306
*SPRING, ELSET=WK_592

9.801714e-02
*ELEMENT, TYPE=SPRINGA, ELSET=WK_593
   12242,    11237,    14307
*SPRING, ELSET=WK_593

9.801714e-02
*ELEMENT, TYPE=SPRINGA, ELSET=WK_594
   12243,    11240,    14308
*SPRING, ELSET=WK_594

9.801714e-02
*ELEMENT, TYPE=SPRINGA, ELSET=WK_595
   12244,    11243,    14309
*SPRING, ELSET=WK_595

9.801714e-02
*ELEMENT, TYPE=SPRINGA, ELSET=WK_596
   12245,    11246,    14310
*SPRING, ELSET=WK_596

9.801714e-02
*ELEMENT, TYPE=SPRINGA, ELSET=WK_597
   12246,    11249,    14311
*SPRING, ELSET=WK_597

9.801714e-02
*ELEMENT, TYPE=SPRINGA, ELSET=WK_598
   12247,    11252,    14312
*SPRING, ELSET=WK_598

9.801714e-02
*ELEMENT, TYPE=SPRINGA, ELSET=WK_599
   12248,    11255,    14313
*SPRING, ELSET=WK_599

9.801714e-02
*ELEMENT, TYPE=SPRINGA, ELSET=WK_600
   12249,    11258,    14314
*SPRING, ELSET=WK_600

9.801714e-02
*ELEMENT, TYPE=SPRINGA, ELSET=WK_601
   12250,    11261,    14315
*SPRING, ELSET=WK_601

9.801714e-02
*ELEMENT, TYPE=SPRINGA, ELSET=WK_602
   12251,    11264,    14316
*SPRING, ELSET=WK_602

9.801714e-02
*ELEMENT, TYPE=SPRINGA, ELSET=WK_603
   12252,    11267,    14317
*SPRING, ELSET=WK_603

9.801714e-02
*ELEMENT, TYPE=SPRINGA, ELSET=WK_604
   12253,    11270,    14318
*SPRING, ELSET=WK_604

9.801714e-02
*ELEMENT, TYPE=SPRINGA, ELSET=WK_605
   12254,    11273,    14319
*SPRING, ELSET=WK_605

9.801714e-02
*ELEMENT, TYPE=SPRINGA, ELSET=WK_606
   12255,    11276,    14320
*SPRING, ELSET=WK_606

9.801714e-02
*ELEMENT, TYPE=SPRINGA, ELSET=WK_607
   12256,    11279,    14321
*SPRING, ELSET=WK_607

9.801714e-02
*ELEMENT, TYPE=SPRINGA, ELSET=WK_608
   12257,    11282,    14322
*SPRING, ELSET=WK_608

9.801714e-02
*ELEMENT, TYPE=SPRINGA, ELSET=WK_609
   12258,    11285,    14323
*SPRING, ELSET=WK_609

9.801714e-02
*ELEMENT, TYPE=SPRINGA, ELSET=WK_610
   12259,    11288,    14324
*SPRING, ELSET=WK_610

9.801714e-02
*ELEMENT, TYPE=SPRINGA, ELSET=WK_611
   12260,    11291,    14325
*SPRING, ELSET=WK_611

9.801714e-02
*ELEMENT, TYPE=SPRINGA, ELSET=WK_612
   12261,    11294,    14326
*SPRING, ELSET=WK_612

9.801714e-02
*ELEMENT, TYPE=SPRINGA, ELSET=WK_613
   12262,    11297,    14327
*SPRING, ELSET=WK_613

9.801714e-02
*ELEMENT, TYPE=SPRINGA, ELSET=WK_614
   12263,    11300,    14328
*SPRING, ELSET=WK_614

9.801714e-02
*ELEMENT, TYPE=SPRINGA, ELSET=WK_615
   12264,    11303,    14329
*SPRING, ELSET=WK_615

9.801714e-02
*ELEMENT, TYPE=SPRINGA, ELSET=WK_616
   12265,    11306,    14330
*SPRING, ELSET=WK_616

9.801714e-02
*ELEMENT, TYPE=SPRINGA, ELSET=WK_617
   12266,    11309,    14331
*SPRING, ELSET=WK_617

9.801714e-02
*ELEMENT, TYPE=SPRINGA, ELSET=WK_618
   12267,    11312,    14332
*SPRING, ELSET=WK_618

9.801714e-02
*ELEMENT, TYPE=SPRINGA, ELSET=WK_619
   12268,    11315,    14333
*SPRING, ELSET=WK_619

9.801714e-02
*ELEMENT, TYPE=SPRINGA, ELSET=WK_620
   12269,    11318,    14334
*SPRING, ELSET=WK_620

9.801714e-02
*ELEMENT, TYPE=SPRINGA, ELSET=WK_621
   12270,    11321,    14335
*SPRING, ELSET=WK_621

9.801714e-02
*ELEMENT, TYPE=SPRINGA, ELSET=WK_622
   12271,    11324,    14336
*SPRING, ELSET=WK_622

9.801714e-02
*ELEMENT, TYPE=SPRINGA, ELSET=WK_623
   12272,    11327,    14337
*SPRING, ELSET=WK_623

9.801714e-02
*ELEMENT, TYPE=SPRINGA, ELSET=WK_624
   12273,    11330,    14338
*SPRING, ELSET=WK_624

9.801714e-02
*ELEMENT, TYPE=SPRINGA, ELSET=WK_625
   12274,    11333,    14339
*SPRING, ELSET=WK_625

9.801714e-02
*ELEMENT, TYPE=SPRINGA, ELSET=WK_626
   12275,    11336,    14340
*SPRING, ELSET=WK_626

9.801714e-02
*ELEMENT, TYPE=SPRINGA, ELSET=WK_627
   12276,    11339,    14341
*SPRING, ELSET=WK_627

9.801714e-02
*ELEMENT, TYPE=SPRINGA, ELSET=WK_628
   12277,    11342,    14342
*SPRING, ELSET=WK_628

9.801714e-02
*ELEMENT, TYPE=SPRINGA, ELSET=WK_629
   12278,    11345,    14343
*SPRING, ELSET=WK_629

9.801714e-02
*ELEMENT, TYPE=SPRINGA, ELSET=WK_630
   12279,    11348,    14344
*SPRING, ELSET=WK_630

9.801714e-02
*ELEMENT, TYPE=SPRINGA, ELSET=WK_631
   12280,    11351,    14345
*SPRING, ELSET=WK_631

9.801714e-02
*ELEMENT, TYPE=SPRINGA, ELSET=WK_632
   12281,    11354,    14346
*SPRING, ELSET=WK_632

9.801714e-02
*ELEMENT, TYPE=SPRINGA, ELSET=WK_633
   12282,    11357,    14347
*SPRING, ELSET=WK_633

9.801714e-02
*ELEMENT, TYPE=SPRINGA, ELSET=WK_634
   12283,    11360,    14348
*SPRING, ELSET=WK_634

9.801714e-02
*ELEMENT, TYPE=SPRINGA, ELSET=WK_635
   12284,    11363,    14349
*SPRING, ELSET=WK_635

9.801714e-02
*ELEMENT, TYPE=SPRINGA, ELSET=WK_636
   12285,    11366,    14350
*SPRING, ELSET=WK_636

9.801714e-02
*ELEMENT, TYPE=SPRINGA, ELSET=WK_637
   12286,    11369,    14351
*SPRING, ELSET=WK_637

9.801714e-02
*ELEMENT, TYPE=SPRINGA, ELSET=WK_638
   12287,    11372,    14352
*SPRING, ELSET=WK_638

9.801714e-02
*ELEMENT, TYPE=SPRINGA, ELSET=WK_639
   12288,    11375,    14353
*SPRING, ELSET=WK_639

9.801714e-02
*ELEMENT, TYPE=SPRINGA, ELSET=WK_640
   12289,    11378,    14354
*SPRING, ELSET=WK_640

9.801714e-02
*ELEMENT, TYPE=SPRINGA, ELSET=WK_641
   12290,    11381,    14355
*SPRING, ELSET=WK_641

9.801714e-02
*ELEMENT, TYPE=SPRINGA, ELSET=WK_642
   12291,    11384,    14356
*SPRING, ELSET=WK_642

9.801714e-02
*ELEMENT, TYPE=SPRINGA, ELSET=WK_643
   12292,    11387,    14357
*SPRING, ELSET=WK_643

9.801714e-02
*ELEMENT, TYPE=SPRINGA, ELSET=WK_644
   12293,    11390,    14358
*SPRING, ELSET=WK_644

9.801714e-02
*ELEMENT, TYPE=SPRINGA, ELSET=WK_645
   12294,    11393,    14359
*SPRING, ELSET=WK_645

9.801714e-02
*ELEMENT, TYPE=SPRINGA, ELSET=WK_646
   12295,    11396,    14360
*SPRING, ELSET=WK_646

9.801714e-02
*ELEMENT, TYPE=SPRINGA, ELSET=WK_647
   12296,    11399,    14361
*SPRING, ELSET=WK_647

9.801714e-02
*ELEMENT, TYPE=SPRINGA, ELSET=WK_648
   12297,    11402,    14362
*SPRING, ELSET=WK_648

9.801714e-02
*ELEMENT, TYPE=SPRINGA, ELSET=WK_649
   12298,    11405,    14363
*SPRING, ELSET=WK_649

9.801714e-02
*ELEMENT, TYPE=SPRINGA, ELSET=WK_650
   12299,    11408,    14364
*SPRING, ELSET=WK_650

9.801714e-02
*ELEMENT, TYPE=SPRINGA, ELSET=WK_651
   12300,    11411,    14365
*SPRING, ELSET=WK_651

9.801714e-02
*ELEMENT, TYPE=SPRINGA, ELSET=WK_652
   12301,    11414,    14366
*SPRING, ELSET=WK_652

9.801714e-02
*ELEMENT, TYPE=SPRINGA, ELSET=WK_653
   12302,    11417,    14367
*SPRING, ELSET=WK_653

9.801714e-02
*ELEMENT, TYPE=SPRINGA, ELSET=WK_654
   12303,    11420,    14368
*SPRING, ELSET=WK_654

9.801714e-02
*ELEMENT, TYPE=SPRINGA, ELSET=WK_655
   12304,    11423,    14369
*SPRING, ELSET=WK_655

9.801714e-02
*ELEMENT, TYPE=SPRINGA, ELSET=WK_656
   12305,    11426,    14370
*SPRING, ELSET=WK_656

9.801714e-02
*ELEMENT, TYPE=SPRINGA, ELSET=WK_657
   12306,    11429,    14371
*SPRING, ELSET=WK_657

9.801714e-02
*ELEMENT, TYPE=SPRINGA, ELSET=WK_658
   12307,    11432,    14372
*SPRING, ELSET=WK_658

9.801714e-02
*ELEMENT, TYPE=SPRINGA, ELSET=WK_659
   12308,    11435,    14373
*SPRING, ELSET=WK_659

9.801714e-02
*ELEMENT, TYPE=SPRINGA, ELSET=WK_660
   12309,    11438,    14374
*SPRING, ELSET=WK_660

9.801714e-02
*ELEMENT, TYPE=SPRINGA, ELSET=WK_661
   12310,    11441,    14375
*SPRING, ELSET=WK_661

9.801714e-02
*ELEMENT, TYPE=SPRINGA, ELSET=WK_662
   12311,    11444,    14376
*SPRING, ELSET=WK_662

9.801714e-02
*ELEMENT, TYPE=SPRINGA, ELSET=WK_663
   12312,    11447,    14377
*SPRING, ELSET=WK_663

9.801714e-02
*ELEMENT, TYPE=SPRINGA, ELSET=WK_664
   12313,    11450,    14378
*SPRING, ELSET=WK_664

9.801714e-02
*ELEMENT, TYPE=SPRINGA, ELSET=WK_665
   12314,    11453,    14379
*SPRING, ELSET=WK_665

9.801714e-02
*ELEMENT, TYPE=SPRINGA, ELSET=WK_666
   12315,    11456,    14380
*SPRING, ELSET=WK_666

9.801714e-02
*ELEMENT, TYPE=SPRINGA, ELSET=WK_667
   12316,    11459,    14381
*SPRING, ELSET=WK_667

9.801714e-02
*ELEMENT, TYPE=SPRINGA, ELSET=WK_668
   12317,    11462,    14382
*SPRING, ELSET=WK_668

9.801714e-02
*ELEMENT, TYPE=SPRINGA, ELSET=WK_669
   12318,    11465,    14383
*SPRING, ELSET=WK_669

9.801714e-02
*ELEMENT, TYPE=SPRINGA, ELSET=WK_670
   12319,    11468,    14384
*SPRING, ELSET=WK_670

9.801714e-02
*ELEMENT, TYPE=SPRINGA, ELSET=WK_671
   12320,    11471,    14385
*SPRING, ELSET=WK_671

9.801714e-02
*ELEMENT, TYPE=SPRINGA, ELSET=WK_672
   12321,    11474,    14386
*SPRING, ELSET=WK_672

9.801714e-02
*ELEMENT, TYPE=SPRINGA, ELSET=WK_673
   12322,    11477,    14387
*SPRING, ELSET=WK_673

9.801714e-02
*ELEMENT, TYPE=SPRINGA, ELSET=WK_674
   12323,    11480,    14388
*SPRING, ELSET=WK_674

9.801714e-02
*ELEMENT, TYPE=SPRINGA, ELSET=WK_675
   12324,    11483,    14389
*SPRING, ELSET=WK_675

9.801714e-02
*ELEMENT, TYPE=SPRINGA, ELSET=WK_676
   12325,    11486,    14390
*SPRING, ELSET=WK_676

9.801714e-02
*ELEMENT, TYPE=SPRINGA, ELSET=WK_677
   12326,    11489,    14391
*SPRING, ELSET=WK_677

9.801714e-02
*ELEMENT, TYPE=SPRINGA, ELSET=WK_678
   12327,    11492,    14392
*SPRING, ELSET=WK_678

9.801714e-02
*ELEMENT, TYPE=SPRINGA, ELSET=WK_679
   12328,    11495,    14393
*SPRING, ELSET=WK_679

9.801714e-02
*ELEMENT, TYPE=SPRINGA, ELSET=WK_680
   12329,    11498,    14394
*SPRING, ELSET=WK_680

9.801714e-02
*ELEMENT, TYPE=SPRINGA, ELSET=WK_681
   12330,    11501,    14395
*SPRING, ELSET=WK_681

9.801714e-02
*ELEMENT, TYPE=SPRINGA, ELSET=WK_682
   12331,    11504,    14396
*SPRING, ELSET=WK_682

9.801714e-02
*ELEMENT, TYPE=SPRINGA, ELSET=WK_683
   12332,    11507,    14397
*SPRING, ELSET=WK_683

9.801714e-02
*ELEMENT, TYPE=SPRINGA, ELSET=WK_684
   12333,    11510,    14398
*SPRING, ELSET=WK_684

9.801714e-02
*ELEMENT, TYPE=SPRINGA, ELSET=WK_685
   12334,    11513,    14399
*SPRING, ELSET=WK_685

9.801714e-02
*ELEMENT, TYPE=SPRINGA, ELSET=WK_686
   12335,    11516,    14400
*SPRING, ELSET=WK_686

9.801714e-02
*ELEMENT, TYPE=SPRINGA, ELSET=WK_687
   12336,    11519,    14401
*SPRING, ELSET=WK_687

9.801714e-02
*ELEMENT, TYPE=SPRINGA, ELSET=WK_688
   12337,    11522,    14402
*SPRING, ELSET=WK_688

9.801714e-02
*ELEMENT, TYPE=SPRINGA, ELSET=WK_689
   12338,    11525,    14403
*SPRING, ELSET=WK_689

9.801714e-02
*ELEMENT, TYPE=SPRINGA, ELSET=WK_690
   12339,    11528,    14404
*SPRING, ELSET=WK_690

9.801714e-02
*ELEMENT, TYPE=SPRINGA, ELSET=WK_691
   12340,    11531,    14405
*SPRING, ELSET=WK_691

9.801714e-02
*ELEMENT, TYPE=SPRINGA, ELSET=WK_692
   12341,    11534,    14406
*SPRING, ELSET=WK_692

9.801714e-02
*ELEMENT, TYPE=SPRINGA, ELSET=WK_693
   12342,    11537,    14407
*SPRING, ELSET=WK_693

9.801714e-02
*ELEMENT, TYPE=SPRINGA, ELSET=WK_694
   12343,    11540,    14408
*SPRING, ELSET=WK_694

9.801714e-02
*ELEMENT, TYPE=SPRINGA, ELSET=WK_695
   12344,    11543,    14409
*SPRING, ELSET=WK_695

9.801714e-02
*ELEMENT, TYPE=SPRINGA, ELSET=WK_696
   12345,    11546,    14410
*SPRING, ELSET=WK_696

9.801714e-02
*ELEMENT, TYPE=SPRINGA, ELSET=WK_697
   12346,    11549,    14411
*SPRING, ELSET=WK_697

9.801714e-02
*ELEMENT, TYPE=SPRINGA, ELSET=WK_698
   12347,    11552,    14412
*SPRING, ELSET=WK_698

9.801714e-02
*ELEMENT, TYPE=SPRINGA, ELSET=WK_699
   12348,    11555,    14413
*SPRING, ELSET=WK_699

9.801714e-02
*ELEMENT, TYPE=SPRINGA, ELSET=WK_700
   12349,    11558,    14414
*SPRING, ELSET=WK_700

9.801714e-02
*ELEMENT, TYPE=SPRINGA, ELSET=WK_701
   12350,    11561,    14415
*SPRING, ELSET=WK_701

9.801714e-02
*ELEMENT, TYPE=SPRINGA, ELSET=WK_702
   12351,    11564,    14416
*SPRING, ELSET=WK_702

9.801714e-02
*ELEMENT, TYPE=SPRINGA, ELSET=WK_703
   12352,    11567,    14417
*SPRING, ELSET=WK_703

9.801714e-02
*ELEMENT, TYPE=SPRINGA, ELSET=WK_704
   12353,    11570,    14418
*SPRING, ELSET=WK_704

9.801714e-02
*ELEMENT, TYPE=SPRINGA, ELSET=WK_705
   12354,    11573,    14419
*SPRING, ELSET=WK_705

9.801714e-02
*ELEMENT, TYPE=SPRINGA, ELSET=WK_706
   12355,    11576,    14420
*SPRING, ELSET=WK_706

9.801714e-02
*ELEMENT, TYPE=SPRINGA, ELSET=WK_707
   12356,    11579,    14421
*SPRING, ELSET=WK_707

9.801714e-02
*ELEMENT, TYPE=SPRINGA, ELSET=WK_708
   12357,    11582,    14422
*SPRING, ELSET=WK_708

9.801714e-02
*ELEMENT, TYPE=SPRINGA, ELSET=WK_709
   12358,    11585,    14423
*SPRING, ELSET=WK_709

9.801714e-02
*ELEMENT, TYPE=SPRINGA, ELSET=WK_710
   12359,    11588,    14424
*SPRING, ELSET=WK_710

9.801714e-02
*ELEMENT, TYPE=SPRINGA, ELSET=WK_711
   12360,    11591,    14425
*SPRING, ELSET=WK_711

9.801714e-02
*ELEMENT, TYPE=SPRINGA, ELSET=WK_712
   12361,    11594,    14426
*SPRING, ELSET=WK_712

9.801714e-02
*ELEMENT, TYPE=SPRINGA, ELSET=WK_713
   12362,    11597,    14427
*SPRING, ELSET=WK_713

9.801714e-02
*ELEMENT, TYPE=SPRINGA, ELSET=WK_714
   12363,    11600,    14428
*SPRING, ELSET=WK_714

9.801714e-02
*ELEMENT, TYPE=SPRINGA, ELSET=WK_715
   12364,    11603,    14429
*SPRING, ELSET=WK_715

9.801714e-02
*ELEMENT, TYPE=SPRINGA, ELSET=WK_716
   12365,    11606,    14430
*SPRING, ELSET=WK_716

9.801714e-02
*ELEMENT, TYPE=SPRINGA, ELSET=WK_717
   12366,    11609,    14431
*SPRING, ELSET=WK_717

9.801714e-02
*ELEMENT, TYPE=SPRINGA, ELSET=WK_718
   12367,    11612,    14432
*SPRING, ELSET=WK_718

9.801714e-02
*ELEMENT, TYPE=SPRINGA, ELSET=WK_719
   12368,    11615,    14433
*SPRING, ELSET=WK_719

9.801714e-02
*ELEMENT, TYPE=SPRINGA, ELSET=WK_720
   12369,    11618,    14434
*SPRING, ELSET=WK_720

9.801714e-02
*ELEMENT, TYPE=SPRINGA, ELSET=WK_721
   12370,    11621,    14435
*SPRING, ELSET=WK_721

9.801714e-02
*ELEMENT, TYPE=SPRINGA, ELSET=WK_722
   12371,    11624,    14436
*SPRING, ELSET=WK_722

9.801714e-02
*ELEMENT, TYPE=SPRINGA, ELSET=WK_723
   12372,    11627,    14437
*SPRING, ELSET=WK_723

9.801714e-02
*ELEMENT, TYPE=SPRINGA, ELSET=WK_724
   12373,    11630,    14438
*SPRING, ELSET=WK_724

9.801714e-02
*ELEMENT, TYPE=SPRINGA, ELSET=WK_725
   12374,    11633,    14439
*SPRING, ELSET=WK_725

9.801714e-02
*ELEMENT, TYPE=SPRINGA, ELSET=WK_726
   12375,    11636,    14440
*SPRING, ELSET=WK_726

9.801714e-02
*ELEMENT, TYPE=SPRINGA, ELSET=WK_727
   12376,    11639,    14441
*SPRING, ELSET=WK_727

9.801714e-02
*ELEMENT, TYPE=SPRINGA, ELSET=WK_728
   12377,    11642,    14442
*SPRING, ELSET=WK_728

9.801714e-02
*ELEMENT, TYPE=SPRINGA, ELSET=WK_729
   12378,    11645,    14443
*SPRING, ELSET=WK_729

9.801714e-02
*ELEMENT, TYPE=SPRINGA, ELSET=WK_730
   12379,    11648,    14444
*SPRING, ELSET=WK_730

9.801714e-02
*ELEMENT, TYPE=SPRINGA, ELSET=WK_731
   12380,    11651,    14445
*SPRING, ELSET=WK_731

9.801714e-02
*ELEMENT, TYPE=SPRINGA, ELSET=WK_732
   12381,    11654,    14446
*SPRING, ELSET=WK_732

9.801714e-02
*ELEMENT, TYPE=SPRINGA, ELSET=WK_733
   12382,    11657,    14447
*SPRING, ELSET=WK_733

9.801714e-02
*ELEMENT, TYPE=SPRINGA, ELSET=WK_734
   12383,    11660,    14448
*SPRING, ELSET=WK_734

9.801714e-02
*ELEMENT, TYPE=SPRINGA, ELSET=WK_735
   12384,    11663,    14449
*SPRING, ELSET=WK_735

9.801714e-02
*ELEMENT, TYPE=SPRINGA, ELSET=WK_736
   12385,    11666,    14450
*SPRING, ELSET=WK_736

9.801714e-02
*ELEMENT, TYPE=SPRINGA, ELSET=WK_737
   12386,    11669,    14451
*SPRING, ELSET=WK_737

9.801714e-02
*ELEMENT, TYPE=SPRINGA, ELSET=WK_738
   12387,    11672,    14452
*SPRING, ELSET=WK_738

9.801714e-02
*ELEMENT, TYPE=SPRINGA, ELSET=WK_739
   12388,    11675,    14453
*SPRING, ELSET=WK_739

9.801714e-02
*ELEMENT, TYPE=SPRINGA, ELSET=WK_740
   12389,    11678,    14454
*SPRING, ELSET=WK_740

9.801714e-02
*ELEMENT, TYPE=SPRINGA, ELSET=WK_741
   12390,    11681,    14455
*SPRING, ELSET=WK_741

9.801714e-02
*ELEMENT, TYPE=SPRINGA, ELSET=WK_742
   12391,    11684,    14456
*SPRING, ELSET=WK_742

9.801714e-02
*ELEMENT, TYPE=SPRINGA, ELSET=WK_743
   12392,    11687,    14457
*SPRING, ELSET=WK_743

9.801714e-02
*ELEMENT, TYPE=SPRINGA, ELSET=WK_744
   12393,    11690,    14458
*SPRING, ELSET=WK_744

9.801714e-02
*ELEMENT, TYPE=SPRINGA, ELSET=WK_745
   12394,    11693,    14459
*SPRING, ELSET=WK_745

9.801714e-02
*ELEMENT, TYPE=SPRINGA, ELSET=WK_746
   12395,    11696,    14460
*SPRING, ELSET=WK_746

9.801714e-02
*ELEMENT, TYPE=SPRINGA, ELSET=WK_747
   12396,    11699,    14461
*SPRING, ELSET=WK_747

9.801714e-02
*ELEMENT, TYPE=SPRINGA, ELSET=WK_748
   12397,    11702,    14462
*SPRING, ELSET=WK_748

9.801714e-02
*ELEMENT, TYPE=SPRINGA, ELSET=WK_749
   12398,    11705,    14463
*SPRING, ELSET=WK_749

9.801714e-02
*ELEMENT, TYPE=SPRINGA, ELSET=WK_750
   12399,    11708,    14464
*SPRING, ELSET=WK_750

9.801714e-02
*ELEMENT, TYPE=SPRINGA, ELSET=WK_751
   12400,    11711,    14465
*SPRING, ELSET=WK_751

9.801714e-02
*ELEMENT, TYPE=SPRINGA, ELSET=WK_752
   12401,    11714,    14466
*SPRING, ELSET=WK_752

9.801714e-02
*ELEMENT, TYPE=SPRINGA, ELSET=WK_753
   12402,    11717,    14467
*SPRING, ELSET=WK_753

9.801714e-02
*ELEMENT, TYPE=SPRINGA, ELSET=WK_754
   12403,    11720,    14468
*SPRING, ELSET=WK_754

9.801714e-02
*ELEMENT, TYPE=SPRINGA, ELSET=WK_755
   12404,    11723,    14469
*SPRING, ELSET=WK_755

9.801714e-02
*ELEMENT, TYPE=SPRINGA, ELSET=WK_756
   12405,    11726,    14470
*SPRING, ELSET=WK_756

9.801714e-02
*ELEMENT, TYPE=SPRINGA, ELSET=WK_757
   12406,    11729,    14471
*SPRING, ELSET=WK_757

9.801714e-02
*ELEMENT, TYPE=SPRINGA, ELSET=WK_758
   12407,    11732,    14472
*SPRING, ELSET=WK_758

9.801714e-02
*ELEMENT, TYPE=SPRINGA, ELSET=WK_759
   12408,    11735,    14473
*SPRING, ELSET=WK_759

9.801714e-02
*ELEMENT, TYPE=SPRINGA, ELSET=WK_760
   12409,    11738,    14474
*SPRING, ELSET=WK_760

9.801714e-02
*ELEMENT, TYPE=SPRINGA, ELSET=WK_761
   12410,    11741,    14475
*SPRING, ELSET=WK_761

9.801714e-02
*ELEMENT, TYPE=SPRINGA, ELSET=WK_762
   12411,    11744,    14476
*SPRING, ELSET=WK_762

9.801714e-02
*ELEMENT, TYPE=SPRINGA, ELSET=WK_763
   12412,    11747,    14477
*SPRING, ELSET=WK_763

9.801714e-02
*ELEMENT, TYPE=SPRINGA, ELSET=WK_764
   12413,    11750,    14478
*SPRING, ELSET=WK_764

9.801714e-02
*ELEMENT, TYPE=SPRINGA, ELSET=WK_765
   12414,    11753,    14479
*SPRING, ELSET=WK_765

9.801714e-02
*ELEMENT, TYPE=SPRINGA, ELSET=WK_766
   12415,    11756,    14480
*SPRING, ELSET=WK_766

9.801714e-02
*ELEMENT, TYPE=SPRINGA, ELSET=WK_767
   12416,    11759,    14481
*SPRING, ELSET=WK_767

4.900857e-02
*ELEMENT, TYPE=SPRINGA, ELSET=WK_768
   12417,    11762,    14482
*SPRING, ELSET=WK_768

4.900857e-02
*ELEMENT, TYPE=SPRINGA, ELSET=WK_769
   12418,    11765,    14483
*SPRING, ELSET=WK_769

4.900857e-02
*ELEMENT, TYPE=SPRINGA, ELSET=WK_770
   12419,    11768,    14484
*SPRING, ELSET=WK_770

4.900857e-02
*ELEMENT, TYPE=SPRINGA, ELSET=WK_771
   12420,    11771,    14485
*SPRING, ELSET=WK_771

4.900857e-02
*ELEMENT, TYPE=SPRINGA, ELSET=WK_772
   12421,    11774,    14486
*SPRING, ELSET=WK_772

4.900857e-02
*ELEMENT, TYPE=SPRINGA, ELSET=WK_773
   12422,    11777,    14487
*SPRING, ELSET=WK_773

4.900857e-02
*ELEMENT, TYPE=SPRINGA, ELSET=WK_774
   12423,    11780,    14488
*SPRING, ELSET=WK_774

4.900857e-02
*ELEMENT, TYPE=SPRINGA, ELSET=WK_775
   12424,    11783,    14489
*SPRING, ELSET=WK_775

4.900857e-02
*ELEMENT, TYPE=SPRINGA, ELSET=WK_776
   12425,    11786,    14490
*SPRING, ELSET=WK_776

4.900857e-02
*ELEMENT, TYPE=SPRINGA, ELSET=WK_777
   12426,    11789,    14491
*SPRING, ELSET=WK_777

4.900857e-02
*ELEMENT, TYPE=SPRINGA, ELSET=WK_778
   12427,    11792,    14492
*SPRING, ELSET=WK_778

4.900857e-02
*ELEMENT, TYPE=SPRINGA, ELSET=WK_779
   12428,    11795,    14493
*SPRING, ELSET=WK_779

4.900857e-02
*ELEMENT, TYPE=SPRINGA, ELSET=WK_780
   12429,    11798,    14494
*SPRING, ELSET=WK_780

4.900857e-02
*ELEMENT, TYPE=SPRINGA, ELSET=WK_781
   12430,    11801,    14495
*SPRING, ELSET=WK_781

4.900857e-02
*ELEMENT, TYPE=SPRINGA, ELSET=WK_782
   12431,    11804,    14496
*SPRING, ELSET=WK_782

9.801714e-02
*ELEMENT, TYPE=SPRINGA, ELSET=WK_783
   12432,    11807,    14497
*SPRING, ELSET=WK_783

9.801714e-02
*ELEMENT, TYPE=SPRINGA, ELSET=WK_784
   12433,    11810,    14498
*SPRING, ELSET=WK_784

9.801714e-02
*ELEMENT, TYPE=SPRINGA, ELSET=WK_785
   12434,    11813,    14499
*SPRING, ELSET=WK_785

9.801714e-02
*ELEMENT, TYPE=SPRINGA, ELSET=WK_786
   12435,    11816,    14500
*SPRING, ELSET=WK_786

9.801714e-02
*ELEMENT, TYPE=SPRINGA, ELSET=WK_787
   12436,    11819,    14501
*SPRING, ELSET=WK_787

9.801714e-02
*ELEMENT, TYPE=SPRINGA, ELSET=WK_788
   12437,    11822,    14502
*SPRING, ELSET=WK_788

9.801714e-02
*ELEMENT, TYPE=SPRINGA, ELSET=WK_789
   12438,    11825,    14503
*SPRING, ELSET=WK_789

9.801714e-02
*ELEMENT, TYPE=SPRINGA, ELSET=WK_790
   12439,    11828,    14504
*SPRING, ELSET=WK_790

9.801714e-02
*ELEMENT, TYPE=SPRINGA, ELSET=WK_791
   12440,    11831,    14505
*SPRING, ELSET=WK_791

9.801714e-02
*ELEMENT, TYPE=SPRINGA, ELSET=WK_792
   12441,    11834,    14506
*SPRING, ELSET=WK_792

9.801714e-02
*ELEMENT, TYPE=SPRINGA, ELSET=WK_793
   12442,    11837,    14507
*SPRING, ELSET=WK_793

9.801714e-02
*ELEMENT, TYPE=SPRINGA, ELSET=WK_794
   12443,    11840,    14508
*SPRING, ELSET=WK_794

9.801714e-02
*ELEMENT, TYPE=SPRINGA, ELSET=WK_795
   12444,    11843,    14509
*SPRING, ELSET=WK_795

9.801714e-02
*ELEMENT, TYPE=SPRINGA, ELSET=WK_796
   12445,    11846,    14510
*SPRING, ELSET=WK_796

9.801714e-02
*ELEMENT, TYPE=SPRINGA, ELSET=WK_797
   12446,    11849,    14511
*SPRING, ELSET=WK_797

9.801714e-02
*ELEMENT, TYPE=SPRINGA, ELSET=WK_798
   12447,    11852,    14512
*SPRING, ELSET=WK_798

9.801714e-02
*ELEMENT, TYPE=SPRINGA, ELSET=WK_799
   12448,    11855,    14513
*SPRING, ELSET=WK_799

9.801714e-02
*ELEMENT, TYPE=SPRINGA, ELSET=WK_800
   12449,    11858,    14514
*SPRING, ELSET=WK_800

9.801714e-02
*ELEMENT, TYPE=SPRINGA, ELSET=WK_801
   12450,    11861,    14515
*SPRING, ELSET=WK_801

9.801714e-02
*ELEMENT, TYPE=SPRINGA, ELSET=WK_802
   12451,    11864,    14516
*SPRING, ELSET=WK_802

9.801714e-02
*ELEMENT, TYPE=SPRINGA, ELSET=WK_803
   12452,    11867,    14517
*SPRING, ELSET=WK_803

9.801714e-02
*ELEMENT, TYPE=SPRINGA, ELSET=WK_804
   12453,    11870,    14518
*SPRING, ELSET=WK_804

9.801714e-02
*ELEMENT, TYPE=SPRINGA, ELSET=WK_805
   12454,    11873,    14519
*SPRING, ELSET=WK_805

9.801714e-02
*ELEMENT, TYPE=SPRINGA, ELSET=WK_806
   12455,    11876,    14520
*SPRING, ELSET=WK_806

9.801714e-02
*ELEMENT, TYPE=SPRINGA, ELSET=WK_807
   12456,    11879,    14521
*SPRING, ELSET=WK_807

9.801714e-02
*ELEMENT, TYPE=SPRINGA, ELSET=WK_808
   12457,    11882,    14522
*SPRING, ELSET=WK_808

9.801714e-02
*ELEMENT, TYPE=SPRINGA, ELSET=WK_809
   12458,    11885,    14523
*SPRING, ELSET=WK_809

9.801714e-02
*ELEMENT, TYPE=SPRINGA, ELSET=WK_810
   12459,    11888,    14524
*SPRING, ELSET=WK_810

9.801714e-02
*ELEMENT, TYPE=SPRINGA, ELSET=WK_811
   12460,    11891,    14525
*SPRING, ELSET=WK_811

9.801714e-02
*ELEMENT, TYPE=SPRINGA, ELSET=WK_812
   12461,    11894,    14526
*SPRING, ELSET=WK_812

9.801714e-02
*ELEMENT, TYPE=SPRINGA, ELSET=WK_813
   12462,    11897,    14527
*SPRING, ELSET=WK_813

9.801714e-02
*ELEMENT, TYPE=SPRINGA, ELSET=WK_814
   12463,    11900,    14528
*SPRING, ELSET=WK_814

9.801714e-02
*ELEMENT, TYPE=SPRINGA, ELSET=WK_815
   12464,    11903,    14529
*SPRING, ELSET=WK_815

9.801714e-02
*ELEMENT, TYPE=SPRINGA, ELSET=WK_816
   12465,    11906,    14530
*SPRING, ELSET=WK_816

9.801714e-02
*ELEMENT, TYPE=SPRINGA, ELSET=WK_817
   12466,    11909,    14531
*SPRING, ELSET=WK_817

9.801714e-02
*ELEMENT, TYPE=SPRINGA, ELSET=WK_818
   12467,    11912,    14532
*SPRING, ELSET=WK_818

9.801714e-02
*ELEMENT, TYPE=SPRINGA, ELSET=WK_819
   12468,    11915,    14533
*SPRING, ELSET=WK_819

9.801714e-02
*ELEMENT, TYPE=SPRINGA, ELSET=WK_820
   12469,    11918,    14534
*SPRING, ELSET=WK_820

9.801714e-02
*ELEMENT, TYPE=SPRINGA, ELSET=WK_821
   12470,    11921,    14535
*SPRING, ELSET=WK_821

9.801714e-02
*ELEMENT, TYPE=SPRINGA, ELSET=WK_822
   12471,    11924,    14536
*SPRING, ELSET=WK_822

9.801714e-02
*ELEMENT, TYPE=SPRINGA, ELSET=WK_823
   12472,    11927,    14537
*SPRING, ELSET=WK_823

9.801714e-02
*ELEMENT, TYPE=SPRINGA, ELSET=WK_824
   12473,    11930,    14538
*SPRING, ELSET=WK_824

9.801714e-02
*ELEMENT, TYPE=SPRINGA, ELSET=WK_825
   12474,    11933,    14539
*SPRING, ELSET=WK_825

9.801714e-02
*ELEMENT, TYPE=SPRINGA, ELSET=WK_826
   12475,    11936,    14540
*SPRING, ELSET=WK_826

9.801714e-02
*ELEMENT, TYPE=SPRINGA, ELSET=WK_827
   12476,    11939,    14541
*SPRING, ELSET=WK_827

9.801714e-02
*ELEMENT, TYPE=SPRINGA, ELSET=WK_828
   12477,    11942,    14542
*SPRING, ELSET=WK_828

9.801714e-02
*ELEMENT, TYPE=SPRINGA, ELSET=WK_829
   12478,    11945,    14543
*SPRING, ELSET=WK_829

9.801714e-02
*ELEMENT, TYPE=SPRINGA, ELSET=WK_830
   12479,    11948,    14544
*SPRING, ELSET=WK_830

9.801714e-02
*ELEMENT, TYPE=SPRINGA, ELSET=WK_831
   12480,    11951,    14545
*SPRING, ELSET=WK_831

9.801714e-02
*ELEMENT, TYPE=SPRINGA, ELSET=WK_832
   12481,    11954,    14546
*SPRING, ELSET=WK_832

9.801714e-02
*ELEMENT, TYPE=SPRINGA, ELSET=WK_833
   12482,    11957,    14547
*SPRING, ELSET=WK_833

9.801714e-02
*ELEMENT, TYPE=SPRINGA, ELSET=WK_834
   12483,    11960,    14548
*SPRING, ELSET=WK_834

9.801714e-02
*ELEMENT, TYPE=SPRINGA, ELSET=WK_835
   12484,    11963,    14549
*SPRING, ELSET=WK_835

9.801714e-02
*ELEMENT, TYPE=SPRINGA, ELSET=WK_836
   12485,    11966,    14550
*SPRING, ELSET=WK_836

9.801714e-02
*ELEMENT, TYPE=SPRINGA, ELSET=WK_837
   12486,    11969,    14551
*SPRING, ELSET=WK_837

9.801714e-02
*ELEMENT, TYPE=SPRINGA, ELSET=WK_838
   12487,    11972,    14552
*SPRING, ELSET=WK_838

9.801714e-02
*ELEMENT, TYPE=SPRINGA, ELSET=WK_839
   12488,    11975,    14553
*SPRING, ELSET=WK_839

9.801714e-02
*ELEMENT, TYPE=SPRINGA, ELSET=WK_840
   12489,    11978,    14554
*SPRING, ELSET=WK_840

9.801714e-02
*ELEMENT, TYPE=SPRINGA, ELSET=WK_841
   12490,    11981,    14555
*SPRING, ELSET=WK_841

9.801714e-02
*ELEMENT, TYPE=SPRINGA, ELSET=WK_842
   12491,    11984,    14556
*SPRING, ELSET=WK_842

9.801714e-02
*ELEMENT, TYPE=SPRINGA, ELSET=WK_843
   12492,    11987,    14557
*SPRING, ELSET=WK_843

9.801714e-02
*ELEMENT, TYPE=SPRINGA, ELSET=WK_844
   12493,    11990,    14558
*SPRING, ELSET=WK_844

9.801714e-02
*ELEMENT, TYPE=SPRINGA, ELSET=WK_845
   12494,    11993,    14559
*SPRING, ELSET=WK_845

9.801714e-02
*ELEMENT, TYPE=SPRINGA, ELSET=WK_846
   12495,    11996,    14560
*SPRING, ELSET=WK_846

9.801714e-02
*ELEMENT, TYPE=SPRINGA, ELSET=WK_847
   12496,    11999,    14561
*SPRING, ELSET=WK_847

9.801714e-02
*ELEMENT, TYPE=SPRINGA, ELSET=WK_848
   12497,    12002,    14562
*SPRING, ELSET=WK_848

9.801714e-02
*ELEMENT, TYPE=SPRINGA, ELSET=WK_849
   12498,    12005,    14563
*SPRING, ELSET=WK_849

9.801714e-02
*ELEMENT, TYPE=SPRINGA, ELSET=WK_850
   12499,    12008,    14564
*SPRING, ELSET=WK_850

9.801714e-02
*ELEMENT, TYPE=SPRINGA, ELSET=WK_851
   12500,    12011,    14565
*SPRING, ELSET=WK_851

9.801714e-02
*ELEMENT, TYPE=SPRINGA, ELSET=WK_852
   12501,    12014,    14566
*SPRING, ELSET=WK_852

9.801714e-02
*ELEMENT, TYPE=SPRINGA, ELSET=WK_853
   12502,    12017,    14567
*SPRING, ELSET=WK_853

9.801714e-02
*ELEMENT, TYPE=SPRINGA, ELSET=WK_854
   12503,    12020,    14568
*SPRING, ELSET=WK_854

9.801714e-02
*ELEMENT, TYPE=SPRINGA, ELSET=WK_855
   12504,    12023,    14569
*SPRING, ELSET=WK_855

9.801714e-02
*ELEMENT, TYPE=SPRINGA, ELSET=WK_856
   12505,    12026,    14570
*SPRING, ELSET=WK_856

9.801714e-02
*ELEMENT, TYPE=SPRINGA, ELSET=WK_857
   12506,    12029,    14571
*SPRING, ELSET=WK_857

9.801714e-02
*ELEMENT, TYPE=SPRINGA, ELSET=WK_858
   12507,    12032,    14572
*SPRING, ELSET=WK_858

9.801714e-02
*ELEMENT, TYPE=SPRINGA, ELSET=WK_859
   12508,    12035,    14573
*SPRING, ELSET=WK_859

9.801714e-02
*ELEMENT, TYPE=SPRINGA, ELSET=WK_860
   12509,    12038,    14574
*SPRING, ELSET=WK_860

9.801714e-02
*ELEMENT, TYPE=SPRINGA, ELSET=WK_861
   12510,    12041,    14575
*SPRING, ELSET=WK_861

9.801714e-02
*ELEMENT, TYPE=SPRINGA, ELSET=WK_862
   12511,    12044,    14576
*SPRING, ELSET=WK_862

9.801714e-02
*ELEMENT, TYPE=SPRINGA, ELSET=WK_863
   12512,    12047,    14577
*SPRING, ELSET=WK_863

9.801714e-02
*ELEMENT, TYPE=SPRINGA, ELSET=WK_864
   12513,    12050,    14578
*SPRING, ELSET=WK_864

9.801714e-02
*ELEMENT, TYPE=SPRINGA, ELSET=WK_865
   12514,    12053,    14579
*SPRING, ELSET=WK_865

9.801714e-02
*ELEMENT, TYPE=SPRINGA, ELSET=WK_866
   12515,    12056,    14580
*SPRING, ELSET=WK_866

9.801714e-02
*ELEMENT, TYPE=SPRINGA, ELSET=WK_867
   12516,    12059,    14581
*SPRING, ELSET=WK_867

9.801714e-02
*ELEMENT, TYPE=SPRINGA, ELSET=WK_868
   12517,    12062,    14582
*SPRING, ELSET=WK_868

9.801714e-02
*ELEMENT, TYPE=SPRINGA, ELSET=WK_869
   12518,    12065,    14583
*SPRING, ELSET=WK_869

9.801714e-02
*ELEMENT, TYPE=SPRINGA, ELSET=WK_870
   12519,    12068,    14584
*SPRING, ELSET=WK_870

9.801714e-02
*ELEMENT, TYPE=SPRINGA, ELSET=WK_871
   12520,    12071,    14585
*SPRING, ELSET=WK_871

9.801714e-02
*ELEMENT, TYPE=SPRINGA, ELSET=WK_872
   12521,    12074,    14586
*SPRING, ELSET=WK_872

9.801714e-02
*ELEMENT, TYPE=SPRINGA, ELSET=WK_873
   12522,    12077,    14587
*SPRING, ELSET=WK_873

9.801714e-02
*ELEMENT, TYPE=SPRINGA, ELSET=WK_874
   12523,    12080,    14588
*SPRING, ELSET=WK_874

9.801714e-02
*ELEMENT, TYPE=SPRINGA, ELSET=WK_875
   12524,    12083,    14589
*SPRING, ELSET=WK_875

9.801714e-02
*ELEMENT, TYPE=SPRINGA, ELSET=WK_876
   12525,    12086,    14590
*SPRING, ELSET=WK_876

9.801714e-02
*ELEMENT, TYPE=SPRINGA, ELSET=WK_877
   12526,    12089,    14591
*SPRING, ELSET=WK_877

9.801714e-02
*ELEMENT, TYPE=SPRINGA, ELSET=WK_878
   12527,    12092,    14592
*SPRING, ELSET=WK_878

9.801714e-02
*ELEMENT, TYPE=SPRINGA, ELSET=WK_879
   12528,    12095,    14593
*SPRING, ELSET=WK_879

9.801714e-02
*ELEMENT, TYPE=SPRINGA, ELSET=WK_880
   12529,    12098,    14594
*SPRING, ELSET=WK_880

9.801714e-02
*ELEMENT, TYPE=SPRINGA, ELSET=WK_881
   12530,    12101,    14595
*SPRING, ELSET=WK_881

9.801714e-02
*ELEMENT, TYPE=SPRINGA, ELSET=WK_882
   12531,    12104,    14596
*SPRING, ELSET=WK_882

9.801714e-02
*ELEMENT, TYPE=SPRINGA, ELSET=WK_883
   12532,    12107,    14597
*SPRING, ELSET=WK_883

9.801714e-02
*ELEMENT, TYPE=SPRINGA, ELSET=WK_884
   12533,    12110,    14598
*SPRING, ELSET=WK_884

9.801714e-02
*ELEMENT, TYPE=SPRINGA, ELSET=WK_885
   12534,    12113,    14599
*SPRING, ELSET=WK_885

9.801714e-02
*ELEMENT, TYPE=SPRINGA, ELSET=WK_886
   12535,    12116,    14600
*SPRING, ELSET=WK_886

9.801714e-02
*ELEMENT, TYPE=SPRINGA, ELSET=WK_887
   12536,    12119,    14601
*SPRING, ELSET=WK_887

9.801714e-02
*ELEMENT, TYPE=SPRINGA, ELSET=WK_888
   12537,    12122,    14602
*SPRING, ELSET=WK_888

9.801714e-02
*ELEMENT, TYPE=SPRINGA, ELSET=WK_889
   12538,    12125,    14603
*SPRING, ELSET=WK_889

9.801714e-02
*ELEMENT, TYPE=SPRINGA, ELSET=WK_890
   12539,    12128,    14604
*SPRING, ELSET=WK_890

9.801714e-02
*ELEMENT, TYPE=SPRINGA, ELSET=WK_891
   12540,    12131,    14605
*SPRING, ELSET=WK_891

9.801714e-02
*ELEMENT, TYPE=SPRINGA, ELSET=WK_892
   12541,    12134,    14606
*SPRING, ELSET=WK_892

9.801714e-02
*ELEMENT, TYPE=SPRINGA, ELSET=WK_893
   12542,    12137,    14607
*SPRING, ELSET=WK_893

9.801714e-02
*ELEMENT, TYPE=SPRINGA, ELSET=WK_894
   12543,    12140,    14608
*SPRING, ELSET=WK_894

9.801714e-02
*ELEMENT, TYPE=SPRINGA, ELSET=WK_895
   12544,    12143,    14609
*SPRING, ELSET=WK_895

9.801714e-02
*ELEMENT, TYPE=SPRINGA, ELSET=WK_896
   12545,    12146,    14610
*SPRING, ELSET=WK_896

9.801714e-02
*ELEMENT, TYPE=SPRINGA, ELSET=WK_897
   12546,    12149,    14611
*SPRING, ELSET=WK_897

9.801714e-02
*ELEMENT, TYPE=SPRINGA, ELSET=WK_898
   12547,    12152,    14612
*SPRING, ELSET=WK_898

9.801714e-02
*ELEMENT, TYPE=SPRINGA, ELSET=WK_899
   12548,    12155,    14613
*SPRING, ELSET=WK_899

9.801714e-02
*ELEMENT, TYPE=SPRINGA, ELSET=WK_900
   12549,    12158,    14614
*SPRING, ELSET=WK_900

9.801714e-02
*ELEMENT, TYPE=SPRINGA, ELSET=WK_901
   12550,    12161,    14615
*SPRING, ELSET=WK_901

9.801714e-02
*ELEMENT, TYPE=SPRINGA, ELSET=WK_902
   12551,    12164,    14616
*SPRING, ELSET=WK_902

9.801714e-02
*ELEMENT, TYPE=SPRINGA, ELSET=WK_903
   12552,    12167,    14617
*SPRING, ELSET=WK_903

9.801714e-02
*ELEMENT, TYPE=SPRINGA, ELSET=WK_904
   12553,    12170,    14618
*SPRING, ELSET=WK_904

9.801714e-02
*ELEMENT, TYPE=SPRINGA, ELSET=WK_905
   12554,    12173,    14619
*SPRING, ELSET=WK_905

9.801714e-02
*ELEMENT, TYPE=SPRINGA, ELSET=WK_906
   12555,    12176,    14620
*SPRING, ELSET=WK_906

9.801714e-02
*ELEMENT, TYPE=SPRINGA, ELSET=WK_907
   12556,    12179,    14621
*SPRING, ELSET=WK_907

9.801714e-02
*ELEMENT, TYPE=SPRINGA, ELSET=WK_908
   12557,    12182,    14622
*SPRING, ELSET=WK_908

9.801714e-02
*ELEMENT, TYPE=SPRINGA, ELSET=WK_909
   12558,    12185,    14623
*SPRING, ELSET=WK_909

9.801714e-02
*ELEMENT, TYPE=SPRINGA, ELSET=WK_910
   12559,    12188,    14624
*SPRING, ELSET=WK_910

9.801714e-02
*ELEMENT, TYPE=SPRINGA, ELSET=WK_911
   12560,    12191,    14625
*SPRING, ELSET=WK_911

9.801714e-02
*ELEMENT, TYPE=SPRINGA, ELSET=WK_912
   12561,    12194,    14626
*SPRING, ELSET=WK_912

9.801714e-02
*ELEMENT, TYPE=SPRINGA, ELSET=WK_913
   12562,    12197,    14627
*SPRING, ELSET=WK_913

9.801714e-02
*ELEMENT, TYPE=SPRINGA, ELSET=WK_914
   12563,    12200,    14628
*SPRING, ELSET=WK_914

9.801714e-02
*ELEMENT, TYPE=SPRINGA, ELSET=WK_915
   12564,    12203,    14629
*SPRING, ELSET=WK_915

9.801714e-02
*ELEMENT, TYPE=SPRINGA, ELSET=WK_916
   12565,    12206,    14630
*SPRING, ELSET=WK_916

9.801714e-02
*ELEMENT, TYPE=SPRINGA, ELSET=WK_917
   12566,    12209,    14631
*SPRING, ELSET=WK_917

9.801714e-02
*ELEMENT, TYPE=SPRINGA, ELSET=WK_918
   12567,    12212,    14632
*SPRING, ELSET=WK_918

9.801714e-02
*ELEMENT, TYPE=SPRINGA, ELSET=WK_919
   12568,    12215,    14633
*SPRING, ELSET=WK_919

9.801714e-02
*ELEMENT, TYPE=SPRINGA, ELSET=WK_920
   12569,    12218,    14634
*SPRING, ELSET=WK_920

9.801714e-02
*ELEMENT, TYPE=SPRINGA, ELSET=WK_921
   12570,    12221,    14635
*SPRING, ELSET=WK_921

9.801714e-02
*ELEMENT, TYPE=SPRINGA, ELSET=WK_922
   12571,    12224,    14636
*SPRING, ELSET=WK_922

9.801714e-02
*ELEMENT, TYPE=SPRINGA, ELSET=WK_923
   12572,    12227,    14637
*SPRING, ELSET=WK_923

9.801714e-02
*ELEMENT, TYPE=SPRINGA, ELSET=WK_924
   12573,    12230,    14638
*SPRING, ELSET=WK_924

9.801714e-02
*ELEMENT, TYPE=SPRINGA, ELSET=WK_925
   12574,    12233,    14639
*SPRING, ELSET=WK_925

9.801714e-02
*ELEMENT, TYPE=SPRINGA, ELSET=WK_926
   12575,    12236,    14640
*SPRING, ELSET=WK_926

9.801714e-02
*ELEMENT, TYPE=SPRINGA, ELSET=WK_927
   12576,    12239,    14641
*SPRING, ELSET=WK_927

9.801714e-02
*ELEMENT, TYPE=SPRINGA, ELSET=WK_928
   12577,    12242,    14642
*SPRING, ELSET=WK_928

9.801714e-02
*ELEMENT, TYPE=SPRINGA, ELSET=WK_929
   12578,    12245,    14643
*SPRING, ELSET=WK_929

9.801714e-02
*ELEMENT, TYPE=SPRINGA, ELSET=WK_930
   12579,    12248,    14644
*SPRING, ELSET=WK_930

9.801714e-02
*ELEMENT, TYPE=SPRINGA, ELSET=WK_931
   12580,    12251,    14645
*SPRING, ELSET=WK_931

9.801714e-02
*ELEMENT, TYPE=SPRINGA, ELSET=WK_932
   12581,    12254,    14646
*SPRING, ELSET=WK_932

9.801714e-02
*ELEMENT, TYPE=SPRINGA, ELSET=WK_933
   12582,    12257,    14647
*SPRING, ELSET=WK_933

9.801714e-02
*ELEMENT, TYPE=SPRINGA, ELSET=WK_934
   12583,    12260,    14648
*SPRING, ELSET=WK_934

9.801714e-02
*ELEMENT, TYPE=SPRINGA, ELSET=WK_935
   12584,    12263,    14649
*SPRING, ELSET=WK_935

9.801714e-02
*ELEMENT, TYPE=SPRINGA, ELSET=WK_936
   12585,    12266,    14650
*SPRING, ELSET=WK_936

9.801714e-02
*ELEMENT, TYPE=SPRINGA, ELSET=WK_937
   12586,    12269,    14651
*SPRING, ELSET=WK_937

9.801714e-02
*ELEMENT, TYPE=SPRINGA, ELSET=WK_938
   12587,    12272,    14652
*SPRING, ELSET=WK_938

9.801714e-02
*ELEMENT, TYPE=SPRINGA, ELSET=WK_939
   12588,    12275,    14653
*SPRING, ELSET=WK_939

9.801714e-02
*ELEMENT, TYPE=SPRINGA, ELSET=WK_940
   12589,    12278,    14654
*SPRING, ELSET=WK_940

9.801714e-02
*ELEMENT, TYPE=SPRINGA, ELSET=WK_941
   12590,    12281,    14655
*SPRING, ELSET=WK_941

9.801714e-02
*ELEMENT, TYPE=SPRINGA, ELSET=WK_942
   12591,    12284,    14656
*SPRING, ELSET=WK_942

9.801714e-02
*ELEMENT, TYPE=SPRINGA, ELSET=WK_943
   12592,    12287,    14657
*SPRING, ELSET=WK_943

9.801714e-02
*ELEMENT, TYPE=SPRINGA, ELSET=WK_944
   12593,    12290,    14658
*SPRING, ELSET=WK_944

9.801714e-02
*ELEMENT, TYPE=SPRINGA, ELSET=WK_945
   12594,    12293,    14659
*SPRING, ELSET=WK_945

9.801714e-02
*ELEMENT, TYPE=SPRINGA, ELSET=WK_946
   12595,    12296,    14660
*SPRING, ELSET=WK_946

9.801714e-02
*ELEMENT, TYPE=SPRINGA, ELSET=WK_947
   12596,    12299,    14661
*SPRING, ELSET=WK_947

9.801714e-02
*ELEMENT, TYPE=SPRINGA, ELSET=WK_948
   12597,    12302,    14662
*SPRING, ELSET=WK_948

9.801714e-02
*ELEMENT, TYPE=SPRINGA, ELSET=WK_949
   12598,    12305,    14663
*SPRING, ELSET=WK_949

9.801714e-02
*ELEMENT, TYPE=SPRINGA, ELSET=WK_950
   12599,    12308,    14664
*SPRING, ELSET=WK_950

9.801714e-02
*ELEMENT, TYPE=SPRINGA, ELSET=WK_951
   12600,    12311,    14665
*SPRING, ELSET=WK_951

9.801714e-02
*ELEMENT, TYPE=SPRINGA, ELSET=WK_952
   12601,    12314,    14666
*SPRING, ELSET=WK_952

9.801714e-02
*ELEMENT, TYPE=SPRINGA, ELSET=WK_953
   12602,    12317,    14667
*SPRING, ELSET=WK_953

9.801714e-02
*ELEMENT, TYPE=SPRINGA, ELSET=WK_954
   12603,    12320,    14668
*SPRING, ELSET=WK_954

9.801714e-02
*ELEMENT, TYPE=SPRINGA, ELSET=WK_955
   12604,    12323,    14669
*SPRING, ELSET=WK_955

9.801714e-02
*ELEMENT, TYPE=SPRINGA, ELSET=WK_956
   12605,    12326,    14670
*SPRING, ELSET=WK_956

9.801714e-02
*ELEMENT, TYPE=SPRINGA, ELSET=WK_957
   12606,    12329,    14671
*SPRING, ELSET=WK_957

9.801714e-02
*ELEMENT, TYPE=SPRINGA, ELSET=WK_958
   12607,    12332,    14672
*SPRING, ELSET=WK_958

9.801714e-02
*ELEMENT, TYPE=SPRINGA, ELSET=WK_959
   12608,    12335,    14673
*SPRING, ELSET=WK_959

9.801714e-02
*ELEMENT, TYPE=SPRINGA, ELSET=WK_960
   12609,    12338,    14674
*SPRING, ELSET=WK_960

9.801714e-02
*ELEMENT, TYPE=SPRINGA, ELSET=WK_961
   12610,    12341,    14675
*SPRING, ELSET=WK_961

9.801714e-02
*ELEMENT, TYPE=SPRINGA, ELSET=WK_962
   12611,    12344,    14676
*SPRING, ELSET=WK_962

9.801714e-02
*ELEMENT, TYPE=SPRINGA, ELSET=WK_963
   12612,    12347,    14677
*SPRING, ELSET=WK_963

9.801714e-02
*ELEMENT, TYPE=SPRINGA, ELSET=WK_964
   12613,    12350,    14678
*SPRING, ELSET=WK_964

9.801714e-02
*ELEMENT, TYPE=SPRINGA, ELSET=WK_965
   12614,    12353,    14679
*SPRING, ELSET=WK_965

9.801714e-02
*ELEMENT, TYPE=SPRINGA, ELSET=WK_966
   12615,    12356,    14680
*SPRING, ELSET=WK_966

9.801714e-02
*ELEMENT, TYPE=SPRINGA, ELSET=WK_967
   12616,    12359,    14681
*SPRING, ELSET=WK_967

9.801714e-02
*ELEMENT, TYPE=SPRINGA, ELSET=WK_968
   12617,    12362,    14682
*SPRING, ELSET=WK_968

9.801714e-02
*ELEMENT, TYPE=SPRINGA, ELSET=WK_969
   12618,    12365,    14683
*SPRING, ELSET=WK_969

9.801714e-02
*ELEMENT, TYPE=SPRINGA, ELSET=WK_970
   12619,    12368,    14684
*SPRING, ELSET=WK_970

9.801714e-02
*ELEMENT, TYPE=SPRINGA, ELSET=WK_971
   12620,    12371,    14685
*SPRING, ELSET=WK_971

9.801714e-02
*ELEMENT, TYPE=SPRINGA, ELSET=WK_972
   12621,    12374,    14686
*SPRING, ELSET=WK_972

9.801714e-02
*ELEMENT, TYPE=SPRINGA, ELSET=WK_973
   12622,    12377,    14687
*SPRING, ELSET=WK_973

9.801714e-02
*ELEMENT, TYPE=SPRINGA, ELSET=WK_974
   12623,    12380,    14688
*SPRING, ELSET=WK_974

9.801714e-02
*ELEMENT, TYPE=SPRINGA, ELSET=WK_975
   12624,    12383,    14689
*SPRING, ELSET=WK_975

9.801714e-02
*ELEMENT, TYPE=SPRINGA, ELSET=WK_976
   12625,    12386,    14690
*SPRING, ELSET=WK_976

9.801714e-02
*ELEMENT, TYPE=SPRINGA, ELSET=WK_977
   12626,    12389,    14691
*SPRING, ELSET=WK_977

9.801714e-02
*ELEMENT, TYPE=SPRINGA, ELSET=WK_978
   12627,    12392,    14692
*SPRING, ELSET=WK_978

9.801714e-02
*ELEMENT, TYPE=SPRINGA, ELSET=WK_979
   12628,    12395,    14693
*SPRING, ELSET=WK_979

9.801714e-02
*ELEMENT, TYPE=SPRINGA, ELSET=WK_980
   12629,    12398,    14694
*SPRING, ELSET=WK_980

9.801714e-02
*ELEMENT, TYPE=SPRINGA, ELSET=WK_981
   12630,    12401,    14695
*SPRING, ELSET=WK_981

9.801714e-02
*ELEMENT, TYPE=SPRINGA, ELSET=WK_982
   12631,    12404,    14696
*SPRING, ELSET=WK_982

9.801714e-02
*ELEMENT, TYPE=SPRINGA, ELSET=WK_983
   12632,    12407,    14697
*SPRING, ELSET=WK_983

9.801714e-02
*ELEMENT, TYPE=SPRINGA, ELSET=WK_984
   12633,    12410,    14698
*SPRING, ELSET=WK_984

9.801714e-02
*ELEMENT, TYPE=SPRINGA, ELSET=WK_985
   12634,    12413,    14699
*SPRING, ELSET=WK_985

4.900857e-02
*ELEMENT, TYPE=SPRINGA, ELSET=WK_986
   12635,    12416,    14700
*SPRING, ELSET=WK_986

4.900857e-02
*ELEMENT, TYPE=SPRINGA, ELSET=WK_987
   12636,    12419,    14701
*SPRING, ELSET=WK_987

4.900857e-02
*ELEMENT, TYPE=SPRINGA, ELSET=WK_988
   12637,    12422,    14702
*SPRING, ELSET=WK_988

4.900857e-02
*ELEMENT, TYPE=SPRINGA, ELSET=WK_989
   12638,    12425,    14703
*SPRING, ELSET=WK_989

4.900857e-02
*ELEMENT, TYPE=SPRINGA, ELSET=WK_990
   12639,    12428,    14704
*SPRING, ELSET=WK_990

4.900857e-02
*ELEMENT, TYPE=SPRINGA, ELSET=WK_991
   12640,    12431,    14705
*SPRING, ELSET=WK_991

4.900857e-02
*BOUNDARY
GHOST_WINKLER, 1, 3, 0
