** Winkler foundation springs em dura_outer (excluindo perturbation_strip)
** Gerado automaticamente por foam_polymesh_to_ccx_inp.py
** k_winkler = 2.000e+05 Pa/m, 1560 springs
*NODE, NSET=GHOST_WINKLER
   25482,  1.76847411e-03, -1.76847411e-03,  0.00000000e+00
   25483,  2.02335153e-03, -1.47005095e-03,  0.00000000e+00
   25484,  2.22840734e-03, -1.13543026e-03,  0.00000000e+00
   25485,  2.37859236e-03, -7.72851512e-04,  0.00000000e+00
   25486,  2.47020854e-03, -3.91242601e-04,  0.00000000e+00
   25487,  2.50100000e-03,  2.22133423e-19,  0.00000000e+00
   25488,  2.47020854e-03,  3.91242601e-04,  0.00000000e+00
   25489,  2.37859236e-03,  7.72851512e-04,  0.00000000e+00
   25490,  2.22840734e-03,  1.13543026e-03,  0.00000000e+00
   25491,  2.02335153e-03,  1.47005095e-03,  0.00000000e+00
   25492,  1.76847411e-03,  1.76847411e-03,  0.00000000e+00
   25493,  1.76847411e-03, -1.76847411e-03,  7.89473684e-04
   25494,  2.02335153e-03, -1.47005095e-03,  7.89473684e-04
   25495,  2.22840734e-03, -1.13543026e-03,  7.89473684e-04
   25496,  2.37859236e-03, -7.72851512e-04,  7.89473684e-04
   25497,  2.47020854e-03, -3.91242601e-04,  7.89473684e-04
   25498,  2.50100000e-03,  2.22133423e-19,  7.89473684e-04
   25499,  2.47020854e-03,  3.91242601e-04,  7.89473684e-04
   25500,  2.37859236e-03,  7.72851512e-04,  7.89473684e-04
   25501,  2.22840734e-03,  1.13543026e-03,  7.89473684e-04
   25502,  2.02335153e-03,  1.47005095e-03,  7.89473684e-04
   25503,  1.76847411e-03,  1.76847411e-03,  7.89473684e-04
   25504,  1.76847411e-03, -1.76847411e-03,  1.57894737e-03
   25505,  2.02335153e-03, -1.47005095e-03,  1.57894737e-03
   25506,  2.22840734e-03, -1.13543026e-03,  1.57894737e-03
   25507,  2.37859236e-03, -7.72851512e-04,  1.57894737e-03
   25508,  2.47020854e-03, -3.91242601e-04,  1.57894737e-03
   25509,  2.50100000e-03,  2.22133423e-19,  1.57894737e-03
   25510,  2.47020854e-03,  3.91242601e-04,  1.57894737e-03
   25511,  2.37859236e-03,  7.72851512e-04,  1.57894737e-03
   25512,  2.22840734e-03,  1.13543026e-03,  1.57894737e-03
   25513,  2.02335153e-03,  1.47005095e-03,  1.57894737e-03
   25514,  1.76847411e-03,  1.76847411e-03,  1.57894737e-03
   25515,  1.76847411e-03, -1.76847411e-03,  2.36842105e-03
   25516,  2.02335153e-03, -1.47005095e-03,  2.36842105e-03
   25517,  2.22840734e-03, -1.13543026e-03,  2.36842105e-03
   25518,  2.37859236e-03, -7.72851512e-04,  2.36842105e-03
   25519,  2.47020854e-03, -3.91242601e-04,  2.36842105e-03
   25520,  2.50100000e-03,  2.22133423e-19,  2.36842105e-03
   25521,  2.47020854e-03,  3.91242601e-04,  2.36842105e-03
   25522,  2.37859236e-03,  7.72851512e-04,  2.36842105e-03
   25523,  2.22840734e-03,  1.13543026e-03,  2.36842105e-03
   25524,  2.02335153e-03,  1.47005095e-03,  2.36842105e-03
   25525,  1.76847411e-03,  1.76847411e-03,  2.36842105e-03
   25526,  1.76847411e-03, -1.76847411e-03,  3.15789474e-03
   25527,  2.02335153e-03, -1.47005095e-03,  3.15789474e-03
   25528,  2.22840734e-03, -1.13543026e-03,  3.15789474e-03
   25529,  2.37859236e-03, -7.72851512e-04,  3.15789474e-03
   25530,  2.47020854e-03, -3.91242601e-04,  3.15789474e-03
   25531,  2.50100000e-03,  2.22133423e-19,  3.15789474e-03
   25532,  2.47020854e-03,  3.91242601e-04,  3.15789474e-03
   25533,  2.37859236e-03,  7.72851512e-04,  3.15789474e-03
   25534,  2.22840734e-03,  1.13543026e-03,  3.15789474e-03
   25535,  2.02335153e-03,  1.47005095e-03,  3.15789474e-03
   25536,  1.76847411e-03,  1.76847411e-03,  3.15789474e-03
   25537,  1.76847411e-03, -1.76847411e-03,  3.94736842e-03
   25538,  2.02335153e-03, -1.47005095e-03,  3.94736842e-03
   25539,  2.22840734e-03, -1.13543026e-03,  3.94736842e-03
   25540,  2.37859236e-03, -7.72851512e-04,  3.94736842e-03
   25541,  2.47020854e-03, -3.91242601e-04,  3.94736842e-03
   25542,  2.50100000e-03,  2.22133423e-19,  3.94736842e-03
   25543,  2.47020854e-03,  3.91242601e-04,  3.94736842e-03
   25544,  2.37859236e-03,  7.72851512e-04,  3.94736842e-03
   25545,  2.22840734e-03,  1.13543026e-03,  3.94736842e-03
   25546,  2.02335153e-03,  1.47005095e-03,  3.94736842e-03
   25547,  1.76847411e-03,  1.76847411e-03,  3.94736842e-03
   25548,  1.76847411e-03, -1.76847411e-03,  4.73684210e-03
   25549,  2.02335153e-03, -1.47005095e-03,  4.73684210e-03
   25550,  2.22840734e-03, -1.13543026e-03,  4.73684210e-03
   25551,  2.37859236e-03, -7.72851512e-04,  4.73684210e-03
   25552,  2.47020854e-03, -3.91242601e-04,  4.73684210e-03
   25553,  2.50100000e-03,  2.22133423e-19,  4.73684210e-03
   25554,  2.47020854e-03,  3.91242601e-04,  4.73684210e-03
   25555,  2.37859236e-03,  7.72851512e-04,  4.73684210e-03
   25556,  2.22840734e-03,  1.13543026e-03,  4.73684210e-03
   25557,  2.02335153e-03,  1.47005095e-03,  4.73684210e-03
   25558,  1.76847411e-03,  1.76847411e-03,  4.73684210e-03
   25559,  1.76847411e-03, -1.76847411e-03,  5.52631579e-03
   25560,  2.02335153e-03, -1.47005095e-03,  5.52631579e-03
   25561,  2.22840734e-03, -1.13543026e-03,  5.52631579e-03
   25562,  2.37859236e-03, -7.72851512e-04,  5.52631579e-03
   25563,  2.47020854e-03, -3.91242601e-04,  5.52631579e-03
   25564,  2.50100000e-03,  2.22133423e-19,  5.52631579e-03
   25565,  2.47020854e-03,  3.91242601e-04,  5.52631579e-03
   25566,  2.37859236e-03,  7.72851512e-04,  5.52631579e-03
   25567,  2.22840734e-03,  1.13543026e-03,  5.52631579e-03
   25568,  2.02335153e-03,  1.47005095e-03,  5.52631579e-03
   25569,  1.76847411e-03,  1.76847411e-03,  5.52631579e-03
   25570,  1.76847411e-03, -1.76847411e-03,  6.31578947e-03
   25571,  2.02335153e-03, -1.47005095e-03,  6.31578947e-03
   25572,  2.22840734e-03, -1.13543026e-03,  6.31578947e-03
   25573,  2.37859236e-03, -7.72851512e-04,  6.31578947e-03
   25574,  2.47020854e-03, -3.91242601e-04,  6.31578947e-03
   25575,  2.50100000e-03,  2.22133423e-19,  6.31578947e-03
   25576,  2.47020854e-03,  3.91242601e-04,  6.31578947e-03
   25577,  2.37859236e-03,  7.72851512e-04,  6.31578947e-03
   25578,  2.22840734e-03,  1.13543026e-03,  6.31578947e-03
   25579,  2.02335153e-03,  1.47005095e-03,  6.31578947e-03
   25580,  1.76847411e-03,  1.76847411e-03,  6.31578947e-03
   25581,  1.76847411e-03, -1.76847411e-03,  7.10526316e-03
   25582,  2.02335153e-03, -1.47005095e-03,  7.10526316e-03
   25583,  2.22840734e-03, -1.13543026e-03,  7.10526316e-03
   25584,  2.37859236e-03, -7.72851512e-04,  7.10526316e-03
   25585,  2.47020854e-03, -3.91242601e-04,  7.10526316e-03
   25586,  2.50100000e-03,  2.22133423e-19,  7.10526316e-03
   25587,  2.47020854e-03,  3.91242601e-04,  7.10526316e-03
   25588,  2.37859236e-03,  7.72851512e-04,  7.10526316e-03
   25589,  2.22840734e-03,  1.13543026e-03,  7.10526316e-03
   25590,  2.02335153e-03,  1.47005095e-03,  7.10526316e-03
   25591,  1.76847411e-03,  1.76847411e-03,  7.10526316e-03
   25592,  1.76847411e-03, -1.76847411e-03,  7.89473684e-03
   25593,  2.02335153e-03, -1.47005095e-03,  7.89473684e-03
   25594,  2.22840734e-03, -1.13543026e-03,  7.89473684e-03
   25595,  2.37859236e-03, -7.72851512e-04,  7.89473684e-03
   25596,  2.47020854e-03, -3.91242601e-04,  7.89473684e-03
   25597,  2.50100000e-03,  2.22133423e-19,  7.89473684e-03
   25598,  2.47020854e-03,  3.91242601e-04,  7.89473684e-03
   25599,  2.37859236e-03,  7.72851512e-04,  7.89473684e-03
   25600,  2.22840734e-03,  1.13543026e-03,  7.89473684e-03
   25601,  2.02335153e-03,  1.47005095e-03,  7.89473684e-03
   25602,  1.76847411e-03,  1.76847411e-03,  7.89473684e-03
   25603,  1.76847411e-03, -1.76847411e-03,  8.68421053e-03
   25604,  2.02335153e-03, -1.47005095e-03,  8.68421053e-03
   25605,  2.22840734e-03, -1.13543026e-03,  8.68421053e-03
   25606,  2.37859236e-03, -7.72851512e-04,  8.68421053e-03
   25607,  2.47020854e-03, -3.91242601e-04,  8.68421053e-03
   25608,  2.50100000e-03,  2.22133423e-19,  8.68421053e-03
   25609,  2.47020854e-03,  3.91242601e-04,  8.68421053e-03
   25610,  2.37859236e-03,  7.72851512e-04,  8.68421053e-03
   25611,  2.22840734e-03,  1.13543026e-03,  8.68421053e-03
   25612,  2.02335153e-03,  1.47005095e-03,  8.68421053e-03
   25613,  1.76847411e-03,  1.76847411e-03,  8.68421053e-03
   25614,  1.76847411e-03, -1.76847411e-03,  9.47368421e-03
   25615,  2.02335153e-03, -1.47005095e-03,  9.47368421e-03
   25616,  2.22840734e-03, -1.13543026e-03,  9.47368421e-03
   25617,  2.37859236e-03, -7.72851512e-04,  9.47368421e-03
   25618,  2.47020854e-03, -3.91242601e-04,  9.47368421e-03
   25619,  2.50100000e-03,  2.22133423e-19,  9.47368421e-03
   25620,  2.47020854e-03,  3.91242601e-04,  9.47368421e-03
   25621,  2.37859236e-03,  7.72851512e-04,  9.47368421e-03
   25622,  2.22840734e-03,  1.13543026e-03,  9.47368421e-03
   25623,  2.02335153e-03,  1.47005095e-03,  9.47368421e-03
   25624,  1.76847411e-03,  1.76847411e-03,  9.47368421e-03
   25625,  1.76847411e-03, -1.76847411e-03,  1.02631579e-02
   25626,  2.02335153e-03, -1.47005095e-03,  1.02631579e-02
   25627,  2.22840734e-03, -1.13543026e-03,  1.02631579e-02
   25628,  2.37859236e-03, -7.72851512e-04,  1.02631579e-02
   25629,  2.47020854e-03, -3.91242601e-04,  1.02631579e-02
   25630,  2.50100000e-03,  2.22133423e-19,  1.02631579e-02
   25631,  2.47020854e-03,  3.91242601e-04,  1.02631579e-02
   25632,  2.37859236e-03,  7.72851512e-04,  1.02631579e-02
   25633,  2.22840734e-03,  1.13543026e-03,  1.02631579e-02
   25634,  2.02335153e-03,  1.47005095e-03,  1.02631579e-02
   25635,  1.76847411e-03,  1.76847411e-03,  1.02631579e-02
   25636,  1.76847411e-03, -1.76847411e-03,  1.10526316e-02
   25637,  2.02335153e-03, -1.47005095e-03,  1.10526316e-02
   25638,  2.22840734e-03, -1.13543026e-03,  1.10526316e-02
   25639,  2.37859236e-03, -7.72851512e-04,  1.10526316e-02
   25640,  2.47020854e-03, -3.91242601e-04,  1.10526316e-02
   25641,  2.50100000e-03,  2.22133423e-19,  1.10526316e-02
   25642,  2.47020854e-03,  3.91242601e-04,  1.10526316e-02
   25643,  2.37859236e-03,  7.72851512e-04,  1.10526316e-02
   25644,  2.22840734e-03,  1.13543026e-03,  1.10526316e-02
   25645,  2.02335153e-03,  1.47005095e-03,  1.10526316e-02
   25646,  1.76847411e-03,  1.76847411e-03,  1.10526316e-02
   25647,  1.76847411e-03, -1.76847411e-03,  1.18421053e-02
   25648,  2.02335153e-03, -1.47005095e-03,  1.18421053e-02
   25649,  2.22840734e-03, -1.13543026e-03,  1.18421053e-02
   25650,  2.37859236e-03, -7.72851512e-04,  1.18421053e-02
   25651,  2.47020854e-03, -3.91242601e-04,  1.18421053e-02
   25652,  2.50100000e-03,  2.22133423e-19,  1.18421053e-02
   25653,  2.47020854e-03,  3.91242601e-04,  1.18421053e-02
   25654,  2.37859236e-03,  7.72851512e-04,  1.18421053e-02
   25655,  2.22840734e-03,  1.13543026e-03,  1.18421053e-02
   25656,  2.02335153e-03,  1.47005095e-03,  1.18421053e-02
   25657,  1.76847411e-03,  1.76847411e-03,  1.18421053e-02
   25658,  1.76847411e-03, -1.76847411e-03,  1.26315789e-02
   25659,  2.02335153e-03, -1.47005095e-03,  1.26315789e-02
   25660,  2.22840734e-03, -1.13543026e-03,  1.26315789e-02
   25661,  2.37859236e-03, -7.72851512e-04,  1.26315789e-02
   25662,  2.47020854e-03, -3.91242601e-04,  1.26315789e-02
   25663,  2.50100000e-03,  2.22133423e-19,  1.26315789e-02
   25664,  2.47020854e-03,  3.91242601e-04,  1.26315789e-02
   25665,  2.37859236e-03,  7.72851512e-04,  1.26315789e-02
   25666,  2.22840734e-03,  1.13543026e-03,  1.26315789e-02
   25667,  2.02335153e-03,  1.47005095e-03,  1.26315789e-02
   25668,  1.76847411e-03,  1.76847411e-03,  1.26315789e-02
   25669,  1.76847411e-03, -1.76847411e-03,  1.34210526e-02
   25670,  2.02335153e-03, -1.47005095e-03,  1.34210526e-02
   25671,  2.22840734e-03, -1.13543026e-03,  1.34210526e-02
   25672,  2.37859236e-03, -7.72851512e-04,  1.34210526e-02
   25673,  2.47020854e-03, -3.91242601e-04,  1.34210526e-02
   25674,  2.50100000e-03,  2.22133423e-19,  1.34210526e-02
   25675,  2.47020854e-03,  3.91242601e-04,  1.34210526e-02
   25676,  2.37859236e-03,  7.72851512e-04,  1.34210526e-02
   25677,  2.22840734e-03,  1.13543026e-03,  1.34210526e-02
   25678,  2.02335153e-03,  1.47005095e-03,  1.34210526e-02
   25679,  1.76847411e-03,  1.76847411e-03,  1.34210526e-02
   25680,  1.76847411e-03, -1.76847411e-03,  1.42105263e-02
   25681,  2.02335153e-03, -1.47005095e-03,  1.42105263e-02
   25682,  2.22840734e-03, -1.13543026e-03,  1.42105263e-02
   25683,  2.37859236e-03, -7.72851512e-04,  1.42105263e-02
   25684,  2.47020854e-03, -3.91242601e-04,  1.42105263e-02
   25685,  2.50100000e-03,  2.22133423e-19,  1.42105263e-02
   25686,  2.47020854e-03,  3.91242601e-04,  1.42105263e-02
   25687,  2.37859236e-03,  7.72851512e-04,  1.42105263e-02
   25688,  2.22840734e-03,  1.13543026e-03,  1.42105263e-02
   25689,  2.02335153e-03,  1.47005095e-03,  1.42105263e-02
   25690,  1.76847411e-03,  1.76847411e-03,  1.42105263e-02
   25691,  1.76847411e-03, -1.76847411e-03,  1.50000000e-02
   25692,  2.02335153e-03, -1.47005095e-03,  1.50000000e-02
   25693,  2.22840734e-03, -1.13543026e-03,  1.50000000e-02
   25694,  2.37859236e-03, -7.72851512e-04,  1.50000000e-02
   25695,  2.47020854e-03, -3.91242601e-04,  1.50000000e-02
   25696,  2.50100000e-03,  2.22133423e-19,  1.50000000e-02
   25697,  2.47020854e-03,  3.91242601e-04,  1.50000000e-02
   25698,  2.37859236e-03,  7.72851512e-04,  1.50000000e-02
   25699,  2.22840734e-03,  1.13543026e-03,  1.50000000e-02
   25700,  2.02335153e-03,  1.47005095e-03,  1.50000000e-02
   25701,  1.76847411e-03,  1.76847411e-03,  1.50000000e-02
   25702,  1.76847411e-03, -1.76847411e-03,  1.57894737e-02
   25703,  2.02335153e-03, -1.47005095e-03,  1.57894737e-02
   25704,  2.22840734e-03, -1.13543026e-03,  1.57894737e-02
   25705,  2.37859236e-03, -7.72851512e-04,  1.57894737e-02
   25706,  2.47020854e-03, -3.91242601e-04,  1.57894737e-02
   25707,  2.50100000e-03,  2.22133423e-19,  1.57894737e-02
   25708,  2.47020854e-03,  3.91242601e-04,  1.57894737e-02
   25709,  2.37859236e-03,  7.72851512e-04,  1.57894737e-02
   25710,  2.22840734e-03,  1.13543026e-03,  1.57894737e-02
   25711,  2.02335153e-03,  1.47005095e-03,  1.57894737e-02
   25712,  1.76847411e-03,  1.76847411e-03,  1.57894737e-02
   25713,  1.76847411e-03, -1.76847411e-03,  1.65789474e-02
   25714,  2.02335153e-03, -1.47005095e-03,  1.65789474e-02
   25715,  2.22840734e-03, -1.13543026e-03,  1.65789474e-02
   25716,  2.37859236e-03, -7.72851512e-04,  1.65789474e-02
   25717,  2.47020854e-03, -3.91242601e-04,  1.65789474e-02
   25718,  2.50100000e-03,  2.22133423e-19,  1.65789474e-02
   25719,  2.47020854e-03,  3.91242601e-04,  1.65789474e-02
   25720,  2.37859236e-03,  7.72851512e-04,  1.65789474e-02
   25721,  2.22840734e-03,  1.13543026e-03,  1.65789474e-02
   25722,  2.02335153e-03,  1.47005095e-03,  1.65789474e-02
   25723,  1.76847411e-03,  1.76847411e-03,  1.65789474e-02
   25724,  1.76847411e-03, -1.76847411e-03,  1.73684210e-02
   25725,  2.02335153e-03, -1.47005095e-03,  1.73684210e-02
   25726,  2.22840734e-03, -1.13543026e-03,  1.73684210e-02
   25727,  2.37859236e-03, -7.72851512e-04,  1.73684210e-02
   25728,  2.47020854e-03, -3.91242601e-04,  1.73684210e-02
   25729,  2.50100000e-03,  2.22133423e-19,  1.73684210e-02
   25730,  2.47020854e-03,  3.91242601e-04,  1.73684210e-02
   25731,  2.37859236e-03,  7.72851512e-04,  1.73684210e-02
   25732,  2.22840734e-03,  1.13543026e-03,  1.73684210e-02
   25733,  2.02335153e-03,  1.47005095e-03,  1.73684210e-02
   25734,  1.76847411e-03,  1.76847411e-03,  1.73684210e-02
   25735,  1.76847411e-03, -1.76847411e-03,  1.81578947e-02
   25736,  2.02335153e-03, -1.47005095e-03,  1.81578947e-02
   25737,  2.22840734e-03, -1.13543026e-03,  1.81578947e-02
   25738,  2.37859236e-03, -7.72851512e-04,  1.81578947e-02
   25739,  2.47020854e-03, -3.91242601e-04,  1.81578947e-02
   25740,  2.50100000e-03,  2.22133423e-19,  1.81578947e-02
   25741,  2.47020854e-03,  3.91242601e-04,  1.81578947e-02
   25742,  2.37859236e-03,  7.72851512e-04,  1.81578947e-02
   25743,  2.22840734e-03,  1.13543026e-03,  1.81578947e-02
   25744,  2.02335153e-03,  1.47005095e-03,  1.81578947e-02
   25745,  1.76847411e-03,  1.76847411e-03,  1.81578947e-02
   25746,  1.76847411e-03, -1.76847411e-03,  1.89473684e-02
   25747,  2.02335153e-03, -1.47005095e-03,  1.89473684e-02
   25748,  2.22840734e-03, -1.13543026e-03,  1.89473684e-02
   25749,  2.37859236e-03, -7.72851512e-04,  1.89473684e-02
   25750,  2.47020854e-03, -3.91242601e-04,  1.89473684e-02
   25751,  2.50100000e-03,  2.22133423e-19,  1.89473684e-02
   25752,  2.47020854e-03,  3.91242601e-04,  1.89473684e-02
   25753,  2.37859236e-03,  7.72851512e-04,  1.89473684e-02
   25754,  2.22840734e-03,  1.13543026e-03,  1.89473684e-02
   25755,  2.02335153e-03,  1.47005095e-03,  1.89473684e-02
   25756,  1.76847411e-03,  1.76847411e-03,  1.89473684e-02
   25757,  1.76847411e-03, -1.76847411e-03,  1.97368421e-02
   25758,  2.02335153e-03, -1.47005095e-03,  1.97368421e-02
   25759,  2.22840734e-03, -1.13543026e-03,  1.97368421e-02
   25760,  2.37859236e-03, -7.72851512e-04,  1.97368421e-02
   25761,  2.47020854e-03, -3.91242601e-04,  1.97368421e-02
   25762,  2.50100000e-03,  2.22133423e-19,  1.97368421e-02
   25763,  2.47020854e-03,  3.91242601e-04,  1.97368421e-02
   25764,  2.37859236e-03,  7.72851512e-04,  1.97368421e-02
   25765,  2.22840734e-03,  1.13543026e-03,  1.97368421e-02
   25766,  2.02335153e-03,  1.47005095e-03,  1.97368421e-02
   25767,  1.76847411e-03,  1.76847411e-03,  1.97368421e-02
   25768,  1.76847411e-03, -1.76847411e-03,  2.05263158e-02
   25769,  2.02335153e-03, -1.47005095e-03,  2.05263158e-02
   25770,  2.22840734e-03, -1.13543026e-03,  2.05263158e-02
   25771,  2.37859236e-03, -7.72851512e-04,  2.05263158e-02
   25772,  2.47020854e-03, -3.91242601e-04,  2.05263158e-02
   25773,  2.50100000e-03,  2.22133423e-19,  2.05263158e-02
   25774,  2.47020854e-03,  3.91242601e-04,  2.05263158e-02
   25775,  2.37859236e-03,  7.72851512e-04,  2.05263158e-02
   25776,  2.22840734e-03,  1.13543026e-03,  2.05263158e-02
   25777,  2.02335153e-03,  1.47005095e-03,  2.05263158e-02
   25778,  1.76847411e-03,  1.76847411e-03,  2.05263158e-02
   25779,  1.76847411e-03, -1.76847411e-03,  2.13157895e-02
   25780,  2.02335153e-03, -1.47005095e-03,  2.13157895e-02
   25781,  2.22840734e-03, -1.13543026e-03,  2.13157895e-02
   25782,  2.37859236e-03, -7.72851512e-04,  2.13157895e-02
   25783,  2.47020854e-03, -3.91242601e-04,  2.13157895e-02
   25784,  2.50100000e-03,  2.22133423e-19,  2.13157895e-02
   25785,  2.47020854e-03,  3.91242601e-04,  2.13157895e-02
   25786,  2.37859236e-03,  7.72851512e-04,  2.13157895e-02
   25787,  2.22840734e-03,  1.13543026e-03,  2.13157895e-02
   25788,  2.02335153e-03,  1.47005095e-03,  2.13157895e-02
   25789,  1.76847411e-03,  1.76847411e-03,  2.13157895e-02
   25790,  1.76847411e-03, -1.76847411e-03,  2.21052632e-02
   25791,  2.02335153e-03, -1.47005095e-03,  2.21052632e-02
   25792,  2.22840734e-03, -1.13543026e-03,  2.21052632e-02
   25793,  2.37859236e-03, -7.72851512e-04,  2.21052632e-02
   25794,  2.47020854e-03, -3.91242601e-04,  2.21052632e-02
   25795,  2.50100000e-03,  2.22133423e-19,  2.21052632e-02
   25796,  2.47020854e-03,  3.91242601e-04,  2.21052632e-02
   25797,  2.37859236e-03,  7.72851512e-04,  2.21052632e-02
   25798,  2.22840734e-03,  1.13543026e-03,  2.21052632e-02
   25799,  2.02335153e-03,  1.47005095e-03,  2.21052632e-02
   25800,  1.76847411e-03,  1.76847411e-03,  2.21052632e-02
   25801,  1.76847411e-03, -1.76847411e-03,  2.28947368e-02
   25802,  2.02335153e-03, -1.47005095e-03,  2.28947368e-02
   25803,  2.22840734e-03, -1.13543026e-03,  2.28947368e-02
   25804,  2.37859236e-03, -7.72851512e-04,  2.28947368e-02
   25805,  2.47020854e-03, -3.91242601e-04,  2.28947368e-02
   25806,  2.50100000e-03,  2.22133423e-19,  2.28947368e-02
   25807,  2.47020854e-03,  3.91242601e-04,  2.28947368e-02
   25808,  2.37859236e-03,  7.72851512e-04,  2.28947368e-02
   25809,  2.22840734e-03,  1.13543026e-03,  2.28947368e-02
   25810,  2.02335153e-03,  1.47005095e-03,  2.28947368e-02
   25811,  1.76847411e-03,  1.76847411e-03,  2.28947368e-02
   25812,  1.76847411e-03, -1.76847411e-03,  2.36842105e-02
   25813,  2.02335153e-03, -1.47005095e-03,  2.36842105e-02
   25814,  2.22840734e-03, -1.13543026e-03,  2.36842105e-02
   25815,  2.37859236e-03, -7.72851512e-04,  2.36842105e-02
   25816,  2.47020854e-03, -3.91242601e-04,  2.36842105e-02
   25817,  2.50100000e-03,  2.22133423e-19,  2.36842105e-02
   25818,  2.47020854e-03,  3.91242601e-04,  2.36842105e-02
   25819,  2.37859236e-03,  7.72851512e-04,  2.36842105e-02
   25820,  2.22840734e-03,  1.13543026e-03,  2.36842105e-02
   25821,  2.02335153e-03,  1.47005095e-03,  2.36842105e-02
   25822,  1.76847411e-03,  1.76847411e-03,  2.36842105e-02
   25823,  1.76847411e-03, -1.76847411e-03,  2.44736842e-02
   25824,  2.02335153e-03, -1.47005095e-03,  2.44736842e-02
   25825,  2.22840734e-03, -1.13543026e-03,  2.44736842e-02
   25826,  2.37859236e-03, -7.72851512e-04,  2.44736842e-02
   25827,  2.47020854e-03, -3.91242601e-04,  2.44736842e-02
   25828,  2.50100000e-03,  2.22133423e-19,  2.44736842e-02
   25829,  2.47020854e-03,  3.91242601e-04,  2.44736842e-02
   25830,  2.37859236e-03,  7.72851512e-04,  2.44736842e-02
   25831,  2.22840734e-03,  1.13543026e-03,  2.44736842e-02
   25832,  2.02335153e-03,  1.47005095e-03,  2.44736842e-02
   25833,  1.76847411e-03,  1.76847411e-03,  2.44736842e-02
   25834,  1.76847411e-03, -1.76847411e-03,  2.52631579e-02
   25835,  2.02335153e-03, -1.47005095e-03,  2.52631579e-02
   25836,  2.22840734e-03, -1.13543026e-03,  2.52631579e-02
   25837,  2.37859236e-03, -7.72851512e-04,  2.52631579e-02
   25838,  2.47020854e-03, -3.91242601e-04,  2.52631579e-02
   25839,  2.50100000e-03,  2.22133423e-19,  2.52631579e-02
   25840,  2.47020854e-03,  3.91242601e-04,  2.52631579e-02
   25841,  2.37859236e-03,  7.72851512e-04,  2.52631579e-02
   25842,  2.22840734e-03,  1.13543026e-03,  2.52631579e-02
   25843,  2.02335153e-03,  1.47005095e-03,  2.52631579e-02
   25844,  1.76847411e-03,  1.76847411e-03,  2.52631579e-02
   25845,  1.76847411e-03, -1.76847411e-03,  2.60526316e-02
   25846,  2.02335153e-03, -1.47005095e-03,  2.60526316e-02
   25847,  2.22840734e-03, -1.13543026e-03,  2.60526316e-02
   25848,  2.37859236e-03, -7.72851512e-04,  2.60526316e-02
   25849,  2.47020854e-03, -3.91242601e-04,  2.60526316e-02
   25850,  2.50100000e-03,  2.22133423e-19,  2.60526316e-02
   25851,  2.47020854e-03,  3.91242601e-04,  2.60526316e-02
   25852,  2.37859236e-03,  7.72851512e-04,  2.60526316e-02
   25853,  2.22840734e-03,  1.13543026e-03,  2.60526316e-02
   25854,  2.02335153e-03,  1.47005095e-03,  2.60526316e-02
   25855,  1.76847411e-03,  1.76847411e-03,  2.60526316e-02
   25856,  1.76847411e-03, -1.76847411e-03,  2.68421053e-02
   25857,  2.02335153e-03, -1.47005095e-03,  2.68421053e-02
   25858,  2.22840734e-03, -1.13543026e-03,  2.68421053e-02
   25859,  2.37859236e-03, -7.72851512e-04,  2.68421053e-02
   25860,  2.47020854e-03, -3.91242601e-04,  2.68421053e-02
   25861,  2.50100000e-03,  2.22133423e-19,  2.68421053e-02
   25862,  2.47020854e-03,  3.91242601e-04,  2.68421053e-02
   25863,  2.37859236e-03,  7.72851512e-04,  2.68421053e-02
   25864,  2.22840734e-03,  1.13543026e-03,  2.68421053e-02
   25865,  2.02335153e-03,  1.47005095e-03,  2.68421053e-02
   25866,  1.76847411e-03,  1.76847411e-03,  2.68421053e-02
   25867,  1.76847411e-03, -1.76847411e-03,  2.76315789e-02
   25868,  2.02335153e-03, -1.47005095e-03,  2.76315789e-02
   25869,  2.22840734e-03, -1.13543026e-03,  2.76315789e-02
   25870,  2.37859236e-03, -7.72851512e-04,  2.76315789e-02
   25871,  2.47020854e-03, -3.91242601e-04,  2.76315789e-02
   25872,  2.50100000e-03,  2.22133423e-19,  2.76315789e-02
   25873,  2.47020854e-03,  3.91242601e-04,  2.76315789e-02
   25874,  2.37859236e-03,  7.72851512e-04,  2.76315789e-02
   25875,  2.22840734e-03,  1.13543026e-03,  2.76315789e-02
   25876,  2.02335153e-03,  1.47005095e-03,  2.76315789e-02
   25877,  1.76847411e-03,  1.76847411e-03,  2.76315789e-02
   25878,  1.76847411e-03, -1.76847411e-03,  2.84210526e-02
   25879,  2.02335153e-03, -1.47005095e-03,  2.84210526e-02
   25880,  2.22840734e-03, -1.13543026e-03,  2.84210526e-02
   25881,  2.37859236e-03, -7.72851512e-04,  2.84210526e-02
   25882,  2.47020854e-03, -3.91242601e-04,  2.84210526e-02
   25883,  2.50100000e-03,  2.22133423e-19,  2.84210526e-02
   25884,  2.47020854e-03,  3.91242601e-04,  2.84210526e-02
   25885,  2.37859236e-03,  7.72851512e-04,  2.84210526e-02
   25886,  2.22840734e-03,  1.13543026e-03,  2.84210526e-02
   25887,  2.02335153e-03,  1.47005095e-03,  2.84210526e-02
   25888,  1.76847411e-03,  1.76847411e-03,  2.84210526e-02
   25889,  1.76847411e-03, -1.76847411e-03,  2.92105263e-02
   25890,  2.02335153e-03, -1.47005095e-03,  2.92105263e-02
   25891,  2.22840734e-03, -1.13543026e-03,  2.92105263e-02
   25892,  2.37859236e-03, -7.72851512e-04,  2.92105263e-02
   25893,  2.47020854e-03, -3.91242601e-04,  2.92105263e-02
   25894,  2.50100000e-03,  2.22133423e-19,  2.92105263e-02
   25895,  2.47020854e-03,  3.91242601e-04,  2.92105263e-02
   25896,  2.37859236e-03,  7.72851512e-04,  2.92105263e-02
   25897,  2.22840734e-03,  1.13543026e-03,  2.92105263e-02
   25898,  2.02335153e-03,  1.47005095e-03,  2.92105263e-02
   25899,  1.76847411e-03,  1.76847411e-03,  2.92105263e-02
   25900,  1.76847411e-03, -1.76847411e-03,  3.00000000e-02
   25901,  2.02335153e-03, -1.47005095e-03,  3.00000000e-02
   25902,  2.22840734e-03, -1.13543026e-03,  3.00000000e-02
   25903,  2.37859236e-03, -7.72851512e-04,  3.00000000e-02
   25904,  2.47020854e-03, -3.91242601e-04,  3.00000000e-02
   25905,  2.50100000e-03,  2.22133423e-19,  3.00000000e-02
   25906,  2.47020854e-03,  3.91242601e-04,  3.00000000e-02
   25907,  2.37859236e-03,  7.72851512e-04,  3.00000000e-02
   25908,  2.22840734e-03,  1.13543026e-03,  3.00000000e-02
   25909,  2.02335153e-03,  1.47005095e-03,  3.00000000e-02
   25910,  1.76847411e-03,  1.76847411e-03,  3.00000000e-02
   25911,  1.47005095e-03,  2.02335153e-03,  0.00000000e+00
   25912,  1.13543026e-03,  2.22840734e-03,  0.00000000e+00
   25913,  7.72851512e-04,  2.37859236e-03,  0.00000000e+00
   25914,  3.91242601e-04,  2.47020854e-03,  0.00000000e+00
   25915,  2.22133423e-19,  2.50100000e-03,  0.00000000e+00
   25916, -3.91242601e-04,  2.47020854e-03,  0.00000000e+00
   25917, -7.72851512e-04,  2.37859236e-03,  0.00000000e+00
   25918, -1.13543026e-03,  2.22840734e-03,  0.00000000e+00
   25919, -1.47005095e-03,  2.02335153e-03,  0.00000000e+00
   25920, -1.76847411e-03,  1.76847411e-03,  0.00000000e+00
   25921,  1.47005095e-03,  2.02335153e-03,  7.89473684e-04
   25922,  1.13543026e-03,  2.22840734e-03,  7.89473684e-04
   25923,  7.72851512e-04,  2.37859236e-03,  7.89473684e-04
   25924,  3.91242601e-04,  2.47020854e-03,  7.89473684e-04
   25925,  2.22133423e-19,  2.50100000e-03,  7.89473684e-04
   25926, -3.91242601e-04,  2.47020854e-03,  7.89473684e-04
   25927, -7.72851512e-04,  2.37859236e-03,  7.89473684e-04
   25928, -1.13543026e-03,  2.22840734e-03,  7.89473684e-04
   25929, -1.47005095e-03,  2.02335153e-03,  7.89473684e-04
   25930, -1.76847411e-03,  1.76847411e-03,  7.89473684e-04
   25931,  1.47005095e-03,  2.02335153e-03,  1.57894737e-03
   25932,  1.13543026e-03,  2.22840734e-03,  1.57894737e-03
   25933,  7.72851512e-04,  2.37859236e-03,  1.57894737e-03
   25934,  3.91242601e-04,  2.47020854e-03,  1.57894737e-03
   25935,  2.22133423e-19,  2.50100000e-03,  1.57894737e-03
   25936, -3.91242601e-04,  2.47020854e-03,  1.57894737e-03
   25937, -7.72851512e-04,  2.37859236e-03,  1.57894737e-03
   25938, -1.13543026e-03,  2.22840734e-03,  1.57894737e-03
   25939, -1.47005095e-03,  2.02335153e-03,  1.57894737e-03
   25940, -1.76847411e-03,  1.76847411e-03,  1.57894737e-03
   25941,  1.47005095e-03,  2.02335153e-03,  2.36842105e-03
   25942,  1.13543026e-03,  2.22840734e-03,  2.36842105e-03
   25943,  7.72851512e-04,  2.37859236e-03,  2.36842105e-03
   25944,  3.91242601e-04,  2.47020854e-03,  2.36842105e-03
   25945,  2.22133423e-19,  2.50100000e-03,  2.36842105e-03
   25946, -3.91242601e-04,  2.47020854e-03,  2.36842105e-03
   25947, -7.72851512e-04,  2.37859236e-03,  2.36842105e-03
   25948, -1.13543026e-03,  2.22840734e-03,  2.36842105e-03
   25949, -1.47005095e-03,  2.02335153e-03,  2.36842105e-03
   25950, -1.76847411e-03,  1.76847411e-03,  2.36842105e-03
   25951,  1.47005095e-03,  2.02335153e-03,  3.15789474e-03
   25952,  1.13543026e-03,  2.22840734e-03,  3.15789474e-03
   25953,  7.72851512e-04,  2.37859236e-03,  3.15789474e-03
   25954,  3.91242601e-04,  2.47020854e-03,  3.15789474e-03
   25955,  2.22133423e-19,  2.50100000e-03,  3.15789474e-03
   25956, -3.91242601e-04,  2.47020854e-03,  3.15789474e-03
   25957, -7.72851512e-04,  2.37859236e-03,  3.15789474e-03
   25958, -1.13543026e-03,  2.22840734e-03,  3.15789474e-03
   25959, -1.47005095e-03,  2.02335153e-03,  3.15789474e-03
   25960, -1.76847411e-03,  1.76847411e-03,  3.15789474e-03
   25961,  1.47005095e-03,  2.02335153e-03,  3.94736842e-03
   25962,  1.13543026e-03,  2.22840734e-03,  3.94736842e-03
   25963,  7.72851512e-04,  2.37859236e-03,  3.94736842e-03
   25964,  3.91242601e-04,  2.47020854e-03,  3.94736842e-03
   25965,  2.22133423e-19,  2.50100000e-03,  3.94736842e-03
   25966, -3.91242601e-04,  2.47020854e-03,  3.94736842e-03
   25967, -7.72851512e-04,  2.37859236e-03,  3.94736842e-03
   25968, -1.13543026e-03,  2.22840734e-03,  3.94736842e-03
   25969, -1.47005095e-03,  2.02335153e-03,  3.94736842e-03
   25970, -1.76847411e-03,  1.76847411e-03,  3.94736842e-03
   25971,  1.47005095e-03,  2.02335153e-03,  4.73684210e-03
   25972,  1.13543026e-03,  2.22840734e-03,  4.73684210e-03
   25973,  7.72851512e-04,  2.37859236e-03,  4.73684210e-03
   25974,  3.91242601e-04,  2.47020854e-03,  4.73684210e-03
   25975,  2.22133423e-19,  2.50100000e-03,  4.73684210e-03
   25976, -3.91242601e-04,  2.47020854e-03,  4.73684210e-03
   25977, -7.72851512e-04,  2.37859236e-03,  4.73684210e-03
   25978, -1.13543026e-03,  2.22840734e-03,  4.73684210e-03
   25979, -1.47005095e-03,  2.02335153e-03,  4.73684210e-03
   25980, -1.76847411e-03,  1.76847411e-03,  4.73684210e-03
   25981,  1.47005095e-03,  2.02335153e-03,  5.52631579e-03
   25982,  1.13543026e-03,  2.22840734e-03,  5.52631579e-03
   25983,  7.72851512e-04,  2.37859236e-03,  5.52631579e-03
   25984,  3.91242601e-04,  2.47020854e-03,  5.52631579e-03
   25985,  2.22133423e-19,  2.50100000e-03,  5.52631579e-03
   25986, -3.91242601e-04,  2.47020854e-03,  5.52631579e-03
   25987, -7.72851512e-04,  2.37859236e-03,  5.52631579e-03
   25988, -1.13543026e-03,  2.22840734e-03,  5.52631579e-03
   25989, -1.47005095e-03,  2.02335153e-03,  5.52631579e-03
   25990, -1.76847411e-03,  1.76847411e-03,  5.52631579e-03
   25991,  1.47005095e-03,  2.02335153e-03,  6.31578947e-03
   25992,  1.13543026e-03,  2.22840734e-03,  6.31578947e-03
   25993,  7.72851512e-04,  2.37859236e-03,  6.31578947e-03
   25994,  3.91242601e-04,  2.47020854e-03,  6.31578947e-03
   25995,  2.22133423e-19,  2.50100000e-03,  6.31578947e-03
   25996, -3.91242601e-04,  2.47020854e-03,  6.31578947e-03
   25997, -7.72851512e-04,  2.37859236e-03,  6.31578947e-03
   25998, -1.13543026e-03,  2.22840734e-03,  6.31578947e-03
   25999, -1.47005095e-03,  2.02335153e-03,  6.31578947e-03
   26000, -1.76847411e-03,  1.76847411e-03,  6.31578947e-03
   26001,  1.47005095e-03,  2.02335153e-03,  7.10526316e-03
   26002,  1.13543026e-03,  2.22840734e-03,  7.10526316e-03
   26003,  7.72851512e-04,  2.37859236e-03,  7.10526316e-03
   26004,  3.91242601e-04,  2.47020854e-03,  7.10526316e-03
   26005,  2.22133423e-19,  2.50100000e-03,  7.10526316e-03
   26006, -3.91242601e-04,  2.47020854e-03,  7.10526316e-03
   26007, -7.72851512e-04,  2.37859236e-03,  7.10526316e-03
   26008, -1.13543026e-03,  2.22840734e-03,  7.10526316e-03
   26009, -1.47005095e-03,  2.02335153e-03,  7.10526316e-03
   26010, -1.76847411e-03,  1.76847411e-03,  7.10526316e-03
   26011,  1.47005095e-03,  2.02335153e-03,  7.89473684e-03
   26012,  1.13543026e-03,  2.22840734e-03,  7.89473684e-03
   26013,  7.72851512e-04,  2.37859236e-03,  7.89473684e-03
   26014,  3.91242601e-04,  2.47020854e-03,  7.89473684e-03
   26015,  2.22133423e-19,  2.50100000e-03,  7.89473684e-03
   26016, -3.91242601e-04,  2.47020854e-03,  7.89473684e-03
   26017, -7.72851512e-04,  2.37859236e-03,  7.89473684e-03
   26018, -1.13543026e-03,  2.22840734e-03,  7.89473684e-03
   26019, -1.47005095e-03,  2.02335153e-03,  7.89473684e-03
   26020, -1.76847411e-03,  1.76847411e-03,  7.89473684e-03
   26021,  1.47005095e-03,  2.02335153e-03,  8.68421053e-03
   26022,  1.13543026e-03,  2.22840734e-03,  8.68421053e-03
   26023,  7.72851512e-04,  2.37859236e-03,  8.68421053e-03
   26024,  3.91242601e-04,  2.47020854e-03,  8.68421053e-03
   26025,  2.22133423e-19,  2.50100000e-03,  8.68421053e-03
   26026, -3.91242601e-04,  2.47020854e-03,  8.68421053e-03
   26027, -7.72851512e-04,  2.37859236e-03,  8.68421053e-03
   26028, -1.13543026e-03,  2.22840734e-03,  8.68421053e-03
   26029, -1.47005095e-03,  2.02335153e-03,  8.68421053e-03
   26030, -1.76847411e-03,  1.76847411e-03,  8.68421053e-03
   26031,  1.47005095e-03,  2.02335153e-03,  9.47368421e-03
   26032,  1.13543026e-03,  2.22840734e-03,  9.47368421e-03
   26033,  7.72851512e-04,  2.37859236e-03,  9.47368421e-03
   26034,  3.91242601e-04,  2.47020854e-03,  9.47368421e-03
   26035,  2.22133423e-19,  2.50100000e-03,  9.47368421e-03
   26036, -3.91242601e-04,  2.47020854e-03,  9.47368421e-03
   26037, -7.72851512e-04,  2.37859236e-03,  9.47368421e-03
   26038, -1.13543026e-03,  2.22840734e-03,  9.47368421e-03
   26039, -1.47005095e-03,  2.02335153e-03,  9.47368421e-03
   26040, -1.76847411e-03,  1.76847411e-03,  9.47368421e-03
   26041,  1.47005095e-03,  2.02335153e-03,  1.02631579e-02
   26042,  1.13543026e-03,  2.22840734e-03,  1.02631579e-02
   26043,  7.72851512e-04,  2.37859236e-03,  1.02631579e-02
   26044,  3.91242601e-04,  2.47020854e-03,  1.02631579e-02
   26045,  2.22133423e-19,  2.50100000e-03,  1.02631579e-02
   26046, -3.91242601e-04,  2.47020854e-03,  1.02631579e-02
   26047, -7.72851512e-04,  2.37859236e-03,  1.02631579e-02
   26048, -1.13543026e-03,  2.22840734e-03,  1.02631579e-02
   26049, -1.47005095e-03,  2.02335153e-03,  1.02631579e-02
   26050, -1.76847411e-03,  1.76847411e-03,  1.02631579e-02
   26051,  1.47005095e-03,  2.02335153e-03,  1.10526316e-02
   26052,  1.13543026e-03,  2.22840734e-03,  1.10526316e-02
   26053,  7.72851512e-04,  2.37859236e-03,  1.10526316e-02
   26054,  3.91242601e-04,  2.47020854e-03,  1.10526316e-02
   26055,  2.22133423e-19,  2.50100000e-03,  1.10526316e-02
   26056, -3.91242601e-04,  2.47020854e-03,  1.10526316e-02
   26057, -7.72851512e-04,  2.37859236e-03,  1.10526316e-02
   26058, -1.13543026e-03,  2.22840734e-03,  1.10526316e-02
   26059, -1.47005095e-03,  2.02335153e-03,  1.10526316e-02
   26060, -1.76847411e-03,  1.76847411e-03,  1.10526316e-02
   26061,  1.47005095e-03,  2.02335153e-03,  1.18421053e-02
   26062,  1.13543026e-03,  2.22840734e-03,  1.18421053e-02
   26063,  7.72851512e-04,  2.37859236e-03,  1.18421053e-02
   26064,  3.91242601e-04,  2.47020854e-03,  1.18421053e-02
   26065,  2.22133423e-19,  2.50100000e-03,  1.18421053e-02
   26066, -3.91242601e-04,  2.47020854e-03,  1.18421053e-02
   26067, -7.72851512e-04,  2.37859236e-03,  1.18421053e-02
   26068, -1.13543026e-03,  2.22840734e-03,  1.18421053e-02
   26069, -1.47005095e-03,  2.02335153e-03,  1.18421053e-02
   26070, -1.76847411e-03,  1.76847411e-03,  1.18421053e-02
   26071,  1.47005095e-03,  2.02335153e-03,  1.26315789e-02
   26072,  1.13543026e-03,  2.22840734e-03,  1.26315789e-02
   26073,  7.72851512e-04,  2.37859236e-03,  1.26315789e-02
   26074,  3.91242601e-04,  2.47020854e-03,  1.26315789e-02
   26075,  2.22133423e-19,  2.50100000e-03,  1.26315789e-02
   26076, -3.91242601e-04,  2.47020854e-03,  1.26315789e-02
   26077, -7.72851512e-04,  2.37859236e-03,  1.26315789e-02
   26078, -1.13543026e-03,  2.22840734e-03,  1.26315789e-02
   26079, -1.47005095e-03,  2.02335153e-03,  1.26315789e-02
   26080, -1.76847411e-03,  1.76847411e-03,  1.26315789e-02
   26081,  1.47005095e-03,  2.02335153e-03,  1.34210526e-02
   26082,  1.13543026e-03,  2.22840734e-03,  1.34210526e-02
   26083,  7.72851512e-04,  2.37859236e-03,  1.34210526e-02
   26084,  3.91242601e-04,  2.47020854e-03,  1.34210526e-02
   26085,  2.22133423e-19,  2.50100000e-03,  1.34210526e-02
   26086, -3.91242601e-04,  2.47020854e-03,  1.34210526e-02
   26087, -7.72851512e-04,  2.37859236e-03,  1.34210526e-02
   26088, -1.13543026e-03,  2.22840734e-03,  1.34210526e-02
   26089, -1.47005095e-03,  2.02335153e-03,  1.34210526e-02
   26090, -1.76847411e-03,  1.76847411e-03,  1.34210526e-02
   26091,  1.47005095e-03,  2.02335153e-03,  1.42105263e-02
   26092,  1.13543026e-03,  2.22840734e-03,  1.42105263e-02
   26093,  7.72851512e-04,  2.37859236e-03,  1.42105263e-02
   26094,  3.91242601e-04,  2.47020854e-03,  1.42105263e-02
   26095,  2.22133423e-19,  2.50100000e-03,  1.42105263e-02
   26096, -3.91242601e-04,  2.47020854e-03,  1.42105263e-02
   26097, -7.72851512e-04,  2.37859236e-03,  1.42105263e-02
   26098, -1.13543026e-03,  2.22840734e-03,  1.42105263e-02
   26099, -1.47005095e-03,  2.02335153e-03,  1.42105263e-02
   26100, -1.76847411e-03,  1.76847411e-03,  1.42105263e-02
   26101,  1.47005095e-03,  2.02335153e-03,  1.50000000e-02
   26102,  1.13543026e-03,  2.22840734e-03,  1.50000000e-02
   26103,  7.72851512e-04,  2.37859236e-03,  1.50000000e-02
   26104,  3.91242601e-04,  2.47020854e-03,  1.50000000e-02
   26105,  2.22133423e-19,  2.50100000e-03,  1.50000000e-02
   26106, -3.91242601e-04,  2.47020854e-03,  1.50000000e-02
   26107, -7.72851512e-04,  2.37859236e-03,  1.50000000e-02
   26108, -1.13543026e-03,  2.22840734e-03,  1.50000000e-02
   26109, -1.47005095e-03,  2.02335153e-03,  1.50000000e-02
   26110, -1.76847411e-03,  1.76847411e-03,  1.50000000e-02
   26111,  1.47005095e-03,  2.02335153e-03,  1.57894737e-02
   26112,  1.13543026e-03,  2.22840734e-03,  1.57894737e-02
   26113,  7.72851512e-04,  2.37859236e-03,  1.57894737e-02
   26114,  3.91242601e-04,  2.47020854e-03,  1.57894737e-02
   26115,  2.22133423e-19,  2.50100000e-03,  1.57894737e-02
   26116, -3.91242601e-04,  2.47020854e-03,  1.57894737e-02
   26117, -7.72851512e-04,  2.37859236e-03,  1.57894737e-02
   26118, -1.13543026e-03,  2.22840734e-03,  1.57894737e-02
   26119, -1.47005095e-03,  2.02335153e-03,  1.57894737e-02
   26120, -1.76847411e-03,  1.76847411e-03,  1.57894737e-02
   26121,  1.47005095e-03,  2.02335153e-03,  1.65789474e-02
   26122,  1.13543026e-03,  2.22840734e-03,  1.65789474e-02
   26123,  7.72851512e-04,  2.37859236e-03,  1.65789474e-02
   26124,  3.91242601e-04,  2.47020854e-03,  1.65789474e-02
   26125,  2.22133423e-19,  2.50100000e-03,  1.65789474e-02
   26126, -3.91242601e-04,  2.47020854e-03,  1.65789474e-02
   26127, -7.72851512e-04,  2.37859236e-03,  1.65789474e-02
   26128, -1.13543026e-03,  2.22840734e-03,  1.65789474e-02
   26129, -1.47005095e-03,  2.02335153e-03,  1.65789474e-02
   26130, -1.76847411e-03,  1.76847411e-03,  1.65789474e-02
   26131,  1.47005095e-03,  2.02335153e-03,  1.73684210e-02
   26132,  1.13543026e-03,  2.22840734e-03,  1.73684210e-02
   26133,  7.72851512e-04,  2.37859236e-03,  1.73684210e-02
   26134,  3.91242601e-04,  2.47020854e-03,  1.73684210e-02
   26135,  2.22133423e-19,  2.50100000e-03,  1.73684210e-02
   26136, -3.91242601e-04,  2.47020854e-03,  1.73684210e-02
   26137, -7.72851512e-04,  2.37859236e-03,  1.73684210e-02
   26138, -1.13543026e-03,  2.22840734e-03,  1.73684210e-02
   26139, -1.47005095e-03,  2.02335153e-03,  1.73684210e-02
   26140, -1.76847411e-03,  1.76847411e-03,  1.73684210e-02
   26141,  1.47005095e-03,  2.02335153e-03,  1.81578947e-02
   26142,  1.13543026e-03,  2.22840734e-03,  1.81578947e-02
   26143,  7.72851512e-04,  2.37859236e-03,  1.81578947e-02
   26144,  3.91242601e-04,  2.47020854e-03,  1.81578947e-02
   26145,  2.22133423e-19,  2.50100000e-03,  1.81578947e-02
   26146, -3.91242601e-04,  2.47020854e-03,  1.81578947e-02
   26147, -7.72851512e-04,  2.37859236e-03,  1.81578947e-02
   26148, -1.13543026e-03,  2.22840734e-03,  1.81578947e-02
   26149, -1.47005095e-03,  2.02335153e-03,  1.81578947e-02
   26150, -1.76847411e-03,  1.76847411e-03,  1.81578947e-02
   26151,  1.47005095e-03,  2.02335153e-03,  1.89473684e-02
   26152,  1.13543026e-03,  2.22840734e-03,  1.89473684e-02
   26153,  7.72851512e-04,  2.37859236e-03,  1.89473684e-02
   26154,  3.91242601e-04,  2.47020854e-03,  1.89473684e-02
   26155,  2.22133423e-19,  2.50100000e-03,  1.89473684e-02
   26156, -3.91242601e-04,  2.47020854e-03,  1.89473684e-02
   26157, -7.72851512e-04,  2.37859236e-03,  1.89473684e-02
   26158, -1.13543026e-03,  2.22840734e-03,  1.89473684e-02
   26159, -1.47005095e-03,  2.02335153e-03,  1.89473684e-02
   26160, -1.76847411e-03,  1.76847411e-03,  1.89473684e-02
   26161,  1.47005095e-03,  2.02335153e-03,  1.97368421e-02
   26162,  1.13543026e-03,  2.22840734e-03,  1.97368421e-02
   26163,  7.72851512e-04,  2.37859236e-03,  1.97368421e-02
   26164,  3.91242601e-04,  2.47020854e-03,  1.97368421e-02
   26165,  2.22133423e-19,  2.50100000e-03,  1.97368421e-02
   26166, -3.91242601e-04,  2.47020854e-03,  1.97368421e-02
   26167, -7.72851512e-04,  2.37859236e-03,  1.97368421e-02
   26168, -1.13543026e-03,  2.22840734e-03,  1.97368421e-02
   26169, -1.47005095e-03,  2.02335153e-03,  1.97368421e-02
   26170, -1.76847411e-03,  1.76847411e-03,  1.97368421e-02
   26171,  1.47005095e-03,  2.02335153e-03,  2.05263158e-02
   26172,  1.13543026e-03,  2.22840734e-03,  2.05263158e-02
   26173,  7.72851512e-04,  2.37859236e-03,  2.05263158e-02
   26174,  3.91242601e-04,  2.47020854e-03,  2.05263158e-02
   26175,  2.22133423e-19,  2.50100000e-03,  2.05263158e-02
   26176, -3.91242601e-04,  2.47020854e-03,  2.05263158e-02
   26177, -7.72851512e-04,  2.37859236e-03,  2.05263158e-02
   26178, -1.13543026e-03,  2.22840734e-03,  2.05263158e-02
   26179, -1.47005095e-03,  2.02335153e-03,  2.05263158e-02
   26180, -1.76847411e-03,  1.76847411e-03,  2.05263158e-02
   26181,  1.47005095e-03,  2.02335153e-03,  2.13157895e-02
   26182,  1.13543026e-03,  2.22840734e-03,  2.13157895e-02
   26183,  7.72851512e-04,  2.37859236e-03,  2.13157895e-02
   26184,  3.91242601e-04,  2.47020854e-03,  2.13157895e-02
   26185,  2.22133423e-19,  2.50100000e-03,  2.13157895e-02
   26186, -3.91242601e-04,  2.47020854e-03,  2.13157895e-02
   26187, -7.72851512e-04,  2.37859236e-03,  2.13157895e-02
   26188, -1.13543026e-03,  2.22840734e-03,  2.13157895e-02
   26189, -1.47005095e-03,  2.02335153e-03,  2.13157895e-02
   26190, -1.76847411e-03,  1.76847411e-03,  2.13157895e-02
   26191,  1.47005095e-03,  2.02335153e-03,  2.21052632e-02
   26192,  1.13543026e-03,  2.22840734e-03,  2.21052632e-02
   26193,  7.72851512e-04,  2.37859236e-03,  2.21052632e-02
   26194,  3.91242601e-04,  2.47020854e-03,  2.21052632e-02
   26195,  2.22133423e-19,  2.50100000e-03,  2.21052632e-02
   26196, -3.91242601e-04,  2.47020854e-03,  2.21052632e-02
   26197, -7.72851512e-04,  2.37859236e-03,  2.21052632e-02
   26198, -1.13543026e-03,  2.22840734e-03,  2.21052632e-02
   26199, -1.47005095e-03,  2.02335153e-03,  2.21052632e-02
   26200, -1.76847411e-03,  1.76847411e-03,  2.21052632e-02
   26201,  1.47005095e-03,  2.02335153e-03,  2.28947368e-02
   26202,  1.13543026e-03,  2.22840734e-03,  2.28947368e-02
   26203,  7.72851512e-04,  2.37859236e-03,  2.28947368e-02
   26204,  3.91242601e-04,  2.47020854e-03,  2.28947368e-02
   26205,  2.22133423e-19,  2.50100000e-03,  2.28947368e-02
   26206, -3.91242601e-04,  2.47020854e-03,  2.28947368e-02
   26207, -7.72851512e-04,  2.37859236e-03,  2.28947368e-02
   26208, -1.13543026e-03,  2.22840734e-03,  2.28947368e-02
   26209, -1.47005095e-03,  2.02335153e-03,  2.28947368e-02
   26210, -1.76847411e-03,  1.76847411e-03,  2.28947368e-02
   26211,  1.47005095e-03,  2.02335153e-03,  2.36842105e-02
   26212,  1.13543026e-03,  2.22840734e-03,  2.36842105e-02
   26213,  7.72851512e-04,  2.37859236e-03,  2.36842105e-02
   26214,  3.91242601e-04,  2.47020854e-03,  2.36842105e-02
   26215,  2.22133423e-19,  2.50100000e-03,  2.36842105e-02
   26216, -3.91242601e-04,  2.47020854e-03,  2.36842105e-02
   26217, -7.72851512e-04,  2.37859236e-03,  2.36842105e-02
   26218, -1.13543026e-03,  2.22840734e-03,  2.36842105e-02
   26219, -1.47005095e-03,  2.02335153e-03,  2.36842105e-02
   26220, -1.76847411e-03,  1.76847411e-03,  2.36842105e-02
   26221,  1.47005095e-03,  2.02335153e-03,  2.44736842e-02
   26222,  1.13543026e-03,  2.22840734e-03,  2.44736842e-02
   26223,  7.72851512e-04,  2.37859236e-03,  2.44736842e-02
   26224,  3.91242601e-04,  2.47020854e-03,  2.44736842e-02
   26225,  2.22133423e-19,  2.50100000e-03,  2.44736842e-02
   26226, -3.91242601e-04,  2.47020854e-03,  2.44736842e-02
   26227, -7.72851512e-04,  2.37859236e-03,  2.44736842e-02
   26228, -1.13543026e-03,  2.22840734e-03,  2.44736842e-02
   26229, -1.47005095e-03,  2.02335153e-03,  2.44736842e-02
   26230, -1.76847411e-03,  1.76847411e-03,  2.44736842e-02
   26231,  1.47005095e-03,  2.02335153e-03,  2.52631579e-02
   26232,  1.13543026e-03,  2.22840734e-03,  2.52631579e-02
   26233,  7.72851512e-04,  2.37859236e-03,  2.52631579e-02
   26234,  3.91242601e-04,  2.47020854e-03,  2.52631579e-02
   26235,  2.22133423e-19,  2.50100000e-03,  2.52631579e-02
   26236, -3.91242601e-04,  2.47020854e-03,  2.52631579e-02
   26237, -7.72851512e-04,  2.37859236e-03,  2.52631579e-02
   26238, -1.13543026e-03,  2.22840734e-03,  2.52631579e-02
   26239, -1.47005095e-03,  2.02335153e-03,  2.52631579e-02
   26240, -1.76847411e-03,  1.76847411e-03,  2.52631579e-02
   26241,  1.47005095e-03,  2.02335153e-03,  2.60526316e-02
   26242,  1.13543026e-03,  2.22840734e-03,  2.60526316e-02
   26243,  7.72851512e-04,  2.37859236e-03,  2.60526316e-02
   26244,  3.91242601e-04,  2.47020854e-03,  2.60526316e-02
   26245,  2.22133423e-19,  2.50100000e-03,  2.60526316e-02
   26246, -3.91242601e-04,  2.47020854e-03,  2.60526316e-02
   26247, -7.72851512e-04,  2.37859236e-03,  2.60526316e-02
   26248, -1.13543026e-03,  2.22840734e-03,  2.60526316e-02
   26249, -1.47005095e-03,  2.02335153e-03,  2.60526316e-02
   26250, -1.76847411e-03,  1.76847411e-03,  2.60526316e-02
   26251,  1.47005095e-03,  2.02335153e-03,  2.68421053e-02
   26252,  1.13543026e-03,  2.22840734e-03,  2.68421053e-02
   26253,  7.72851512e-04,  2.37859236e-03,  2.68421053e-02
   26254,  3.91242601e-04,  2.47020854e-03,  2.68421053e-02
   26255,  2.22133423e-19,  2.50100000e-03,  2.68421053e-02
   26256, -3.91242601e-04,  2.47020854e-03,  2.68421053e-02
   26257, -7.72851512e-04,  2.37859236e-03,  2.68421053e-02
   26258, -1.13543026e-03,  2.22840734e-03,  2.68421053e-02
   26259, -1.47005095e-03,  2.02335153e-03,  2.68421053e-02
   26260, -1.76847411e-03,  1.76847411e-03,  2.68421053e-02
   26261,  1.47005095e-03,  2.02335153e-03,  2.76315789e-02
   26262,  1.13543026e-03,  2.22840734e-03,  2.76315789e-02
   26263,  7.72851512e-04,  2.37859236e-03,  2.76315789e-02
   26264,  3.91242601e-04,  2.47020854e-03,  2.76315789e-02
   26265,  2.22133423e-19,  2.50100000e-03,  2.76315789e-02
   26266, -3.91242601e-04,  2.47020854e-03,  2.76315789e-02
   26267, -7.72851512e-04,  2.37859236e-03,  2.76315789e-02
   26268, -1.13543026e-03,  2.22840734e-03,  2.76315789e-02
   26269, -1.47005095e-03,  2.02335153e-03,  2.76315789e-02
   26270, -1.76847411e-03,  1.76847411e-03,  2.76315789e-02
   26271,  1.47005095e-03,  2.02335153e-03,  2.84210526e-02
   26272,  1.13543026e-03,  2.22840734e-03,  2.84210526e-02
   26273,  7.72851512e-04,  2.37859236e-03,  2.84210526e-02
   26274,  3.91242601e-04,  2.47020854e-03,  2.84210526e-02
   26275,  2.22133423e-19,  2.50100000e-03,  2.84210526e-02
   26276, -3.91242601e-04,  2.47020854e-03,  2.84210526e-02
   26277, -7.72851512e-04,  2.37859236e-03,  2.84210526e-02
   26278, -1.13543026e-03,  2.22840734e-03,  2.84210526e-02
   26279, -1.47005095e-03,  2.02335153e-03,  2.84210526e-02
   26280, -1.76847411e-03,  1.76847411e-03,  2.84210526e-02
   26281,  1.47005095e-03,  2.02335153e-03,  2.92105263e-02
   26282,  1.13543026e-03,  2.22840734e-03,  2.92105263e-02
   26283,  7.72851512e-04,  2.37859236e-03,  2.92105263e-02
   26284,  3.91242601e-04,  2.47020854e-03,  2.92105263e-02
   26285,  2.22133423e-19,  2.50100000e-03,  2.92105263e-02
   26286, -3.91242601e-04,  2.47020854e-03,  2.92105263e-02
   26287, -7.72851512e-04,  2.37859236e-03,  2.92105263e-02
   26288, -1.13543026e-03,  2.22840734e-03,  2.92105263e-02
   26289, -1.47005095e-03,  2.02335153e-03,  2.92105263e-02
   26290, -1.76847411e-03,  1.76847411e-03,  2.92105263e-02
   26291,  1.47005095e-03,  2.02335153e-03,  3.00000000e-02
   26292,  1.13543026e-03,  2.22840734e-03,  3.00000000e-02
   26293,  7.72851512e-04,  2.37859236e-03,  3.00000000e-02
   26294,  3.91242601e-04,  2.47020854e-03,  3.00000000e-02
   26295,  2.22133423e-19,  2.50100000e-03,  3.00000000e-02
   26296, -3.91242601e-04,  2.47020854e-03,  3.00000000e-02
   26297, -7.72851512e-04,  2.37859236e-03,  3.00000000e-02
   26298, -1.13543026e-03,  2.22840734e-03,  3.00000000e-02
   26299, -1.47005095e-03,  2.02335153e-03,  3.00000000e-02
   26300, -1.76847411e-03,  1.76847411e-03,  3.00000000e-02
   26301, -2.02335153e-03,  1.47005095e-03,  0.00000000e+00
   26302, -2.22840734e-03,  1.13543026e-03,  0.00000000e+00
   26303, -2.37859236e-03,  7.72851512e-04,  0.00000000e+00
   26304, -2.47020854e-03,  3.91242601e-04,  0.00000000e+00
   26305, -2.50100000e-03,  2.22133423e-19,  0.00000000e+00
   26306, -2.47020854e-03, -3.91242601e-04,  0.00000000e+00
   26307, -2.37859236e-03, -7.72851512e-04,  0.00000000e+00
   26308, -2.22840734e-03, -1.13543026e-03,  0.00000000e+00
   26309, -2.02335153e-03, -1.47005095e-03,  0.00000000e+00
   26310, -1.76847411e-03, -1.76847411e-03,  0.00000000e+00
   26311, -2.02335153e-03,  1.47005095e-03,  7.89473684e-04
   26312, -2.22840734e-03,  1.13543026e-03,  7.89473684e-04
   26313, -2.37859236e-03,  7.72851512e-04,  7.89473684e-04
   26314, -2.47020854e-03,  3.91242601e-04,  7.89473684e-04
   26315, -2.50100000e-03,  2.22133423e-19,  7.89473684e-04
   26316, -2.47020854e-03, -3.91242601e-04,  7.89473684e-04
   26317, -2.37859236e-03, -7.72851512e-04,  7.89473684e-04
   26318, -2.22840734e-03, -1.13543026e-03,  7.89473684e-04
   26319, -2.02335153e-03, -1.47005095e-03,  7.89473684e-04
   26320, -1.76847411e-03, -1.76847411e-03,  7.89473684e-04
   26321, -2.02335153e-03,  1.47005095e-03,  1.57894737e-03
   26322, -2.22840734e-03,  1.13543026e-03,  1.57894737e-03
   26323, -2.37859236e-03,  7.72851512e-04,  1.57894737e-03
   26324, -2.47020854e-03,  3.91242601e-04,  1.57894737e-03
   26325, -2.50100000e-03,  2.22133423e-19,  1.57894737e-03
   26326, -2.47020854e-03, -3.91242601e-04,  1.57894737e-03
   26327, -2.37859236e-03, -7.72851512e-04,  1.57894737e-03
   26328, -2.22840734e-03, -1.13543026e-03,  1.57894737e-03
   26329, -2.02335153e-03, -1.47005095e-03,  1.57894737e-03
   26330, -1.76847411e-03, -1.76847411e-03,  1.57894737e-03
   26331, -2.02335153e-03,  1.47005095e-03,  2.36842105e-03
   26332, -2.22840734e-03,  1.13543026e-03,  2.36842105e-03
   26333, -2.37859236e-03,  7.72851512e-04,  2.36842105e-03
   26334, -2.47020854e-03,  3.91242601e-04,  2.36842105e-03
   26335, -2.50100000e-03,  2.22133423e-19,  2.36842105e-03
   26336, -2.47020854e-03, -3.91242601e-04,  2.36842105e-03
   26337, -2.37859236e-03, -7.72851512e-04,  2.36842105e-03
   26338, -2.22840734e-03, -1.13543026e-03,  2.36842105e-03
   26339, -2.02335153e-03, -1.47005095e-03,  2.36842105e-03
   26340, -1.76847411e-03, -1.76847411e-03,  2.36842105e-03
   26341, -2.02335153e-03,  1.47005095e-03,  3.15789474e-03
   26342, -2.22840734e-03,  1.13543026e-03,  3.15789474e-03
   26343, -2.37859236e-03,  7.72851512e-04,  3.15789474e-03
   26344, -2.47020854e-03,  3.91242601e-04,  3.15789474e-03
   26345, -2.50100000e-03,  2.22133423e-19,  3.15789474e-03
   26346, -2.47020854e-03, -3.91242601e-04,  3.15789474e-03
   26347, -2.37859236e-03, -7.72851512e-04,  3.15789474e-03
   26348, -2.22840734e-03, -1.13543026e-03,  3.15789474e-03
   26349, -2.02335153e-03, -1.47005095e-03,  3.15789474e-03
   26350, -1.76847411e-03, -1.76847411e-03,  3.15789474e-03
   26351, -2.02335153e-03,  1.47005095e-03,  3.94736842e-03
   26352, -2.22840734e-03,  1.13543026e-03,  3.94736842e-03
   26353, -2.37859236e-03,  7.72851512e-04,  3.94736842e-03
   26354, -2.47020854e-03,  3.91242601e-04,  3.94736842e-03
   26355, -2.50100000e-03,  2.22133423e-19,  3.94736842e-03
   26356, -2.47020854e-03, -3.91242601e-04,  3.94736842e-03
   26357, -2.37859236e-03, -7.72851512e-04,  3.94736842e-03
   26358, -2.22840734e-03, -1.13543026e-03,  3.94736842e-03
   26359, -2.02335153e-03, -1.47005095e-03,  3.94736842e-03
   26360, -1.76847411e-03, -1.76847411e-03,  3.94736842e-03
   26361, -2.02335153e-03,  1.47005095e-03,  4.73684210e-03
   26362, -2.22840734e-03,  1.13543026e-03,  4.73684210e-03
   26363, -2.37859236e-03,  7.72851512e-04,  4.73684210e-03
   26364, -2.47020854e-03,  3.91242601e-04,  4.73684210e-03
   26365, -2.50100000e-03,  2.22133423e-19,  4.73684210e-03
   26366, -2.47020854e-03, -3.91242601e-04,  4.73684210e-03
   26367, -2.37859236e-03, -7.72851512e-04,  4.73684210e-03
   26368, -2.22840734e-03, -1.13543026e-03,  4.73684210e-03
   26369, -2.02335153e-03, -1.47005095e-03,  4.73684210e-03
   26370, -1.76847411e-03, -1.76847411e-03,  4.73684210e-03
   26371, -2.02335153e-03,  1.47005095e-03,  5.52631579e-03
   26372, -2.22840734e-03,  1.13543026e-03,  5.52631579e-03
   26373, -2.37859236e-03,  7.72851512e-04,  5.52631579e-03
   26374, -2.47020854e-03,  3.91242601e-04,  5.52631579e-03
   26375, -2.50100000e-03,  2.22133423e-19,  5.52631579e-03
   26376, -2.47020854e-03, -3.91242601e-04,  5.52631579e-03
   26377, -2.37859236e-03, -7.72851512e-04,  5.52631579e-03
   26378, -2.22840734e-03, -1.13543026e-03,  5.52631579e-03
   26379, -2.02335153e-03, -1.47005095e-03,  5.52631579e-03
   26380, -1.76847411e-03, -1.76847411e-03,  5.52631579e-03
   26381, -2.02335153e-03,  1.47005095e-03,  6.31578947e-03
   26382, -2.22840734e-03,  1.13543026e-03,  6.31578947e-03
   26383, -2.37859236e-03,  7.72851512e-04,  6.31578947e-03
   26384, -2.47020854e-03,  3.91242601e-04,  6.31578947e-03
   26385, -2.50100000e-03,  2.22133423e-19,  6.31578947e-03
   26386, -2.47020854e-03, -3.91242601e-04,  6.31578947e-03
   26387, -2.37859236e-03, -7.72851512e-04,  6.31578947e-03
   26388, -2.22840734e-03, -1.13543026e-03,  6.31578947e-03
   26389, -2.02335153e-03, -1.47005095e-03,  6.31578947e-03
   26390, -1.76847411e-03, -1.76847411e-03,  6.31578947e-03
   26391, -2.02335153e-03,  1.47005095e-03,  7.10526316e-03
   26392, -2.22840734e-03,  1.13543026e-03,  7.10526316e-03
   26393, -2.37859236e-03,  7.72851512e-04,  7.10526316e-03
   26394, -2.47020854e-03,  3.91242601e-04,  7.10526316e-03
   26395, -2.50100000e-03,  2.22133423e-19,  7.10526316e-03
   26396, -2.47020854e-03, -3.91242601e-04,  7.10526316e-03
   26397, -2.37859236e-03, -7.72851512e-04,  7.10526316e-03
   26398, -2.22840734e-03, -1.13543026e-03,  7.10526316e-03
   26399, -2.02335153e-03, -1.47005095e-03,  7.10526316e-03
   26400, -1.76847411e-03, -1.76847411e-03,  7.10526316e-03
   26401, -2.02335153e-03,  1.47005095e-03,  7.89473684e-03
   26402, -2.22840734e-03,  1.13543026e-03,  7.89473684e-03
   26403, -2.37859236e-03,  7.72851512e-04,  7.89473684e-03
   26404, -2.47020854e-03,  3.91242601e-04,  7.89473684e-03
   26405, -2.50100000e-03,  2.22133423e-19,  7.89473684e-03
   26406, -2.47020854e-03, -3.91242601e-04,  7.89473684e-03
   26407, -2.37859236e-03, -7.72851512e-04,  7.89473684e-03
   26408, -2.22840734e-03, -1.13543026e-03,  7.89473684e-03
   26409, -2.02335153e-03, -1.47005095e-03,  7.89473684e-03
   26410, -1.76847411e-03, -1.76847411e-03,  7.89473684e-03
   26411, -2.02335153e-03,  1.47005095e-03,  8.68421053e-03
   26412, -2.22840734e-03,  1.13543026e-03,  8.68421053e-03
   26413, -2.37859236e-03,  7.72851512e-04,  8.68421053e-03
   26414, -2.47020854e-03,  3.91242601e-04,  8.68421053e-03
   26415, -2.50100000e-03,  2.22133423e-19,  8.68421053e-03
   26416, -2.47020854e-03, -3.91242601e-04,  8.68421053e-03
   26417, -2.37859236e-03, -7.72851512e-04,  8.68421053e-03
   26418, -2.22840734e-03, -1.13543026e-03,  8.68421053e-03
   26419, -2.02335153e-03, -1.47005095e-03,  8.68421053e-03
   26420, -1.76847411e-03, -1.76847411e-03,  8.68421053e-03
   26421, -2.02335153e-03,  1.47005095e-03,  9.47368421e-03
   26422, -2.22840734e-03,  1.13543026e-03,  9.47368421e-03
   26423, -2.37859236e-03,  7.72851512e-04,  9.47368421e-03
   26424, -2.47020854e-03,  3.91242601e-04,  9.47368421e-03
   26425, -2.50100000e-03,  2.22133423e-19,  9.47368421e-03
   26426, -2.47020854e-03, -3.91242601e-04,  9.47368421e-03
   26427, -2.37859236e-03, -7.72851512e-04,  9.47368421e-03
   26428, -2.22840734e-03, -1.13543026e-03,  9.47368421e-03
   26429, -2.02335153e-03, -1.47005095e-03,  9.47368421e-03
   26430, -1.76847411e-03, -1.76847411e-03,  9.47368421e-03
   26431, -2.02335153e-03,  1.47005095e-03,  1.02631579e-02
   26432, -2.22840734e-03,  1.13543026e-03,  1.02631579e-02
   26433, -2.37859236e-03,  7.72851512e-04,  1.02631579e-02
   26434, -2.47020854e-03,  3.91242601e-04,  1.02631579e-02
   26435, -2.50100000e-03,  2.22133423e-19,  1.02631579e-02
   26436, -2.47020854e-03, -3.91242601e-04,  1.02631579e-02
   26437, -2.37859236e-03, -7.72851512e-04,  1.02631579e-02
   26438, -2.22840734e-03, -1.13543026e-03,  1.02631579e-02
   26439, -2.02335153e-03, -1.47005095e-03,  1.02631579e-02
   26440, -1.76847411e-03, -1.76847411e-03,  1.02631579e-02
   26441, -2.02335153e-03,  1.47005095e-03,  1.10526316e-02
   26442, -2.22840734e-03,  1.13543026e-03,  1.10526316e-02
   26443, -2.37859236e-03,  7.72851512e-04,  1.10526316e-02
   26444, -2.47020854e-03,  3.91242601e-04,  1.10526316e-02
   26445, -2.50100000e-03,  2.22133423e-19,  1.10526316e-02
   26446, -2.47020854e-03, -3.91242601e-04,  1.10526316e-02
   26447, -2.37859236e-03, -7.72851512e-04,  1.10526316e-02
   26448, -2.22840734e-03, -1.13543026e-03,  1.10526316e-02
   26449, -2.02335153e-03, -1.47005095e-03,  1.10526316e-02
   26450, -1.76847411e-03, -1.76847411e-03,  1.10526316e-02
   26451, -2.02335153e-03,  1.47005095e-03,  1.18421053e-02
   26452, -2.22840734e-03,  1.13543026e-03,  1.18421053e-02
   26453, -2.37859236e-03,  7.72851512e-04,  1.18421053e-02
   26454, -2.47020854e-03,  3.91242601e-04,  1.18421053e-02
   26455, -2.50100000e-03,  2.22133423e-19,  1.18421053e-02
   26456, -2.47020854e-03, -3.91242601e-04,  1.18421053e-02
   26457, -2.37859236e-03, -7.72851512e-04,  1.18421053e-02
   26458, -2.22840734e-03, -1.13543026e-03,  1.18421053e-02
   26459, -2.02335153e-03, -1.47005095e-03,  1.18421053e-02
   26460, -1.76847411e-03, -1.76847411e-03,  1.18421053e-02
   26461, -2.02335153e-03,  1.47005095e-03,  1.26315789e-02
   26462, -2.22840734e-03,  1.13543026e-03,  1.26315789e-02
   26463, -2.37859236e-03,  7.72851512e-04,  1.26315789e-02
   26464, -2.47020854e-03,  3.91242601e-04,  1.26315789e-02
   26465, -2.50100000e-03,  2.22133423e-19,  1.26315789e-02
   26466, -2.47020854e-03, -3.91242601e-04,  1.26315789e-02
   26467, -2.37859236e-03, -7.72851512e-04,  1.26315789e-02
   26468, -2.22840734e-03, -1.13543026e-03,  1.26315789e-02
   26469, -2.02335153e-03, -1.47005095e-03,  1.26315789e-02
   26470, -1.76847411e-03, -1.76847411e-03,  1.26315789e-02
   26471, -2.02335153e-03,  1.47005095e-03,  1.34210526e-02
   26472, -2.22840734e-03,  1.13543026e-03,  1.34210526e-02
   26473, -2.37859236e-03,  7.72851512e-04,  1.34210526e-02
   26474, -2.47020854e-03,  3.91242601e-04,  1.34210526e-02
   26475, -2.50100000e-03,  2.22133423e-19,  1.34210526e-02
   26476, -2.47020854e-03, -3.91242601e-04,  1.34210526e-02
   26477, -2.37859236e-03, -7.72851512e-04,  1.34210526e-02
   26478, -2.22840734e-03, -1.13543026e-03,  1.34210526e-02
   26479, -2.02335153e-03, -1.47005095e-03,  1.34210526e-02
   26480, -1.76847411e-03, -1.76847411e-03,  1.34210526e-02
   26481, -2.02335153e-03,  1.47005095e-03,  1.42105263e-02
   26482, -2.22840734e-03,  1.13543026e-03,  1.42105263e-02
   26483, -2.37859236e-03,  7.72851512e-04,  1.42105263e-02
   26484, -2.47020854e-03,  3.91242601e-04,  1.42105263e-02
   26485, -2.50100000e-03,  2.22133423e-19,  1.42105263e-02
   26486, -2.47020854e-03, -3.91242601e-04,  1.42105263e-02
   26487, -2.37859236e-03, -7.72851512e-04,  1.42105263e-02
   26488, -2.22840734e-03, -1.13543026e-03,  1.42105263e-02
   26489, -2.02335153e-03, -1.47005095e-03,  1.42105263e-02
   26490, -1.76847411e-03, -1.76847411e-03,  1.42105263e-02
   26491, -2.02335153e-03,  1.47005095e-03,  1.50000000e-02
   26492, -2.22840734e-03,  1.13543026e-03,  1.50000000e-02
   26493, -2.37859236e-03,  7.72851512e-04,  1.50000000e-02
   26494, -2.47020854e-03,  3.91242601e-04,  1.50000000e-02
   26495, -2.50100000e-03,  2.22133423e-19,  1.50000000e-02
   26496, -2.47020854e-03, -3.91242601e-04,  1.50000000e-02
   26497, -2.37859236e-03, -7.72851512e-04,  1.50000000e-02
   26498, -2.22840734e-03, -1.13543026e-03,  1.50000000e-02
   26499, -2.02335153e-03, -1.47005095e-03,  1.50000000e-02
   26500, -1.76847411e-03, -1.76847411e-03,  1.50000000e-02
   26501, -2.02335153e-03,  1.47005095e-03,  1.57894737e-02
   26502, -2.22840734e-03,  1.13543026e-03,  1.57894737e-02
   26503, -2.37859236e-03,  7.72851512e-04,  1.57894737e-02
   26504, -2.47020854e-03,  3.91242601e-04,  1.57894737e-02
   26505, -2.50100000e-03,  2.22133423e-19,  1.57894737e-02
   26506, -2.47020854e-03, -3.91242601e-04,  1.57894737e-02
   26507, -2.37859236e-03, -7.72851512e-04,  1.57894737e-02
   26508, -2.22840734e-03, -1.13543026e-03,  1.57894737e-02
   26509, -2.02335153e-03, -1.47005095e-03,  1.57894737e-02
   26510, -1.76847411e-03, -1.76847411e-03,  1.57894737e-02
   26511, -2.02335153e-03,  1.47005095e-03,  1.65789474e-02
   26512, -2.22840734e-03,  1.13543026e-03,  1.65789474e-02
   26513, -2.37859236e-03,  7.72851512e-04,  1.65789474e-02
   26514, -2.47020854e-03,  3.91242601e-04,  1.65789474e-02
   26515, -2.50100000e-03,  2.22133423e-19,  1.65789474e-02
   26516, -2.47020854e-03, -3.91242601e-04,  1.65789474e-02
   26517, -2.37859236e-03, -7.72851512e-04,  1.65789474e-02
   26518, -2.22840734e-03, -1.13543026e-03,  1.65789474e-02
   26519, -2.02335153e-03, -1.47005095e-03,  1.65789474e-02
   26520, -1.76847411e-03, -1.76847411e-03,  1.65789474e-02
   26521, -2.02335153e-03,  1.47005095e-03,  1.73684210e-02
   26522, -2.22840734e-03,  1.13543026e-03,  1.73684210e-02
   26523, -2.37859236e-03,  7.72851512e-04,  1.73684210e-02
   26524, -2.47020854e-03,  3.91242601e-04,  1.73684210e-02
   26525, -2.50100000e-03,  2.22133423e-19,  1.73684210e-02
   26526, -2.47020854e-03, -3.91242601e-04,  1.73684210e-02
   26527, -2.37859236e-03, -7.72851512e-04,  1.73684210e-02
   26528, -2.22840734e-03, -1.13543026e-03,  1.73684210e-02
   26529, -2.02335153e-03, -1.47005095e-03,  1.73684210e-02
   26530, -1.76847411e-03, -1.76847411e-03,  1.73684210e-02
   26531, -2.02335153e-03,  1.47005095e-03,  1.81578947e-02
   26532, -2.22840734e-03,  1.13543026e-03,  1.81578947e-02
   26533, -2.37859236e-03,  7.72851512e-04,  1.81578947e-02
   26534, -2.47020854e-03,  3.91242601e-04,  1.81578947e-02
   26535, -2.50100000e-03,  2.22133423e-19,  1.81578947e-02
   26536, -2.47020854e-03, -3.91242601e-04,  1.81578947e-02
   26537, -2.37859236e-03, -7.72851512e-04,  1.81578947e-02
   26538, -2.22840734e-03, -1.13543026e-03,  1.81578947e-02
   26539, -2.02335153e-03, -1.47005095e-03,  1.81578947e-02
   26540, -1.76847411e-03, -1.76847411e-03,  1.81578947e-02
   26541, -2.02335153e-03,  1.47005095e-03,  1.89473684e-02
   26542, -2.22840734e-03,  1.13543026e-03,  1.89473684e-02
   26543, -2.37859236e-03,  7.72851512e-04,  1.89473684e-02
   26544, -2.47020854e-03,  3.91242601e-04,  1.89473684e-02
   26545, -2.50100000e-03,  2.22133423e-19,  1.89473684e-02
   26546, -2.47020854e-03, -3.91242601e-04,  1.89473684e-02
   26547, -2.37859236e-03, -7.72851512e-04,  1.89473684e-02
   26548, -2.22840734e-03, -1.13543026e-03,  1.89473684e-02
   26549, -2.02335153e-03, -1.47005095e-03,  1.89473684e-02
   26550, -1.76847411e-03, -1.76847411e-03,  1.89473684e-02
   26551, -2.02335153e-03,  1.47005095e-03,  1.97368421e-02
   26552, -2.22840734e-03,  1.13543026e-03,  1.97368421e-02
   26553, -2.37859236e-03,  7.72851512e-04,  1.97368421e-02
   26554, -2.47020854e-03,  3.91242601e-04,  1.97368421e-02
   26555, -2.50100000e-03,  2.22133423e-19,  1.97368421e-02
   26556, -2.47020854e-03, -3.91242601e-04,  1.97368421e-02
   26557, -2.37859236e-03, -7.72851512e-04,  1.97368421e-02
   26558, -2.22840734e-03, -1.13543026e-03,  1.97368421e-02
   26559, -2.02335153e-03, -1.47005095e-03,  1.97368421e-02
   26560, -1.76847411e-03, -1.76847411e-03,  1.97368421e-02
   26561, -2.02335153e-03,  1.47005095e-03,  2.05263158e-02
   26562, -2.22840734e-03,  1.13543026e-03,  2.05263158e-02
   26563, -2.37859236e-03,  7.72851512e-04,  2.05263158e-02
   26564, -2.47020854e-03,  3.91242601e-04,  2.05263158e-02
   26565, -2.50100000e-03,  2.22133423e-19,  2.05263158e-02
   26566, -2.47020854e-03, -3.91242601e-04,  2.05263158e-02
   26567, -2.37859236e-03, -7.72851512e-04,  2.05263158e-02
   26568, -2.22840734e-03, -1.13543026e-03,  2.05263158e-02
   26569, -2.02335153e-03, -1.47005095e-03,  2.05263158e-02
   26570, -1.76847411e-03, -1.76847411e-03,  2.05263158e-02
   26571, -2.02335153e-03,  1.47005095e-03,  2.13157895e-02
   26572, -2.22840734e-03,  1.13543026e-03,  2.13157895e-02
   26573, -2.37859236e-03,  7.72851512e-04,  2.13157895e-02
   26574, -2.47020854e-03,  3.91242601e-04,  2.13157895e-02
   26575, -2.50100000e-03,  2.22133423e-19,  2.13157895e-02
   26576, -2.47020854e-03, -3.91242601e-04,  2.13157895e-02
   26577, -2.37859236e-03, -7.72851512e-04,  2.13157895e-02
   26578, -2.22840734e-03, -1.13543026e-03,  2.13157895e-02
   26579, -2.02335153e-03, -1.47005095e-03,  2.13157895e-02
   26580, -1.76847411e-03, -1.76847411e-03,  2.13157895e-02
   26581, -2.02335153e-03,  1.47005095e-03,  2.21052632e-02
   26582, -2.22840734e-03,  1.13543026e-03,  2.21052632e-02
   26583, -2.37859236e-03,  7.72851512e-04,  2.21052632e-02
   26584, -2.47020854e-03,  3.91242601e-04,  2.21052632e-02
   26585, -2.50100000e-03,  2.22133423e-19,  2.21052632e-02
   26586, -2.47020854e-03, -3.91242601e-04,  2.21052632e-02
   26587, -2.37859236e-03, -7.72851512e-04,  2.21052632e-02
   26588, -2.22840734e-03, -1.13543026e-03,  2.21052632e-02
   26589, -2.02335153e-03, -1.47005095e-03,  2.21052632e-02
   26590, -1.76847411e-03, -1.76847411e-03,  2.21052632e-02
   26591, -2.02335153e-03,  1.47005095e-03,  2.28947368e-02
   26592, -2.22840734e-03,  1.13543026e-03,  2.28947368e-02
   26593, -2.37859236e-03,  7.72851512e-04,  2.28947368e-02
   26594, -2.47020854e-03,  3.91242601e-04,  2.28947368e-02
   26595, -2.50100000e-03,  2.22133423e-19,  2.28947368e-02
   26596, -2.47020854e-03, -3.91242601e-04,  2.28947368e-02
   26597, -2.37859236e-03, -7.72851512e-04,  2.28947368e-02
   26598, -2.22840734e-03, -1.13543026e-03,  2.28947368e-02
   26599, -2.02335153e-03, -1.47005095e-03,  2.28947368e-02
   26600, -1.76847411e-03, -1.76847411e-03,  2.28947368e-02
   26601, -2.02335153e-03,  1.47005095e-03,  2.36842105e-02
   26602, -2.22840734e-03,  1.13543026e-03,  2.36842105e-02
   26603, -2.37859236e-03,  7.72851512e-04,  2.36842105e-02
   26604, -2.47020854e-03,  3.91242601e-04,  2.36842105e-02
   26605, -2.50100000e-03,  2.22133423e-19,  2.36842105e-02
   26606, -2.47020854e-03, -3.91242601e-04,  2.36842105e-02
   26607, -2.37859236e-03, -7.72851512e-04,  2.36842105e-02
   26608, -2.22840734e-03, -1.13543026e-03,  2.36842105e-02
   26609, -2.02335153e-03, -1.47005095e-03,  2.36842105e-02
   26610, -1.76847411e-03, -1.76847411e-03,  2.36842105e-02
   26611, -2.02335153e-03,  1.47005095e-03,  2.44736842e-02
   26612, -2.22840734e-03,  1.13543026e-03,  2.44736842e-02
   26613, -2.37859236e-03,  7.72851512e-04,  2.44736842e-02
   26614, -2.47020854e-03,  3.91242601e-04,  2.44736842e-02
   26615, -2.50100000e-03,  2.22133423e-19,  2.44736842e-02
   26616, -2.47020854e-03, -3.91242601e-04,  2.44736842e-02
   26617, -2.37859236e-03, -7.72851512e-04,  2.44736842e-02
   26618, -2.22840734e-03, -1.13543026e-03,  2.44736842e-02
   26619, -2.02335153e-03, -1.47005095e-03,  2.44736842e-02
   26620, -1.76847411e-03, -1.76847411e-03,  2.44736842e-02
   26621, -2.02335153e-03,  1.47005095e-03,  2.52631579e-02
   26622, -2.22840734e-03,  1.13543026e-03,  2.52631579e-02
   26623, -2.37859236e-03,  7.72851512e-04,  2.52631579e-02
   26624, -2.47020854e-03,  3.91242601e-04,  2.52631579e-02
   26625, -2.50100000e-03,  2.22133423e-19,  2.52631579e-02
   26626, -2.47020854e-03, -3.91242601e-04,  2.52631579e-02
   26627, -2.37859236e-03, -7.72851512e-04,  2.52631579e-02
   26628, -2.22840734e-03, -1.13543026e-03,  2.52631579e-02
   26629, -2.02335153e-03, -1.47005095e-03,  2.52631579e-02
   26630, -1.76847411e-03, -1.76847411e-03,  2.52631579e-02
   26631, -2.02335153e-03,  1.47005095e-03,  2.60526316e-02
   26632, -2.22840734e-03,  1.13543026e-03,  2.60526316e-02
   26633, -2.37859236e-03,  7.72851512e-04,  2.60526316e-02
   26634, -2.47020854e-03,  3.91242601e-04,  2.60526316e-02
   26635, -2.50100000e-03,  2.22133423e-19,  2.60526316e-02
   26636, -2.47020854e-03, -3.91242601e-04,  2.60526316e-02
   26637, -2.37859236e-03, -7.72851512e-04,  2.60526316e-02
   26638, -2.22840734e-03, -1.13543026e-03,  2.60526316e-02
   26639, -2.02335153e-03, -1.47005095e-03,  2.60526316e-02
   26640, -1.76847411e-03, -1.76847411e-03,  2.60526316e-02
   26641, -2.02335153e-03,  1.47005095e-03,  2.68421053e-02
   26642, -2.22840734e-03,  1.13543026e-03,  2.68421053e-02
   26643, -2.37859236e-03,  7.72851512e-04,  2.68421053e-02
   26644, -2.47020854e-03,  3.91242601e-04,  2.68421053e-02
   26645, -2.50100000e-03,  2.22133423e-19,  2.68421053e-02
   26646, -2.47020854e-03, -3.91242601e-04,  2.68421053e-02
   26647, -2.37859236e-03, -7.72851512e-04,  2.68421053e-02
   26648, -2.22840734e-03, -1.13543026e-03,  2.68421053e-02
   26649, -2.02335153e-03, -1.47005095e-03,  2.68421053e-02
   26650, -1.76847411e-03, -1.76847411e-03,  2.68421053e-02
   26651, -2.02335153e-03,  1.47005095e-03,  2.76315789e-02
   26652, -2.22840734e-03,  1.13543026e-03,  2.76315789e-02
   26653, -2.37859236e-03,  7.72851512e-04,  2.76315789e-02
   26654, -2.47020854e-03,  3.91242601e-04,  2.76315789e-02
   26655, -2.50100000e-03,  2.22133423e-19,  2.76315789e-02
   26656, -2.47020854e-03, -3.91242601e-04,  2.76315789e-02
   26657, -2.37859236e-03, -7.72851512e-04,  2.76315789e-02
   26658, -2.22840734e-03, -1.13543026e-03,  2.76315789e-02
   26659, -2.02335153e-03, -1.47005095e-03,  2.76315789e-02
   26660, -1.76847411e-03, -1.76847411e-03,  2.76315789e-02
   26661, -2.02335153e-03,  1.47005095e-03,  2.84210526e-02
   26662, -2.22840734e-03,  1.13543026e-03,  2.84210526e-02
   26663, -2.37859236e-03,  7.72851512e-04,  2.84210526e-02
   26664, -2.47020854e-03,  3.91242601e-04,  2.84210526e-02
   26665, -2.50100000e-03,  2.22133423e-19,  2.84210526e-02
   26666, -2.47020854e-03, -3.91242601e-04,  2.84210526e-02
   26667, -2.37859236e-03, -7.72851512e-04,  2.84210526e-02
   26668, -2.22840734e-03, -1.13543026e-03,  2.84210526e-02
   26669, -2.02335153e-03, -1.47005095e-03,  2.84210526e-02
   26670, -1.76847411e-03, -1.76847411e-03,  2.84210526e-02
   26671, -2.02335153e-03,  1.47005095e-03,  2.92105263e-02
   26672, -2.22840734e-03,  1.13543026e-03,  2.92105263e-02
   26673, -2.37859236e-03,  7.72851512e-04,  2.92105263e-02
   26674, -2.47020854e-03,  3.91242601e-04,  2.92105263e-02
   26675, -2.50100000e-03,  2.22133423e-19,  2.92105263e-02
   26676, -2.47020854e-03, -3.91242601e-04,  2.92105263e-02
   26677, -2.37859236e-03, -7.72851512e-04,  2.92105263e-02
   26678, -2.22840734e-03, -1.13543026e-03,  2.92105263e-02
   26679, -2.02335153e-03, -1.47005095e-03,  2.92105263e-02
   26680, -1.76847411e-03, -1.76847411e-03,  2.92105263e-02
   26681, -2.02335153e-03,  1.47005095e-03,  3.00000000e-02
   26682, -2.22840734e-03,  1.13543026e-03,  3.00000000e-02
   26683, -2.37859236e-03,  7.72851512e-04,  3.00000000e-02
   26684, -2.47020854e-03,  3.91242601e-04,  3.00000000e-02
   26685, -2.50100000e-03,  2.22133423e-19,  3.00000000e-02
   26686, -2.47020854e-03, -3.91242601e-04,  3.00000000e-02
   26687, -2.37859236e-03, -7.72851512e-04,  3.00000000e-02
   26688, -2.22840734e-03, -1.13543026e-03,  3.00000000e-02
   26689, -2.02335153e-03, -1.47005095e-03,  3.00000000e-02
   26690, -1.76847411e-03, -1.76847411e-03,  3.00000000e-02
   26691, -1.47005095e-03, -2.02335153e-03,  0.00000000e+00
   26692, -1.13543026e-03, -2.22840734e-03,  0.00000000e+00
   26693, -7.72851512e-04, -2.37859236e-03,  0.00000000e+00
   26694, -3.91242601e-04, -2.47020854e-03,  0.00000000e+00
   26695, -2.22133423e-19, -2.50100000e-03,  0.00000000e+00
   26696,  3.91242601e-04, -2.47020854e-03,  0.00000000e+00
   26697,  7.72851512e-04, -2.37859236e-03,  0.00000000e+00
   26698,  1.13543026e-03, -2.22840734e-03,  0.00000000e+00
   26699,  1.47005095e-03, -2.02335153e-03,  0.00000000e+00
   26700, -1.47005095e-03, -2.02335153e-03,  7.89473684e-04
   26701, -1.13543026e-03, -2.22840734e-03,  7.89473684e-04
   26702, -7.72851512e-04, -2.37859236e-03,  7.89473684e-04
   26703, -3.91242601e-04, -2.47020854e-03,  7.89473684e-04
   26704, -2.22133423e-19, -2.50100000e-03,  7.89473684e-04
   26705,  3.91242601e-04, -2.47020854e-03,  7.89473684e-04
   26706,  7.72851512e-04, -2.37859236e-03,  7.89473684e-04
   26707,  1.13543026e-03, -2.22840734e-03,  7.89473684e-04
   26708,  1.47005095e-03, -2.02335153e-03,  7.89473684e-04
   26709, -1.47005095e-03, -2.02335153e-03,  1.57894737e-03
   26710, -1.13543026e-03, -2.22840734e-03,  1.57894737e-03
   26711, -7.72851512e-04, -2.37859236e-03,  1.57894737e-03
   26712, -3.91242601e-04, -2.47020854e-03,  1.57894737e-03
   26713, -2.22133423e-19, -2.50100000e-03,  1.57894737e-03
   26714,  3.91242601e-04, -2.47020854e-03,  1.57894737e-03
   26715,  7.72851512e-04, -2.37859236e-03,  1.57894737e-03
   26716,  1.13543026e-03, -2.22840734e-03,  1.57894737e-03
   26717,  1.47005095e-03, -2.02335153e-03,  1.57894737e-03
   26718, -1.47005095e-03, -2.02335153e-03,  2.36842105e-03
   26719, -1.13543026e-03, -2.22840734e-03,  2.36842105e-03
   26720, -7.72851512e-04, -2.37859236e-03,  2.36842105e-03
   26721, -3.91242601e-04, -2.47020854e-03,  2.36842105e-03
   26722, -2.22133423e-19, -2.50100000e-03,  2.36842105e-03
   26723,  3.91242601e-04, -2.47020854e-03,  2.36842105e-03
   26724,  7.72851512e-04, -2.37859236e-03,  2.36842105e-03
   26725,  1.13543026e-03, -2.22840734e-03,  2.36842105e-03
   26726,  1.47005095e-03, -2.02335153e-03,  2.36842105e-03
   26727, -1.47005095e-03, -2.02335153e-03,  3.15789474e-03
   26728, -1.13543026e-03, -2.22840734e-03,  3.15789474e-03
   26729, -7.72851512e-04, -2.37859236e-03,  3.15789474e-03
   26730, -3.91242601e-04, -2.47020854e-03,  3.15789474e-03
   26731, -2.22133423e-19, -2.50100000e-03,  3.15789474e-03
   26732,  3.91242601e-04, -2.47020854e-03,  3.15789474e-03
   26733,  7.72851512e-04, -2.37859236e-03,  3.15789474e-03
   26734,  1.13543026e-03, -2.22840734e-03,  3.15789474e-03
   26735,  1.47005095e-03, -2.02335153e-03,  3.15789474e-03
   26736, -1.47005095e-03, -2.02335153e-03,  3.94736842e-03
   26737, -1.13543026e-03, -2.22840734e-03,  3.94736842e-03
   26738, -7.72851512e-04, -2.37859236e-03,  3.94736842e-03
   26739, -3.91242601e-04, -2.47020854e-03,  3.94736842e-03
   26740, -2.22133423e-19, -2.50100000e-03,  3.94736842e-03
   26741,  3.91242601e-04, -2.47020854e-03,  3.94736842e-03
   26742,  7.72851512e-04, -2.37859236e-03,  3.94736842e-03
   26743,  1.13543026e-03, -2.22840734e-03,  3.94736842e-03
   26744,  1.47005095e-03, -2.02335153e-03,  3.94736842e-03
   26745, -1.47005095e-03, -2.02335153e-03,  4.73684210e-03
   26746, -1.13543026e-03, -2.22840734e-03,  4.73684210e-03
   26747, -7.72851512e-04, -2.37859236e-03,  4.73684210e-03
   26748, -3.91242601e-04, -2.47020854e-03,  4.73684210e-03
   26749, -2.22133423e-19, -2.50100000e-03,  4.73684210e-03
   26750,  3.91242601e-04, -2.47020854e-03,  4.73684210e-03
   26751,  7.72851512e-04, -2.37859236e-03,  4.73684210e-03
   26752,  1.13543026e-03, -2.22840734e-03,  4.73684210e-03
   26753,  1.47005095e-03, -2.02335153e-03,  4.73684210e-03
   26754, -1.47005095e-03, -2.02335153e-03,  5.52631579e-03
   26755, -1.13543026e-03, -2.22840734e-03,  5.52631579e-03
   26756, -7.72851512e-04, -2.37859236e-03,  5.52631579e-03
   26757, -3.91242601e-04, -2.47020854e-03,  5.52631579e-03
   26758, -2.22133423e-19, -2.50100000e-03,  5.52631579e-03
   26759,  3.91242601e-04, -2.47020854e-03,  5.52631579e-03
   26760,  7.72851512e-04, -2.37859236e-03,  5.52631579e-03
   26761,  1.13543026e-03, -2.22840734e-03,  5.52631579e-03
   26762,  1.47005095e-03, -2.02335153e-03,  5.52631579e-03
   26763, -1.47005095e-03, -2.02335153e-03,  6.31578947e-03
   26764, -1.13543026e-03, -2.22840734e-03,  6.31578947e-03
   26765, -7.72851512e-04, -2.37859236e-03,  6.31578947e-03
   26766, -3.91242601e-04, -2.47020854e-03,  6.31578947e-03
   26767, -2.22133423e-19, -2.50100000e-03,  6.31578947e-03
   26768,  3.91242601e-04, -2.47020854e-03,  6.31578947e-03
   26769,  7.72851512e-04, -2.37859236e-03,  6.31578947e-03
   26770,  1.13543026e-03, -2.22840734e-03,  6.31578947e-03
   26771,  1.47005095e-03, -2.02335153e-03,  6.31578947e-03
   26772, -1.47005095e-03, -2.02335153e-03,  7.10526316e-03
   26773, -1.13543026e-03, -2.22840734e-03,  7.10526316e-03
   26774, -7.72851512e-04, -2.37859236e-03,  7.10526316e-03
   26775, -3.91242601e-04, -2.47020854e-03,  7.10526316e-03
   26776, -2.22133423e-19, -2.50100000e-03,  7.10526316e-03
   26777,  3.91242601e-04, -2.47020854e-03,  7.10526316e-03
   26778,  7.72851512e-04, -2.37859236e-03,  7.10526316e-03
   26779,  1.13543026e-03, -2.22840734e-03,  7.10526316e-03
   26780,  1.47005095e-03, -2.02335153e-03,  7.10526316e-03
   26781, -1.47005095e-03, -2.02335153e-03,  7.89473684e-03
   26782, -1.13543026e-03, -2.22840734e-03,  7.89473684e-03
   26783, -7.72851512e-04, -2.37859236e-03,  7.89473684e-03
   26784, -3.91242601e-04, -2.47020854e-03,  7.89473684e-03
   26785, -2.22133423e-19, -2.50100000e-03,  7.89473684e-03
   26786,  3.91242601e-04, -2.47020854e-03,  7.89473684e-03
   26787,  7.72851512e-04, -2.37859236e-03,  7.89473684e-03
   26788,  1.13543026e-03, -2.22840734e-03,  7.89473684e-03
   26789,  1.47005095e-03, -2.02335153e-03,  7.89473684e-03
   26790, -1.47005095e-03, -2.02335153e-03,  8.68421053e-03
   26791, -1.13543026e-03, -2.22840734e-03,  8.68421053e-03
   26792, -7.72851512e-04, -2.37859236e-03,  8.68421053e-03
   26793, -3.91242601e-04, -2.47020854e-03,  8.68421053e-03
   26794, -2.22133423e-19, -2.50100000e-03,  8.68421053e-03
   26795,  3.91242601e-04, -2.47020854e-03,  8.68421053e-03
   26796,  7.72851512e-04, -2.37859236e-03,  8.68421053e-03
   26797,  1.13543026e-03, -2.22840734e-03,  8.68421053e-03
   26798,  1.47005095e-03, -2.02335153e-03,  8.68421053e-03
   26799, -1.47005095e-03, -2.02335153e-03,  9.47368421e-03
   26800, -1.13543026e-03, -2.22840734e-03,  9.47368421e-03
   26801, -7.72851512e-04, -2.37859236e-03,  9.47368421e-03
   26802, -3.91242601e-04, -2.47020854e-03,  9.47368421e-03
   26803, -2.22133423e-19, -2.50100000e-03,  9.47368421e-03
   26804,  3.91242601e-04, -2.47020854e-03,  9.47368421e-03
   26805,  7.72851512e-04, -2.37859236e-03,  9.47368421e-03
   26806,  1.13543026e-03, -2.22840734e-03,  9.47368421e-03
   26807,  1.47005095e-03, -2.02335153e-03,  9.47368421e-03
   26808, -1.47005095e-03, -2.02335153e-03,  1.02631579e-02
   26809, -1.13543026e-03, -2.22840734e-03,  1.02631579e-02
   26810, -7.72851512e-04, -2.37859236e-03,  1.02631579e-02
   26811, -3.91242601e-04, -2.47020854e-03,  1.02631579e-02
   26812, -2.22133423e-19, -2.50100000e-03,  1.02631579e-02
   26813,  3.91242601e-04, -2.47020854e-03,  1.02631579e-02
   26814,  7.72851512e-04, -2.37859236e-03,  1.02631579e-02
   26815,  1.13543026e-03, -2.22840734e-03,  1.02631579e-02
   26816,  1.47005095e-03, -2.02335153e-03,  1.02631579e-02
   26817, -1.47005095e-03, -2.02335153e-03,  1.10526316e-02
   26818, -1.13543026e-03, -2.22840734e-03,  1.10526316e-02
   26819, -7.72851512e-04, -2.37859236e-03,  1.10526316e-02
   26820, -3.91242601e-04, -2.47020854e-03,  1.10526316e-02
   26821, -2.22133423e-19, -2.50100000e-03,  1.10526316e-02
   26822,  3.91242601e-04, -2.47020854e-03,  1.10526316e-02
   26823,  7.72851512e-04, -2.37859236e-03,  1.10526316e-02
   26824,  1.13543026e-03, -2.22840734e-03,  1.10526316e-02
   26825,  1.47005095e-03, -2.02335153e-03,  1.10526316e-02
   26826, -1.47005095e-03, -2.02335153e-03,  1.18421053e-02
   26827, -1.13543026e-03, -2.22840734e-03,  1.18421053e-02
   26828, -7.72851512e-04, -2.37859236e-03,  1.18421053e-02
   26829, -3.91242601e-04, -2.47020854e-03,  1.18421053e-02
   26830, -2.22133423e-19, -2.50100000e-03,  1.18421053e-02
   26831,  3.91242601e-04, -2.47020854e-03,  1.18421053e-02
   26832,  7.72851512e-04, -2.37859236e-03,  1.18421053e-02
   26833,  1.13543026e-03, -2.22840734e-03,  1.18421053e-02
   26834,  1.47005095e-03, -2.02335153e-03,  1.18421053e-02
   26835, -1.47005095e-03, -2.02335153e-03,  1.26315789e-02
   26836, -1.13543026e-03, -2.22840734e-03,  1.26315789e-02
   26837, -7.72851512e-04, -2.37859236e-03,  1.26315789e-02
   26838, -3.91242601e-04, -2.47020854e-03,  1.26315789e-02
   26839, -2.22133423e-19, -2.50100000e-03,  1.26315789e-02
   26840,  3.91242601e-04, -2.47020854e-03,  1.26315789e-02
   26841,  7.72851512e-04, -2.37859236e-03,  1.26315789e-02
   26842,  1.13543026e-03, -2.22840734e-03,  1.26315789e-02
   26843,  1.47005095e-03, -2.02335153e-03,  1.26315789e-02
   26844, -1.47005095e-03, -2.02335153e-03,  1.34210526e-02
   26845, -1.13543026e-03, -2.22840734e-03,  1.34210526e-02
   26846, -7.72851512e-04, -2.37859236e-03,  1.34210526e-02
   26847, -3.91242601e-04, -2.47020854e-03,  1.34210526e-02
   26848, -2.22133423e-19, -2.50100000e-03,  1.34210526e-02
   26849,  3.91242601e-04, -2.47020854e-03,  1.34210526e-02
   26850,  7.72851512e-04, -2.37859236e-03,  1.34210526e-02
   26851,  1.13543026e-03, -2.22840734e-03,  1.34210526e-02
   26852,  1.47005095e-03, -2.02335153e-03,  1.34210526e-02
   26853, -1.47005095e-03, -2.02335153e-03,  1.42105263e-02
   26854, -1.13543026e-03, -2.22840734e-03,  1.42105263e-02
   26855, -7.72851512e-04, -2.37859236e-03,  1.42105263e-02
   26856, -3.91242601e-04, -2.47020854e-03,  1.42105263e-02
   26857, -2.22133423e-19, -2.50100000e-03,  1.42105263e-02
   26858,  3.91242601e-04, -2.47020854e-03,  1.42105263e-02
   26859,  7.72851512e-04, -2.37859236e-03,  1.42105263e-02
   26860,  1.13543026e-03, -2.22840734e-03,  1.42105263e-02
   26861,  1.47005095e-03, -2.02335153e-03,  1.42105263e-02
   26862, -1.47005095e-03, -2.02335153e-03,  1.50000000e-02
   26863, -1.13543026e-03, -2.22840734e-03,  1.50000000e-02
   26864, -7.72851512e-04, -2.37859236e-03,  1.50000000e-02
   26865, -3.91242601e-04, -2.47020854e-03,  1.50000000e-02
   26866, -2.22133423e-19, -2.50100000e-03,  1.50000000e-02
   26867,  3.91242601e-04, -2.47020854e-03,  1.50000000e-02
   26868,  7.72851512e-04, -2.37859236e-03,  1.50000000e-02
   26869,  1.13543026e-03, -2.22840734e-03,  1.50000000e-02
   26870,  1.47005095e-03, -2.02335153e-03,  1.50000000e-02
   26871, -1.47005095e-03, -2.02335153e-03,  1.57894737e-02
   26872, -1.13543026e-03, -2.22840734e-03,  1.57894737e-02
   26873, -7.72851512e-04, -2.37859236e-03,  1.57894737e-02
   26874, -3.91242601e-04, -2.47020854e-03,  1.57894737e-02
   26875, -2.22133423e-19, -2.50100000e-03,  1.57894737e-02
   26876,  3.91242601e-04, -2.47020854e-03,  1.57894737e-02
   26877,  7.72851512e-04, -2.37859236e-03,  1.57894737e-02
   26878,  1.13543026e-03, -2.22840734e-03,  1.57894737e-02
   26879,  1.47005095e-03, -2.02335153e-03,  1.57894737e-02
   26880, -1.47005095e-03, -2.02335153e-03,  1.65789474e-02
   26881, -1.13543026e-03, -2.22840734e-03,  1.65789474e-02
   26882, -7.72851512e-04, -2.37859236e-03,  1.65789474e-02
   26883, -3.91242601e-04, -2.47020854e-03,  1.65789474e-02
   26884, -2.22133423e-19, -2.50100000e-03,  1.65789474e-02
   26885,  3.91242601e-04, -2.47020854e-03,  1.65789474e-02
   26886,  7.72851512e-04, -2.37859236e-03,  1.65789474e-02
   26887,  1.13543026e-03, -2.22840734e-03,  1.65789474e-02
   26888,  1.47005095e-03, -2.02335153e-03,  1.65789474e-02
   26889, -1.47005095e-03, -2.02335153e-03,  1.73684210e-02
   26890, -1.13543026e-03, -2.22840734e-03,  1.73684210e-02
   26891, -7.72851512e-04, -2.37859236e-03,  1.73684210e-02
   26892, -3.91242601e-04, -2.47020854e-03,  1.73684210e-02
   26893, -2.22133423e-19, -2.50100000e-03,  1.73684210e-02
   26894,  3.91242601e-04, -2.47020854e-03,  1.73684210e-02
   26895,  7.72851512e-04, -2.37859236e-03,  1.73684210e-02
   26896,  1.13543026e-03, -2.22840734e-03,  1.73684210e-02
   26897,  1.47005095e-03, -2.02335153e-03,  1.73684210e-02
   26898, -1.47005095e-03, -2.02335153e-03,  1.81578947e-02
   26899, -1.13543026e-03, -2.22840734e-03,  1.81578947e-02
   26900, -7.72851512e-04, -2.37859236e-03,  1.81578947e-02
   26901, -3.91242601e-04, -2.47020854e-03,  1.81578947e-02
   26902, -2.22133423e-19, -2.50100000e-03,  1.81578947e-02
   26903,  3.91242601e-04, -2.47020854e-03,  1.81578947e-02
   26904,  7.72851512e-04, -2.37859236e-03,  1.81578947e-02
   26905,  1.13543026e-03, -2.22840734e-03,  1.81578947e-02
   26906,  1.47005095e-03, -2.02335153e-03,  1.81578947e-02
   26907, -1.47005095e-03, -2.02335153e-03,  1.89473684e-02
   26908, -1.13543026e-03, -2.22840734e-03,  1.89473684e-02
   26909, -7.72851512e-04, -2.37859236e-03,  1.89473684e-02
   26910, -3.91242601e-04, -2.47020854e-03,  1.89473684e-02
   26911, -2.22133423e-19, -2.50100000e-03,  1.89473684e-02
   26912,  3.91242601e-04, -2.47020854e-03,  1.89473684e-02
   26913,  7.72851512e-04, -2.37859236e-03,  1.89473684e-02
   26914,  1.13543026e-03, -2.22840734e-03,  1.89473684e-02
   26915,  1.47005095e-03, -2.02335153e-03,  1.89473684e-02
   26916, -1.47005095e-03, -2.02335153e-03,  1.97368421e-02
   26917, -1.13543026e-03, -2.22840734e-03,  1.97368421e-02
   26918, -7.72851512e-04, -2.37859236e-03,  1.97368421e-02
   26919, -3.91242601e-04, -2.47020854e-03,  1.97368421e-02
   26920, -2.22133423e-19, -2.50100000e-03,  1.97368421e-02
   26921,  3.91242601e-04, -2.47020854e-03,  1.97368421e-02
   26922,  7.72851512e-04, -2.37859236e-03,  1.97368421e-02
   26923,  1.13543026e-03, -2.22840734e-03,  1.97368421e-02
   26924,  1.47005095e-03, -2.02335153e-03,  1.97368421e-02
   26925, -1.47005095e-03, -2.02335153e-03,  2.05263158e-02
   26926, -1.13543026e-03, -2.22840734e-03,  2.05263158e-02
   26927, -7.72851512e-04, -2.37859236e-03,  2.05263158e-02
   26928, -3.91242601e-04, -2.47020854e-03,  2.05263158e-02
   26929, -2.22133423e-19, -2.50100000e-03,  2.05263158e-02
   26930,  3.91242601e-04, -2.47020854e-03,  2.05263158e-02
   26931,  7.72851512e-04, -2.37859236e-03,  2.05263158e-02
   26932,  1.13543026e-03, -2.22840734e-03,  2.05263158e-02
   26933,  1.47005095e-03, -2.02335153e-03,  2.05263158e-02
   26934, -1.47005095e-03, -2.02335153e-03,  2.13157895e-02
   26935, -1.13543026e-03, -2.22840734e-03,  2.13157895e-02
   26936, -7.72851512e-04, -2.37859236e-03,  2.13157895e-02
   26937, -3.91242601e-04, -2.47020854e-03,  2.13157895e-02
   26938, -2.22133423e-19, -2.50100000e-03,  2.13157895e-02
   26939,  3.91242601e-04, -2.47020854e-03,  2.13157895e-02
   26940,  7.72851512e-04, -2.37859236e-03,  2.13157895e-02
   26941,  1.13543026e-03, -2.22840734e-03,  2.13157895e-02
   26942,  1.47005095e-03, -2.02335153e-03,  2.13157895e-02
   26943, -1.47005095e-03, -2.02335153e-03,  2.21052632e-02
   26944, -1.13543026e-03, -2.22840734e-03,  2.21052632e-02
   26945, -7.72851512e-04, -2.37859236e-03,  2.21052632e-02
   26946, -3.91242601e-04, -2.47020854e-03,  2.21052632e-02
   26947, -2.22133423e-19, -2.50100000e-03,  2.21052632e-02
   26948,  3.91242601e-04, -2.47020854e-03,  2.21052632e-02
   26949,  7.72851512e-04, -2.37859236e-03,  2.21052632e-02
   26950,  1.13543026e-03, -2.22840734e-03,  2.21052632e-02
   26951,  1.47005095e-03, -2.02335153e-03,  2.21052632e-02
   26952, -1.47005095e-03, -2.02335153e-03,  2.28947368e-02
   26953, -1.13543026e-03, -2.22840734e-03,  2.28947368e-02
   26954, -7.72851512e-04, -2.37859236e-03,  2.28947368e-02
   26955, -3.91242601e-04, -2.47020854e-03,  2.28947368e-02
   26956, -2.22133423e-19, -2.50100000e-03,  2.28947368e-02
   26957,  3.91242601e-04, -2.47020854e-03,  2.28947368e-02
   26958,  7.72851512e-04, -2.37859236e-03,  2.28947368e-02
   26959,  1.13543026e-03, -2.22840734e-03,  2.28947368e-02
   26960,  1.47005095e-03, -2.02335153e-03,  2.28947368e-02
   26961, -1.47005095e-03, -2.02335153e-03,  2.36842105e-02
   26962, -1.13543026e-03, -2.22840734e-03,  2.36842105e-02
   26963, -7.72851512e-04, -2.37859236e-03,  2.36842105e-02
   26964, -3.91242601e-04, -2.47020854e-03,  2.36842105e-02
   26965, -2.22133423e-19, -2.50100000e-03,  2.36842105e-02
   26966,  3.91242601e-04, -2.47020854e-03,  2.36842105e-02
   26967,  7.72851512e-04, -2.37859236e-03,  2.36842105e-02
   26968,  1.13543026e-03, -2.22840734e-03,  2.36842105e-02
   26969,  1.47005095e-03, -2.02335153e-03,  2.36842105e-02
   26970, -1.47005095e-03, -2.02335153e-03,  2.44736842e-02
   26971, -1.13543026e-03, -2.22840734e-03,  2.44736842e-02
   26972, -7.72851512e-04, -2.37859236e-03,  2.44736842e-02
   26973, -3.91242601e-04, -2.47020854e-03,  2.44736842e-02
   26974, -2.22133423e-19, -2.50100000e-03,  2.44736842e-02
   26975,  3.91242601e-04, -2.47020854e-03,  2.44736842e-02
   26976,  7.72851512e-04, -2.37859236e-03,  2.44736842e-02
   26977,  1.13543026e-03, -2.22840734e-03,  2.44736842e-02
   26978,  1.47005095e-03, -2.02335153e-03,  2.44736842e-02
   26979, -1.47005095e-03, -2.02335153e-03,  2.52631579e-02
   26980, -1.13543026e-03, -2.22840734e-03,  2.52631579e-02
   26981, -7.72851512e-04, -2.37859236e-03,  2.52631579e-02
   26982, -3.91242601e-04, -2.47020854e-03,  2.52631579e-02
   26983, -2.22133423e-19, -2.50100000e-03,  2.52631579e-02
   26984,  3.91242601e-04, -2.47020854e-03,  2.52631579e-02
   26985,  7.72851512e-04, -2.37859236e-03,  2.52631579e-02
   26986,  1.13543026e-03, -2.22840734e-03,  2.52631579e-02
   26987,  1.47005095e-03, -2.02335153e-03,  2.52631579e-02
   26988, -1.47005095e-03, -2.02335153e-03,  2.60526316e-02
   26989, -1.13543026e-03, -2.22840734e-03,  2.60526316e-02
   26990, -7.72851512e-04, -2.37859236e-03,  2.60526316e-02
   26991, -3.91242601e-04, -2.47020854e-03,  2.60526316e-02
   26992, -2.22133423e-19, -2.50100000e-03,  2.60526316e-02
   26993,  3.91242601e-04, -2.47020854e-03,  2.60526316e-02
   26994,  7.72851512e-04, -2.37859236e-03,  2.60526316e-02
   26995,  1.13543026e-03, -2.22840734e-03,  2.60526316e-02
   26996,  1.47005095e-03, -2.02335153e-03,  2.60526316e-02
   26997, -1.47005095e-03, -2.02335153e-03,  2.68421053e-02
   26998, -1.13543026e-03, -2.22840734e-03,  2.68421053e-02
   26999, -7.72851512e-04, -2.37859236e-03,  2.68421053e-02
   27000, -3.91242601e-04, -2.47020854e-03,  2.68421053e-02
   27001, -2.22133423e-19, -2.50100000e-03,  2.68421053e-02
   27002,  3.91242601e-04, -2.47020854e-03,  2.68421053e-02
   27003,  7.72851512e-04, -2.37859236e-03,  2.68421053e-02
   27004,  1.13543026e-03, -2.22840734e-03,  2.68421053e-02
   27005,  1.47005095e-03, -2.02335153e-03,  2.68421053e-02
   27006, -1.47005095e-03, -2.02335153e-03,  2.76315789e-02
   27007, -1.13543026e-03, -2.22840734e-03,  2.76315789e-02
   27008, -7.72851512e-04, -2.37859236e-03,  2.76315789e-02
   27009, -3.91242601e-04, -2.47020854e-03,  2.76315789e-02
   27010, -2.22133423e-19, -2.50100000e-03,  2.76315789e-02
   27011,  3.91242601e-04, -2.47020854e-03,  2.76315789e-02
   27012,  7.72851512e-04, -2.37859236e-03,  2.76315789e-02
   27013,  1.13543026e-03, -2.22840734e-03,  2.76315789e-02
   27014,  1.47005095e-03, -2.02335153e-03,  2.76315789e-02
   27015, -1.47005095e-03, -2.02335153e-03,  2.84210526e-02
   27016, -1.13543026e-03, -2.22840734e-03,  2.84210526e-02
   27017, -7.72851512e-04, -2.37859236e-03,  2.84210526e-02
   27018, -3.91242601e-04, -2.47020854e-03,  2.84210526e-02
   27019, -2.22133423e-19, -2.50100000e-03,  2.84210526e-02
   27020,  3.91242601e-04, -2.47020854e-03,  2.84210526e-02
   27021,  7.72851512e-04, -2.37859236e-03,  2.84210526e-02
   27022,  1.13543026e-03, -2.22840734e-03,  2.84210526e-02
   27023,  1.47005095e-03, -2.02335153e-03,  2.84210526e-02
   27024, -1.47005095e-03, -2.02335153e-03,  2.92105263e-02
   27025, -1.13543026e-03, -2.22840734e-03,  2.92105263e-02
   27026, -7.72851512e-04, -2.37859236e-03,  2.92105263e-02
   27027, -3.91242601e-04, -2.47020854e-03,  2.92105263e-02
   27028, -2.22133423e-19, -2.50100000e-03,  2.92105263e-02
   27029,  3.91242601e-04, -2.47020854e-03,  2.92105263e-02
   27030,  7.72851512e-04, -2.37859236e-03,  2.92105263e-02
   27031,  1.13543026e-03, -2.22840734e-03,  2.92105263e-02
   27032,  1.47005095e-03, -2.02335153e-03,  2.92105263e-02
   27033, -1.47005095e-03, -2.02335153e-03,  3.00000000e-02
   27034, -1.13543026e-03, -2.22840734e-03,  3.00000000e-02
   27035, -7.72851512e-04, -2.37859236e-03,  3.00000000e-02
   27036, -3.91242601e-04, -2.47020854e-03,  3.00000000e-02
   27037, -2.22133423e-19, -2.50100000e-03,  3.00000000e-02
   27038,  3.91242601e-04, -2.47020854e-03,  3.00000000e-02
   27039,  7.72851512e-04, -2.37859236e-03,  3.00000000e-02
   27040,  1.13543026e-03, -2.22840734e-03,  3.00000000e-02
   27041,  1.47005095e-03, -2.02335153e-03,  3.00000000e-02
*ELEMENT, TYPE=SPRINGA, ELSET=WK_0
   22241,    18762,    25482
*SPRING, ELSET=WK_0

3.097070e-02
*ELEMENT, TYPE=SPRINGA, ELSET=WK_1
   22242,    18765,    25483
*SPRING, ELSET=WK_1

3.097070e-02
*ELEMENT, TYPE=SPRINGA, ELSET=WK_2
   22243,    18768,    25484
*SPRING, ELSET=WK_2

3.097070e-02
*ELEMENT, TYPE=SPRINGA, ELSET=WK_3
   22244,    18771,    25485
*SPRING, ELSET=WK_3

3.097070e-02
*ELEMENT, TYPE=SPRINGA, ELSET=WK_4
   22245,    18774,    25486
*SPRING, ELSET=WK_4

3.097070e-02
*ELEMENT, TYPE=SPRINGA, ELSET=WK_5
   22246,    18777,    25487
*SPRING, ELSET=WK_5

3.097070e-02
*ELEMENT, TYPE=SPRINGA, ELSET=WK_6
   22247,    18780,    25488
*SPRING, ELSET=WK_6

3.097070e-02
*ELEMENT, TYPE=SPRINGA, ELSET=WK_7
   22248,    18783,    25489
*SPRING, ELSET=WK_7

3.097070e-02
*ELEMENT, TYPE=SPRINGA, ELSET=WK_8
   22249,    18786,    25490
*SPRING, ELSET=WK_8

3.097070e-02
*ELEMENT, TYPE=SPRINGA, ELSET=WK_9
   22250,    18789,    25491
*SPRING, ELSET=WK_9

3.097070e-02
*ELEMENT, TYPE=SPRINGA, ELSET=WK_10
   22251,    18792,    25492
*SPRING, ELSET=WK_10

3.097070e-02
*ELEMENT, TYPE=SPRINGA, ELSET=WK_11
   22252,    18795,    25493
*SPRING, ELSET=WK_11

6.194139e-02
*ELEMENT, TYPE=SPRINGA, ELSET=WK_12
   22253,    18798,    25494
*SPRING, ELSET=WK_12

6.194139e-02
*ELEMENT, TYPE=SPRINGA, ELSET=WK_13
   22254,    18801,    25495
*SPRING, ELSET=WK_13

6.194139e-02
*ELEMENT, TYPE=SPRINGA, ELSET=WK_14
   22255,    18804,    25496
*SPRING, ELSET=WK_14

6.194139e-02
*ELEMENT, TYPE=SPRINGA, ELSET=WK_15
   22256,    18807,    25497
*SPRING, ELSET=WK_15

6.194139e-02
*ELEMENT, TYPE=SPRINGA, ELSET=WK_16
   22257,    18810,    25498
*SPRING, ELSET=WK_16

6.194139e-02
*ELEMENT, TYPE=SPRINGA, ELSET=WK_17
   22258,    18813,    25499
*SPRING, ELSET=WK_17

6.194139e-02
*ELEMENT, TYPE=SPRINGA, ELSET=WK_18
   22259,    18816,    25500
*SPRING, ELSET=WK_18

6.194139e-02
*ELEMENT, TYPE=SPRINGA, ELSET=WK_19
   22260,    18819,    25501
*SPRING, ELSET=WK_19

6.194139e-02
*ELEMENT, TYPE=SPRINGA, ELSET=WK_20
   22261,    18822,    25502
*SPRING, ELSET=WK_20

6.194139e-02
*ELEMENT, TYPE=SPRINGA, ELSET=WK_21
   22262,    18825,    25503
*SPRING, ELSET=WK_21

6.194139e-02
*ELEMENT, TYPE=SPRINGA, ELSET=WK_22
   22263,    18828,    25504
*SPRING, ELSET=WK_22

6.194139e-02
*ELEMENT, TYPE=SPRINGA, ELSET=WK_23
   22264,    18831,    25505
*SPRING, ELSET=WK_23

6.194139e-02
*ELEMENT, TYPE=SPRINGA, ELSET=WK_24
   22265,    18834,    25506
*SPRING, ELSET=WK_24

6.194139e-02
*ELEMENT, TYPE=SPRINGA, ELSET=WK_25
   22266,    18837,    25507
*SPRING, ELSET=WK_25

6.194139e-02
*ELEMENT, TYPE=SPRINGA, ELSET=WK_26
   22267,    18840,    25508
*SPRING, ELSET=WK_26

6.194139e-02
*ELEMENT, TYPE=SPRINGA, ELSET=WK_27
   22268,    18843,    25509
*SPRING, ELSET=WK_27

6.194139e-02
*ELEMENT, TYPE=SPRINGA, ELSET=WK_28
   22269,    18846,    25510
*SPRING, ELSET=WK_28

6.194139e-02
*ELEMENT, TYPE=SPRINGA, ELSET=WK_29
   22270,    18849,    25511
*SPRING, ELSET=WK_29

6.194139e-02
*ELEMENT, TYPE=SPRINGA, ELSET=WK_30
   22271,    18852,    25512
*SPRING, ELSET=WK_30

6.194139e-02
*ELEMENT, TYPE=SPRINGA, ELSET=WK_31
   22272,    18855,    25513
*SPRING, ELSET=WK_31

6.194139e-02
*ELEMENT, TYPE=SPRINGA, ELSET=WK_32
   22273,    18858,    25514
*SPRING, ELSET=WK_32

6.194139e-02
*ELEMENT, TYPE=SPRINGA, ELSET=WK_33
   22274,    18861,    25515
*SPRING, ELSET=WK_33

6.194139e-02
*ELEMENT, TYPE=SPRINGA, ELSET=WK_34
   22275,    18864,    25516
*SPRING, ELSET=WK_34

6.194139e-02
*ELEMENT, TYPE=SPRINGA, ELSET=WK_35
   22276,    18867,    25517
*SPRING, ELSET=WK_35

6.194139e-02
*ELEMENT, TYPE=SPRINGA, ELSET=WK_36
   22277,    18870,    25518
*SPRING, ELSET=WK_36

6.194139e-02
*ELEMENT, TYPE=SPRINGA, ELSET=WK_37
   22278,    18873,    25519
*SPRING, ELSET=WK_37

6.194139e-02
*ELEMENT, TYPE=SPRINGA, ELSET=WK_38
   22279,    18876,    25520
*SPRING, ELSET=WK_38

6.194139e-02
*ELEMENT, TYPE=SPRINGA, ELSET=WK_39
   22280,    18879,    25521
*SPRING, ELSET=WK_39

6.194139e-02
*ELEMENT, TYPE=SPRINGA, ELSET=WK_40
   22281,    18882,    25522
*SPRING, ELSET=WK_40

6.194139e-02
*ELEMENT, TYPE=SPRINGA, ELSET=WK_41
   22282,    18885,    25523
*SPRING, ELSET=WK_41

6.194139e-02
*ELEMENT, TYPE=SPRINGA, ELSET=WK_42
   22283,    18888,    25524
*SPRING, ELSET=WK_42

6.194139e-02
*ELEMENT, TYPE=SPRINGA, ELSET=WK_43
   22284,    18891,    25525
*SPRING, ELSET=WK_43

6.194139e-02
*ELEMENT, TYPE=SPRINGA, ELSET=WK_44
   22285,    18894,    25526
*SPRING, ELSET=WK_44

6.194139e-02
*ELEMENT, TYPE=SPRINGA, ELSET=WK_45
   22286,    18897,    25527
*SPRING, ELSET=WK_45

6.194139e-02
*ELEMENT, TYPE=SPRINGA, ELSET=WK_46
   22287,    18900,    25528
*SPRING, ELSET=WK_46

6.194139e-02
*ELEMENT, TYPE=SPRINGA, ELSET=WK_47
   22288,    18903,    25529
*SPRING, ELSET=WK_47

6.194139e-02
*ELEMENT, TYPE=SPRINGA, ELSET=WK_48
   22289,    18906,    25530
*SPRING, ELSET=WK_48

6.194139e-02
*ELEMENT, TYPE=SPRINGA, ELSET=WK_49
   22290,    18909,    25531
*SPRING, ELSET=WK_49

6.194139e-02
*ELEMENT, TYPE=SPRINGA, ELSET=WK_50
   22291,    18912,    25532
*SPRING, ELSET=WK_50

6.194139e-02
*ELEMENT, TYPE=SPRINGA, ELSET=WK_51
   22292,    18915,    25533
*SPRING, ELSET=WK_51

6.194139e-02
*ELEMENT, TYPE=SPRINGA, ELSET=WK_52
   22293,    18918,    25534
*SPRING, ELSET=WK_52

6.194139e-02
*ELEMENT, TYPE=SPRINGA, ELSET=WK_53
   22294,    18921,    25535
*SPRING, ELSET=WK_53

6.194139e-02
*ELEMENT, TYPE=SPRINGA, ELSET=WK_54
   22295,    18924,    25536
*SPRING, ELSET=WK_54

6.194139e-02
*ELEMENT, TYPE=SPRINGA, ELSET=WK_55
   22296,    18927,    25537
*SPRING, ELSET=WK_55

6.194139e-02
*ELEMENT, TYPE=SPRINGA, ELSET=WK_56
   22297,    18930,    25538
*SPRING, ELSET=WK_56

6.194139e-02
*ELEMENT, TYPE=SPRINGA, ELSET=WK_57
   22298,    18933,    25539
*SPRING, ELSET=WK_57

6.194139e-02
*ELEMENT, TYPE=SPRINGA, ELSET=WK_58
   22299,    18936,    25540
*SPRING, ELSET=WK_58

6.194139e-02
*ELEMENT, TYPE=SPRINGA, ELSET=WK_59
   22300,    18939,    25541
*SPRING, ELSET=WK_59

6.194139e-02
*ELEMENT, TYPE=SPRINGA, ELSET=WK_60
   22301,    18942,    25542
*SPRING, ELSET=WK_60

6.194139e-02
*ELEMENT, TYPE=SPRINGA, ELSET=WK_61
   22302,    18945,    25543
*SPRING, ELSET=WK_61

6.194139e-02
*ELEMENT, TYPE=SPRINGA, ELSET=WK_62
   22303,    18948,    25544
*SPRING, ELSET=WK_62

6.194139e-02
*ELEMENT, TYPE=SPRINGA, ELSET=WK_63
   22304,    18951,    25545
*SPRING, ELSET=WK_63

6.194139e-02
*ELEMENT, TYPE=SPRINGA, ELSET=WK_64
   22305,    18954,    25546
*SPRING, ELSET=WK_64

6.194139e-02
*ELEMENT, TYPE=SPRINGA, ELSET=WK_65
   22306,    18957,    25547
*SPRING, ELSET=WK_65

6.194139e-02
*ELEMENT, TYPE=SPRINGA, ELSET=WK_66
   22307,    18960,    25548
*SPRING, ELSET=WK_66

6.194139e-02
*ELEMENT, TYPE=SPRINGA, ELSET=WK_67
   22308,    18963,    25549
*SPRING, ELSET=WK_67

6.194139e-02
*ELEMENT, TYPE=SPRINGA, ELSET=WK_68
   22309,    18966,    25550
*SPRING, ELSET=WK_68

6.194139e-02
*ELEMENT, TYPE=SPRINGA, ELSET=WK_69
   22310,    18969,    25551
*SPRING, ELSET=WK_69

6.194139e-02
*ELEMENT, TYPE=SPRINGA, ELSET=WK_70
   22311,    18972,    25552
*SPRING, ELSET=WK_70

6.194139e-02
*ELEMENT, TYPE=SPRINGA, ELSET=WK_71
   22312,    18975,    25553
*SPRING, ELSET=WK_71

6.194139e-02
*ELEMENT, TYPE=SPRINGA, ELSET=WK_72
   22313,    18978,    25554
*SPRING, ELSET=WK_72

6.194139e-02
*ELEMENT, TYPE=SPRINGA, ELSET=WK_73
   22314,    18981,    25555
*SPRING, ELSET=WK_73

6.194139e-02
*ELEMENT, TYPE=SPRINGA, ELSET=WK_74
   22315,    18984,    25556
*SPRING, ELSET=WK_74

6.194139e-02
*ELEMENT, TYPE=SPRINGA, ELSET=WK_75
   22316,    18987,    25557
*SPRING, ELSET=WK_75

6.194139e-02
*ELEMENT, TYPE=SPRINGA, ELSET=WK_76
   22317,    18990,    25558
*SPRING, ELSET=WK_76

6.194139e-02
*ELEMENT, TYPE=SPRINGA, ELSET=WK_77
   22318,    18993,    25559
*SPRING, ELSET=WK_77

6.194139e-02
*ELEMENT, TYPE=SPRINGA, ELSET=WK_78
   22319,    18996,    25560
*SPRING, ELSET=WK_78

6.194139e-02
*ELEMENT, TYPE=SPRINGA, ELSET=WK_79
   22320,    18999,    25561
*SPRING, ELSET=WK_79

6.194139e-02
*ELEMENT, TYPE=SPRINGA, ELSET=WK_80
   22321,    19002,    25562
*SPRING, ELSET=WK_80

6.194139e-02
*ELEMENT, TYPE=SPRINGA, ELSET=WK_81
   22322,    19005,    25563
*SPRING, ELSET=WK_81

6.194139e-02
*ELEMENT, TYPE=SPRINGA, ELSET=WK_82
   22323,    19008,    25564
*SPRING, ELSET=WK_82

6.194139e-02
*ELEMENT, TYPE=SPRINGA, ELSET=WK_83
   22324,    19011,    25565
*SPRING, ELSET=WK_83

6.194139e-02
*ELEMENT, TYPE=SPRINGA, ELSET=WK_84
   22325,    19014,    25566
*SPRING, ELSET=WK_84

6.194139e-02
*ELEMENT, TYPE=SPRINGA, ELSET=WK_85
   22326,    19017,    25567
*SPRING, ELSET=WK_85

6.194139e-02
*ELEMENT, TYPE=SPRINGA, ELSET=WK_86
   22327,    19020,    25568
*SPRING, ELSET=WK_86

6.194139e-02
*ELEMENT, TYPE=SPRINGA, ELSET=WK_87
   22328,    19023,    25569
*SPRING, ELSET=WK_87

6.194139e-02
*ELEMENT, TYPE=SPRINGA, ELSET=WK_88
   22329,    19026,    25570
*SPRING, ELSET=WK_88

6.194139e-02
*ELEMENT, TYPE=SPRINGA, ELSET=WK_89
   22330,    19029,    25571
*SPRING, ELSET=WK_89

6.194139e-02
*ELEMENT, TYPE=SPRINGA, ELSET=WK_90
   22331,    19032,    25572
*SPRING, ELSET=WK_90

6.194139e-02
*ELEMENT, TYPE=SPRINGA, ELSET=WK_91
   22332,    19035,    25573
*SPRING, ELSET=WK_91

6.194139e-02
*ELEMENT, TYPE=SPRINGA, ELSET=WK_92
   22333,    19038,    25574
*SPRING, ELSET=WK_92

6.194139e-02
*ELEMENT, TYPE=SPRINGA, ELSET=WK_93
   22334,    19041,    25575
*SPRING, ELSET=WK_93

6.194139e-02
*ELEMENT, TYPE=SPRINGA, ELSET=WK_94
   22335,    19044,    25576
*SPRING, ELSET=WK_94

6.194139e-02
*ELEMENT, TYPE=SPRINGA, ELSET=WK_95
   22336,    19047,    25577
*SPRING, ELSET=WK_95

6.194139e-02
*ELEMENT, TYPE=SPRINGA, ELSET=WK_96
   22337,    19050,    25578
*SPRING, ELSET=WK_96

6.194139e-02
*ELEMENT, TYPE=SPRINGA, ELSET=WK_97
   22338,    19053,    25579
*SPRING, ELSET=WK_97

6.194139e-02
*ELEMENT, TYPE=SPRINGA, ELSET=WK_98
   22339,    19056,    25580
*SPRING, ELSET=WK_98

6.194139e-02
*ELEMENT, TYPE=SPRINGA, ELSET=WK_99
   22340,    19059,    25581
*SPRING, ELSET=WK_99

6.194139e-02
*ELEMENT, TYPE=SPRINGA, ELSET=WK_100
   22341,    19062,    25582
*SPRING, ELSET=WK_100

6.194139e-02
*ELEMENT, TYPE=SPRINGA, ELSET=WK_101
   22342,    19065,    25583
*SPRING, ELSET=WK_101

6.194139e-02
*ELEMENT, TYPE=SPRINGA, ELSET=WK_102
   22343,    19068,    25584
*SPRING, ELSET=WK_102

6.194139e-02
*ELEMENT, TYPE=SPRINGA, ELSET=WK_103
   22344,    19071,    25585
*SPRING, ELSET=WK_103

6.194139e-02
*ELEMENT, TYPE=SPRINGA, ELSET=WK_104
   22345,    19074,    25586
*SPRING, ELSET=WK_104

6.194139e-02
*ELEMENT, TYPE=SPRINGA, ELSET=WK_105
   22346,    19077,    25587
*SPRING, ELSET=WK_105

6.194139e-02
*ELEMENT, TYPE=SPRINGA, ELSET=WK_106
   22347,    19080,    25588
*SPRING, ELSET=WK_106

6.194139e-02
*ELEMENT, TYPE=SPRINGA, ELSET=WK_107
   22348,    19083,    25589
*SPRING, ELSET=WK_107

6.194139e-02
*ELEMENT, TYPE=SPRINGA, ELSET=WK_108
   22349,    19086,    25590
*SPRING, ELSET=WK_108

6.194139e-02
*ELEMENT, TYPE=SPRINGA, ELSET=WK_109
   22350,    19089,    25591
*SPRING, ELSET=WK_109

6.194139e-02
*ELEMENT, TYPE=SPRINGA, ELSET=WK_110
   22351,    19092,    25592
*SPRING, ELSET=WK_110

6.194139e-02
*ELEMENT, TYPE=SPRINGA, ELSET=WK_111
   22352,    19095,    25593
*SPRING, ELSET=WK_111

6.194139e-02
*ELEMENT, TYPE=SPRINGA, ELSET=WK_112
   22353,    19098,    25594
*SPRING, ELSET=WK_112

6.194139e-02
*ELEMENT, TYPE=SPRINGA, ELSET=WK_113
   22354,    19101,    25595
*SPRING, ELSET=WK_113

6.194139e-02
*ELEMENT, TYPE=SPRINGA, ELSET=WK_114
   22355,    19104,    25596
*SPRING, ELSET=WK_114

6.194139e-02
*ELEMENT, TYPE=SPRINGA, ELSET=WK_115
   22356,    19107,    25597
*SPRING, ELSET=WK_115

6.194139e-02
*ELEMENT, TYPE=SPRINGA, ELSET=WK_116
   22357,    19110,    25598
*SPRING, ELSET=WK_116

6.194139e-02
*ELEMENT, TYPE=SPRINGA, ELSET=WK_117
   22358,    19113,    25599
*SPRING, ELSET=WK_117

6.194139e-02
*ELEMENT, TYPE=SPRINGA, ELSET=WK_118
   22359,    19116,    25600
*SPRING, ELSET=WK_118

6.194139e-02
*ELEMENT, TYPE=SPRINGA, ELSET=WK_119
   22360,    19119,    25601
*SPRING, ELSET=WK_119

6.194139e-02
*ELEMENT, TYPE=SPRINGA, ELSET=WK_120
   22361,    19122,    25602
*SPRING, ELSET=WK_120

6.194139e-02
*ELEMENT, TYPE=SPRINGA, ELSET=WK_121
   22362,    19125,    25603
*SPRING, ELSET=WK_121

6.194139e-02
*ELEMENT, TYPE=SPRINGA, ELSET=WK_122
   22363,    19128,    25604
*SPRING, ELSET=WK_122

6.194139e-02
*ELEMENT, TYPE=SPRINGA, ELSET=WK_123
   22364,    19131,    25605
*SPRING, ELSET=WK_123

6.194139e-02
*ELEMENT, TYPE=SPRINGA, ELSET=WK_124
   22365,    19134,    25606
*SPRING, ELSET=WK_124

6.194139e-02
*ELEMENT, TYPE=SPRINGA, ELSET=WK_125
   22366,    19137,    25607
*SPRING, ELSET=WK_125

6.194139e-02
*ELEMENT, TYPE=SPRINGA, ELSET=WK_126
   22367,    19140,    25608
*SPRING, ELSET=WK_126

6.194139e-02
*ELEMENT, TYPE=SPRINGA, ELSET=WK_127
   22368,    19143,    25609
*SPRING, ELSET=WK_127

6.194139e-02
*ELEMENT, TYPE=SPRINGA, ELSET=WK_128
   22369,    19146,    25610
*SPRING, ELSET=WK_128

6.194139e-02
*ELEMENT, TYPE=SPRINGA, ELSET=WK_129
   22370,    19149,    25611
*SPRING, ELSET=WK_129

6.194139e-02
*ELEMENT, TYPE=SPRINGA, ELSET=WK_130
   22371,    19152,    25612
*SPRING, ELSET=WK_130

6.194139e-02
*ELEMENT, TYPE=SPRINGA, ELSET=WK_131
   22372,    19155,    25613
*SPRING, ELSET=WK_131

6.194139e-02
*ELEMENT, TYPE=SPRINGA, ELSET=WK_132
   22373,    19158,    25614
*SPRING, ELSET=WK_132

6.194139e-02
*ELEMENT, TYPE=SPRINGA, ELSET=WK_133
   22374,    19161,    25615
*SPRING, ELSET=WK_133

6.194139e-02
*ELEMENT, TYPE=SPRINGA, ELSET=WK_134
   22375,    19164,    25616
*SPRING, ELSET=WK_134

6.194139e-02
*ELEMENT, TYPE=SPRINGA, ELSET=WK_135
   22376,    19167,    25617
*SPRING, ELSET=WK_135

6.194139e-02
*ELEMENT, TYPE=SPRINGA, ELSET=WK_136
   22377,    19170,    25618
*SPRING, ELSET=WK_136

6.194139e-02
*ELEMENT, TYPE=SPRINGA, ELSET=WK_137
   22378,    19173,    25619
*SPRING, ELSET=WK_137

6.194139e-02
*ELEMENT, TYPE=SPRINGA, ELSET=WK_138
   22379,    19176,    25620
*SPRING, ELSET=WK_138

6.194139e-02
*ELEMENT, TYPE=SPRINGA, ELSET=WK_139
   22380,    19179,    25621
*SPRING, ELSET=WK_139

6.194139e-02
*ELEMENT, TYPE=SPRINGA, ELSET=WK_140
   22381,    19182,    25622
*SPRING, ELSET=WK_140

6.194139e-02
*ELEMENT, TYPE=SPRINGA, ELSET=WK_141
   22382,    19185,    25623
*SPRING, ELSET=WK_141

6.194139e-02
*ELEMENT, TYPE=SPRINGA, ELSET=WK_142
   22383,    19188,    25624
*SPRING, ELSET=WK_142

6.194139e-02
*ELEMENT, TYPE=SPRINGA, ELSET=WK_143
   22384,    19191,    25625
*SPRING, ELSET=WK_143

6.194139e-02
*ELEMENT, TYPE=SPRINGA, ELSET=WK_144
   22385,    19194,    25626
*SPRING, ELSET=WK_144

6.194139e-02
*ELEMENT, TYPE=SPRINGA, ELSET=WK_145
   22386,    19197,    25627
*SPRING, ELSET=WK_145

6.194139e-02
*ELEMENT, TYPE=SPRINGA, ELSET=WK_146
   22387,    19200,    25628
*SPRING, ELSET=WK_146

6.194139e-02
*ELEMENT, TYPE=SPRINGA, ELSET=WK_147
   22388,    19203,    25629
*SPRING, ELSET=WK_147

6.194139e-02
*ELEMENT, TYPE=SPRINGA, ELSET=WK_148
   22389,    19206,    25630
*SPRING, ELSET=WK_148

6.194139e-02
*ELEMENT, TYPE=SPRINGA, ELSET=WK_149
   22390,    19209,    25631
*SPRING, ELSET=WK_149

6.194139e-02
*ELEMENT, TYPE=SPRINGA, ELSET=WK_150
   22391,    19212,    25632
*SPRING, ELSET=WK_150

6.194139e-02
*ELEMENT, TYPE=SPRINGA, ELSET=WK_151
   22392,    19215,    25633
*SPRING, ELSET=WK_151

6.194139e-02
*ELEMENT, TYPE=SPRINGA, ELSET=WK_152
   22393,    19218,    25634
*SPRING, ELSET=WK_152

6.194139e-02
*ELEMENT, TYPE=SPRINGA, ELSET=WK_153
   22394,    19221,    25635
*SPRING, ELSET=WK_153

6.194139e-02
*ELEMENT, TYPE=SPRINGA, ELSET=WK_154
   22395,    19224,    25636
*SPRING, ELSET=WK_154

6.194139e-02
*ELEMENT, TYPE=SPRINGA, ELSET=WK_155
   22396,    19227,    25637
*SPRING, ELSET=WK_155

6.194139e-02
*ELEMENT, TYPE=SPRINGA, ELSET=WK_156
   22397,    19230,    25638
*SPRING, ELSET=WK_156

6.194139e-02
*ELEMENT, TYPE=SPRINGA, ELSET=WK_157
   22398,    19233,    25639
*SPRING, ELSET=WK_157

6.194139e-02
*ELEMENT, TYPE=SPRINGA, ELSET=WK_158
   22399,    19236,    25640
*SPRING, ELSET=WK_158

6.194139e-02
*ELEMENT, TYPE=SPRINGA, ELSET=WK_159
   22400,    19239,    25641
*SPRING, ELSET=WK_159

6.194139e-02
*ELEMENT, TYPE=SPRINGA, ELSET=WK_160
   22401,    19242,    25642
*SPRING, ELSET=WK_160

6.194139e-02
*ELEMENT, TYPE=SPRINGA, ELSET=WK_161
   22402,    19245,    25643
*SPRING, ELSET=WK_161

6.194139e-02
*ELEMENT, TYPE=SPRINGA, ELSET=WK_162
   22403,    19248,    25644
*SPRING, ELSET=WK_162

6.194139e-02
*ELEMENT, TYPE=SPRINGA, ELSET=WK_163
   22404,    19251,    25645
*SPRING, ELSET=WK_163

6.194139e-02
*ELEMENT, TYPE=SPRINGA, ELSET=WK_164
   22405,    19254,    25646
*SPRING, ELSET=WK_164

6.194139e-02
*ELEMENT, TYPE=SPRINGA, ELSET=WK_165
   22406,    19257,    25647
*SPRING, ELSET=WK_165

6.194139e-02
*ELEMENT, TYPE=SPRINGA, ELSET=WK_166
   22407,    19260,    25648
*SPRING, ELSET=WK_166

6.194139e-02
*ELEMENT, TYPE=SPRINGA, ELSET=WK_167
   22408,    19263,    25649
*SPRING, ELSET=WK_167

6.194139e-02
*ELEMENT, TYPE=SPRINGA, ELSET=WK_168
   22409,    19266,    25650
*SPRING, ELSET=WK_168

6.194139e-02
*ELEMENT, TYPE=SPRINGA, ELSET=WK_169
   22410,    19269,    25651
*SPRING, ELSET=WK_169

6.194139e-02
*ELEMENT, TYPE=SPRINGA, ELSET=WK_170
   22411,    19272,    25652
*SPRING, ELSET=WK_170

6.194139e-02
*ELEMENT, TYPE=SPRINGA, ELSET=WK_171
   22412,    19275,    25653
*SPRING, ELSET=WK_171

6.194139e-02
*ELEMENT, TYPE=SPRINGA, ELSET=WK_172
   22413,    19278,    25654
*SPRING, ELSET=WK_172

6.194139e-02
*ELEMENT, TYPE=SPRINGA, ELSET=WK_173
   22414,    19281,    25655
*SPRING, ELSET=WK_173

6.194139e-02
*ELEMENT, TYPE=SPRINGA, ELSET=WK_174
   22415,    19284,    25656
*SPRING, ELSET=WK_174

6.194139e-02
*ELEMENT, TYPE=SPRINGA, ELSET=WK_175
   22416,    19287,    25657
*SPRING, ELSET=WK_175

6.194139e-02
*ELEMENT, TYPE=SPRINGA, ELSET=WK_176
   22417,    19290,    25658
*SPRING, ELSET=WK_176

6.194139e-02
*ELEMENT, TYPE=SPRINGA, ELSET=WK_177
   22418,    19293,    25659
*SPRING, ELSET=WK_177

6.194139e-02
*ELEMENT, TYPE=SPRINGA, ELSET=WK_178
   22419,    19296,    25660
*SPRING, ELSET=WK_178

6.194139e-02
*ELEMENT, TYPE=SPRINGA, ELSET=WK_179
   22420,    19299,    25661
*SPRING, ELSET=WK_179

6.194139e-02
*ELEMENT, TYPE=SPRINGA, ELSET=WK_180
   22421,    19302,    25662
*SPRING, ELSET=WK_180

6.194139e-02
*ELEMENT, TYPE=SPRINGA, ELSET=WK_181
   22422,    19305,    25663
*SPRING, ELSET=WK_181

6.194139e-02
*ELEMENT, TYPE=SPRINGA, ELSET=WK_182
   22423,    19308,    25664
*SPRING, ELSET=WK_182

6.194139e-02
*ELEMENT, TYPE=SPRINGA, ELSET=WK_183
   22424,    19311,    25665
*SPRING, ELSET=WK_183

6.194139e-02
*ELEMENT, TYPE=SPRINGA, ELSET=WK_184
   22425,    19314,    25666
*SPRING, ELSET=WK_184

6.194139e-02
*ELEMENT, TYPE=SPRINGA, ELSET=WK_185
   22426,    19317,    25667
*SPRING, ELSET=WK_185

6.194139e-02
*ELEMENT, TYPE=SPRINGA, ELSET=WK_186
   22427,    19320,    25668
*SPRING, ELSET=WK_186

6.194139e-02
*ELEMENT, TYPE=SPRINGA, ELSET=WK_187
   22428,    19323,    25669
*SPRING, ELSET=WK_187

6.194139e-02
*ELEMENT, TYPE=SPRINGA, ELSET=WK_188
   22429,    19326,    25670
*SPRING, ELSET=WK_188

6.194139e-02
*ELEMENT, TYPE=SPRINGA, ELSET=WK_189
   22430,    19329,    25671
*SPRING, ELSET=WK_189

6.194139e-02
*ELEMENT, TYPE=SPRINGA, ELSET=WK_190
   22431,    19332,    25672
*SPRING, ELSET=WK_190

6.194139e-02
*ELEMENT, TYPE=SPRINGA, ELSET=WK_191
   22432,    19335,    25673
*SPRING, ELSET=WK_191

6.194139e-02
*ELEMENT, TYPE=SPRINGA, ELSET=WK_192
   22433,    19338,    25674
*SPRING, ELSET=WK_192

6.194139e-02
*ELEMENT, TYPE=SPRINGA, ELSET=WK_193
   22434,    19341,    25675
*SPRING, ELSET=WK_193

6.194139e-02
*ELEMENT, TYPE=SPRINGA, ELSET=WK_194
   22435,    19344,    25676
*SPRING, ELSET=WK_194

6.194139e-02
*ELEMENT, TYPE=SPRINGA, ELSET=WK_195
   22436,    19347,    25677
*SPRING, ELSET=WK_195

6.194139e-02
*ELEMENT, TYPE=SPRINGA, ELSET=WK_196
   22437,    19350,    25678
*SPRING, ELSET=WK_196

6.194139e-02
*ELEMENT, TYPE=SPRINGA, ELSET=WK_197
   22438,    19353,    25679
*SPRING, ELSET=WK_197

6.194139e-02
*ELEMENT, TYPE=SPRINGA, ELSET=WK_198
   22439,    19356,    25680
*SPRING, ELSET=WK_198

6.194139e-02
*ELEMENT, TYPE=SPRINGA, ELSET=WK_199
   22440,    19359,    25681
*SPRING, ELSET=WK_199

6.194139e-02
*ELEMENT, TYPE=SPRINGA, ELSET=WK_200
   22441,    19362,    25682
*SPRING, ELSET=WK_200

6.194139e-02
*ELEMENT, TYPE=SPRINGA, ELSET=WK_201
   22442,    19365,    25683
*SPRING, ELSET=WK_201

6.194139e-02
*ELEMENT, TYPE=SPRINGA, ELSET=WK_202
   22443,    19368,    25684
*SPRING, ELSET=WK_202

6.194139e-02
*ELEMENT, TYPE=SPRINGA, ELSET=WK_203
   22444,    19371,    25685
*SPRING, ELSET=WK_203

6.194139e-02
*ELEMENT, TYPE=SPRINGA, ELSET=WK_204
   22445,    19374,    25686
*SPRING, ELSET=WK_204

6.194139e-02
*ELEMENT, TYPE=SPRINGA, ELSET=WK_205
   22446,    19377,    25687
*SPRING, ELSET=WK_205

6.194139e-02
*ELEMENT, TYPE=SPRINGA, ELSET=WK_206
   22447,    19380,    25688
*SPRING, ELSET=WK_206

6.194139e-02
*ELEMENT, TYPE=SPRINGA, ELSET=WK_207
   22448,    19383,    25689
*SPRING, ELSET=WK_207

6.194139e-02
*ELEMENT, TYPE=SPRINGA, ELSET=WK_208
   22449,    19386,    25690
*SPRING, ELSET=WK_208

6.194139e-02
*ELEMENT, TYPE=SPRINGA, ELSET=WK_209
   22450,    19389,    25691
*SPRING, ELSET=WK_209

6.194139e-02
*ELEMENT, TYPE=SPRINGA, ELSET=WK_210
   22451,    19392,    25692
*SPRING, ELSET=WK_210

6.194139e-02
*ELEMENT, TYPE=SPRINGA, ELSET=WK_211
   22452,    19395,    25693
*SPRING, ELSET=WK_211

6.194139e-02
*ELEMENT, TYPE=SPRINGA, ELSET=WK_212
   22453,    19398,    25694
*SPRING, ELSET=WK_212

6.194139e-02
*ELEMENT, TYPE=SPRINGA, ELSET=WK_213
   22454,    19401,    25695
*SPRING, ELSET=WK_213

6.194139e-02
*ELEMENT, TYPE=SPRINGA, ELSET=WK_214
   22455,    19404,    25696
*SPRING, ELSET=WK_214

6.194139e-02
*ELEMENT, TYPE=SPRINGA, ELSET=WK_215
   22456,    19407,    25697
*SPRING, ELSET=WK_215

6.194139e-02
*ELEMENT, TYPE=SPRINGA, ELSET=WK_216
   22457,    19410,    25698
*SPRING, ELSET=WK_216

6.194139e-02
*ELEMENT, TYPE=SPRINGA, ELSET=WK_217
   22458,    19413,    25699
*SPRING, ELSET=WK_217

6.194139e-02
*ELEMENT, TYPE=SPRINGA, ELSET=WK_218
   22459,    19416,    25700
*SPRING, ELSET=WK_218

6.194139e-02
*ELEMENT, TYPE=SPRINGA, ELSET=WK_219
   22460,    19419,    25701
*SPRING, ELSET=WK_219

6.194139e-02
*ELEMENT, TYPE=SPRINGA, ELSET=WK_220
   22461,    19422,    25702
*SPRING, ELSET=WK_220

6.194139e-02
*ELEMENT, TYPE=SPRINGA, ELSET=WK_221
   22462,    19425,    25703
*SPRING, ELSET=WK_221

6.194139e-02
*ELEMENT, TYPE=SPRINGA, ELSET=WK_222
   22463,    19428,    25704
*SPRING, ELSET=WK_222

6.194139e-02
*ELEMENT, TYPE=SPRINGA, ELSET=WK_223
   22464,    19431,    25705
*SPRING, ELSET=WK_223

6.194139e-02
*ELEMENT, TYPE=SPRINGA, ELSET=WK_224
   22465,    19434,    25706
*SPRING, ELSET=WK_224

6.194139e-02
*ELEMENT, TYPE=SPRINGA, ELSET=WK_225
   22466,    19437,    25707
*SPRING, ELSET=WK_225

6.194139e-02
*ELEMENT, TYPE=SPRINGA, ELSET=WK_226
   22467,    19440,    25708
*SPRING, ELSET=WK_226

6.194139e-02
*ELEMENT, TYPE=SPRINGA, ELSET=WK_227
   22468,    19443,    25709
*SPRING, ELSET=WK_227

6.194139e-02
*ELEMENT, TYPE=SPRINGA, ELSET=WK_228
   22469,    19446,    25710
*SPRING, ELSET=WK_228

6.194139e-02
*ELEMENT, TYPE=SPRINGA, ELSET=WK_229
   22470,    19449,    25711
*SPRING, ELSET=WK_229

6.194139e-02
*ELEMENT, TYPE=SPRINGA, ELSET=WK_230
   22471,    19452,    25712
*SPRING, ELSET=WK_230

6.194139e-02
*ELEMENT, TYPE=SPRINGA, ELSET=WK_231
   22472,    19455,    25713
*SPRING, ELSET=WK_231

6.194139e-02
*ELEMENT, TYPE=SPRINGA, ELSET=WK_232
   22473,    19458,    25714
*SPRING, ELSET=WK_232

6.194139e-02
*ELEMENT, TYPE=SPRINGA, ELSET=WK_233
   22474,    19461,    25715
*SPRING, ELSET=WK_233

6.194139e-02
*ELEMENT, TYPE=SPRINGA, ELSET=WK_234
   22475,    19464,    25716
*SPRING, ELSET=WK_234

6.194139e-02
*ELEMENT, TYPE=SPRINGA, ELSET=WK_235
   22476,    19467,    25717
*SPRING, ELSET=WK_235

6.194139e-02
*ELEMENT, TYPE=SPRINGA, ELSET=WK_236
   22477,    19470,    25718
*SPRING, ELSET=WK_236

6.194139e-02
*ELEMENT, TYPE=SPRINGA, ELSET=WK_237
   22478,    19473,    25719
*SPRING, ELSET=WK_237

6.194139e-02
*ELEMENT, TYPE=SPRINGA, ELSET=WK_238
   22479,    19476,    25720
*SPRING, ELSET=WK_238

6.194139e-02
*ELEMENT, TYPE=SPRINGA, ELSET=WK_239
   22480,    19479,    25721
*SPRING, ELSET=WK_239

6.194139e-02
*ELEMENT, TYPE=SPRINGA, ELSET=WK_240
   22481,    19482,    25722
*SPRING, ELSET=WK_240

6.194139e-02
*ELEMENT, TYPE=SPRINGA, ELSET=WK_241
   22482,    19485,    25723
*SPRING, ELSET=WK_241

6.194139e-02
*ELEMENT, TYPE=SPRINGA, ELSET=WK_242
   22483,    19488,    25724
*SPRING, ELSET=WK_242

6.194139e-02
*ELEMENT, TYPE=SPRINGA, ELSET=WK_243
   22484,    19491,    25725
*SPRING, ELSET=WK_243

6.194139e-02
*ELEMENT, TYPE=SPRINGA, ELSET=WK_244
   22485,    19494,    25726
*SPRING, ELSET=WK_244

6.194139e-02
*ELEMENT, TYPE=SPRINGA, ELSET=WK_245
   22486,    19497,    25727
*SPRING, ELSET=WK_245

6.194139e-02
*ELEMENT, TYPE=SPRINGA, ELSET=WK_246
   22487,    19500,    25728
*SPRING, ELSET=WK_246

6.194139e-02
*ELEMENT, TYPE=SPRINGA, ELSET=WK_247
   22488,    19503,    25729
*SPRING, ELSET=WK_247

6.194139e-02
*ELEMENT, TYPE=SPRINGA, ELSET=WK_248
   22489,    19506,    25730
*SPRING, ELSET=WK_248

6.194139e-02
*ELEMENT, TYPE=SPRINGA, ELSET=WK_249
   22490,    19509,    25731
*SPRING, ELSET=WK_249

6.194139e-02
*ELEMENT, TYPE=SPRINGA, ELSET=WK_250
   22491,    19512,    25732
*SPRING, ELSET=WK_250

6.194139e-02
*ELEMENT, TYPE=SPRINGA, ELSET=WK_251
   22492,    19515,    25733
*SPRING, ELSET=WK_251

6.194139e-02
*ELEMENT, TYPE=SPRINGA, ELSET=WK_252
   22493,    19518,    25734
*SPRING, ELSET=WK_252

6.194139e-02
*ELEMENT, TYPE=SPRINGA, ELSET=WK_253
   22494,    19521,    25735
*SPRING, ELSET=WK_253

6.194139e-02
*ELEMENT, TYPE=SPRINGA, ELSET=WK_254
   22495,    19524,    25736
*SPRING, ELSET=WK_254

6.194139e-02
*ELEMENT, TYPE=SPRINGA, ELSET=WK_255
   22496,    19527,    25737
*SPRING, ELSET=WK_255

6.194139e-02
*ELEMENT, TYPE=SPRINGA, ELSET=WK_256
   22497,    19530,    25738
*SPRING, ELSET=WK_256

6.194139e-02
*ELEMENT, TYPE=SPRINGA, ELSET=WK_257
   22498,    19533,    25739
*SPRING, ELSET=WK_257

6.194139e-02
*ELEMENT, TYPE=SPRINGA, ELSET=WK_258
   22499,    19536,    25740
*SPRING, ELSET=WK_258

6.194139e-02
*ELEMENT, TYPE=SPRINGA, ELSET=WK_259
   22500,    19539,    25741
*SPRING, ELSET=WK_259

6.194139e-02
*ELEMENT, TYPE=SPRINGA, ELSET=WK_260
   22501,    19542,    25742
*SPRING, ELSET=WK_260

6.194139e-02
*ELEMENT, TYPE=SPRINGA, ELSET=WK_261
   22502,    19545,    25743
*SPRING, ELSET=WK_261

6.194139e-02
*ELEMENT, TYPE=SPRINGA, ELSET=WK_262
   22503,    19548,    25744
*SPRING, ELSET=WK_262

6.194139e-02
*ELEMENT, TYPE=SPRINGA, ELSET=WK_263
   22504,    19551,    25745
*SPRING, ELSET=WK_263

6.194139e-02
*ELEMENT, TYPE=SPRINGA, ELSET=WK_264
   22505,    19554,    25746
*SPRING, ELSET=WK_264

6.194139e-02
*ELEMENT, TYPE=SPRINGA, ELSET=WK_265
   22506,    19557,    25747
*SPRING, ELSET=WK_265

6.194139e-02
*ELEMENT, TYPE=SPRINGA, ELSET=WK_266
   22507,    19560,    25748
*SPRING, ELSET=WK_266

6.194139e-02
*ELEMENT, TYPE=SPRINGA, ELSET=WK_267
   22508,    19563,    25749
*SPRING, ELSET=WK_267

6.194139e-02
*ELEMENT, TYPE=SPRINGA, ELSET=WK_268
   22509,    19566,    25750
*SPRING, ELSET=WK_268

6.194139e-02
*ELEMENT, TYPE=SPRINGA, ELSET=WK_269
   22510,    19569,    25751
*SPRING, ELSET=WK_269

6.194139e-02
*ELEMENT, TYPE=SPRINGA, ELSET=WK_270
   22511,    19572,    25752
*SPRING, ELSET=WK_270

6.194139e-02
*ELEMENT, TYPE=SPRINGA, ELSET=WK_271
   22512,    19575,    25753
*SPRING, ELSET=WK_271

6.194139e-02
*ELEMENT, TYPE=SPRINGA, ELSET=WK_272
   22513,    19578,    25754
*SPRING, ELSET=WK_272

6.194139e-02
*ELEMENT, TYPE=SPRINGA, ELSET=WK_273
   22514,    19581,    25755
*SPRING, ELSET=WK_273

6.194139e-02
*ELEMENT, TYPE=SPRINGA, ELSET=WK_274
   22515,    19584,    25756
*SPRING, ELSET=WK_274

6.194139e-02
*ELEMENT, TYPE=SPRINGA, ELSET=WK_275
   22516,    19587,    25757
*SPRING, ELSET=WK_275

6.194139e-02
*ELEMENT, TYPE=SPRINGA, ELSET=WK_276
   22517,    19590,    25758
*SPRING, ELSET=WK_276

6.194139e-02
*ELEMENT, TYPE=SPRINGA, ELSET=WK_277
   22518,    19593,    25759
*SPRING, ELSET=WK_277

6.194139e-02
*ELEMENT, TYPE=SPRINGA, ELSET=WK_278
   22519,    19596,    25760
*SPRING, ELSET=WK_278

6.194139e-02
*ELEMENT, TYPE=SPRINGA, ELSET=WK_279
   22520,    19599,    25761
*SPRING, ELSET=WK_279

6.194139e-02
*ELEMENT, TYPE=SPRINGA, ELSET=WK_280
   22521,    19602,    25762
*SPRING, ELSET=WK_280

6.194139e-02
*ELEMENT, TYPE=SPRINGA, ELSET=WK_281
   22522,    19605,    25763
*SPRING, ELSET=WK_281

6.194139e-02
*ELEMENT, TYPE=SPRINGA, ELSET=WK_282
   22523,    19608,    25764
*SPRING, ELSET=WK_282

6.194139e-02
*ELEMENT, TYPE=SPRINGA, ELSET=WK_283
   22524,    19611,    25765
*SPRING, ELSET=WK_283

6.194139e-02
*ELEMENT, TYPE=SPRINGA, ELSET=WK_284
   22525,    19614,    25766
*SPRING, ELSET=WK_284

6.194139e-02
*ELEMENT, TYPE=SPRINGA, ELSET=WK_285
   22526,    19617,    25767
*SPRING, ELSET=WK_285

6.194139e-02
*ELEMENT, TYPE=SPRINGA, ELSET=WK_286
   22527,    19620,    25768
*SPRING, ELSET=WK_286

6.194139e-02
*ELEMENT, TYPE=SPRINGA, ELSET=WK_287
   22528,    19623,    25769
*SPRING, ELSET=WK_287

6.194139e-02
*ELEMENT, TYPE=SPRINGA, ELSET=WK_288
   22529,    19626,    25770
*SPRING, ELSET=WK_288

6.194139e-02
*ELEMENT, TYPE=SPRINGA, ELSET=WK_289
   22530,    19629,    25771
*SPRING, ELSET=WK_289

6.194139e-02
*ELEMENT, TYPE=SPRINGA, ELSET=WK_290
   22531,    19632,    25772
*SPRING, ELSET=WK_290

6.194139e-02
*ELEMENT, TYPE=SPRINGA, ELSET=WK_291
   22532,    19635,    25773
*SPRING, ELSET=WK_291

6.194139e-02
*ELEMENT, TYPE=SPRINGA, ELSET=WK_292
   22533,    19638,    25774
*SPRING, ELSET=WK_292

6.194139e-02
*ELEMENT, TYPE=SPRINGA, ELSET=WK_293
   22534,    19641,    25775
*SPRING, ELSET=WK_293

6.194139e-02
*ELEMENT, TYPE=SPRINGA, ELSET=WK_294
   22535,    19644,    25776
*SPRING, ELSET=WK_294

6.194139e-02
*ELEMENT, TYPE=SPRINGA, ELSET=WK_295
   22536,    19647,    25777
*SPRING, ELSET=WK_295

6.194139e-02
*ELEMENT, TYPE=SPRINGA, ELSET=WK_296
   22537,    19650,    25778
*SPRING, ELSET=WK_296

6.194139e-02
*ELEMENT, TYPE=SPRINGA, ELSET=WK_297
   22538,    19653,    25779
*SPRING, ELSET=WK_297

6.194139e-02
*ELEMENT, TYPE=SPRINGA, ELSET=WK_298
   22539,    19656,    25780
*SPRING, ELSET=WK_298

6.194139e-02
*ELEMENT, TYPE=SPRINGA, ELSET=WK_299
   22540,    19659,    25781
*SPRING, ELSET=WK_299

6.194139e-02
*ELEMENT, TYPE=SPRINGA, ELSET=WK_300
   22541,    19662,    25782
*SPRING, ELSET=WK_300

6.194139e-02
*ELEMENT, TYPE=SPRINGA, ELSET=WK_301
   22542,    19665,    25783
*SPRING, ELSET=WK_301

6.194139e-02
*ELEMENT, TYPE=SPRINGA, ELSET=WK_302
   22543,    19668,    25784
*SPRING, ELSET=WK_302

6.194139e-02
*ELEMENT, TYPE=SPRINGA, ELSET=WK_303
   22544,    19671,    25785
*SPRING, ELSET=WK_303

6.194139e-02
*ELEMENT, TYPE=SPRINGA, ELSET=WK_304
   22545,    19674,    25786
*SPRING, ELSET=WK_304

6.194139e-02
*ELEMENT, TYPE=SPRINGA, ELSET=WK_305
   22546,    19677,    25787
*SPRING, ELSET=WK_305

6.194139e-02
*ELEMENT, TYPE=SPRINGA, ELSET=WK_306
   22547,    19680,    25788
*SPRING, ELSET=WK_306

6.194139e-02
*ELEMENT, TYPE=SPRINGA, ELSET=WK_307
   22548,    19683,    25789
*SPRING, ELSET=WK_307

6.194139e-02
*ELEMENT, TYPE=SPRINGA, ELSET=WK_308
   22549,    19686,    25790
*SPRING, ELSET=WK_308

6.194139e-02
*ELEMENT, TYPE=SPRINGA, ELSET=WK_309
   22550,    19689,    25791
*SPRING, ELSET=WK_309

6.194139e-02
*ELEMENT, TYPE=SPRINGA, ELSET=WK_310
   22551,    19692,    25792
*SPRING, ELSET=WK_310

6.194139e-02
*ELEMENT, TYPE=SPRINGA, ELSET=WK_311
   22552,    19695,    25793
*SPRING, ELSET=WK_311

6.194139e-02
*ELEMENT, TYPE=SPRINGA, ELSET=WK_312
   22553,    19698,    25794
*SPRING, ELSET=WK_312

4.645604e-02
*ELEMENT, TYPE=SPRINGA, ELSET=WK_313
   22554,    19701,    25795
*SPRING, ELSET=WK_313

3.097070e-02
*ELEMENT, TYPE=SPRINGA, ELSET=WK_314
   22555,    19704,    25796
*SPRING, ELSET=WK_314

4.645604e-02
*ELEMENT, TYPE=SPRINGA, ELSET=WK_315
   22556,    19707,    25797
*SPRING, ELSET=WK_315

6.194139e-02
*ELEMENT, TYPE=SPRINGA, ELSET=WK_316
   22557,    19710,    25798
*SPRING, ELSET=WK_316

6.194139e-02
*ELEMENT, TYPE=SPRINGA, ELSET=WK_317
   22558,    19713,    25799
*SPRING, ELSET=WK_317

6.194139e-02
*ELEMENT, TYPE=SPRINGA, ELSET=WK_318
   22559,    19716,    25800
*SPRING, ELSET=WK_318

6.194139e-02
*ELEMENT, TYPE=SPRINGA, ELSET=WK_319
   22560,    19719,    25801
*SPRING, ELSET=WK_319

6.194139e-02
*ELEMENT, TYPE=SPRINGA, ELSET=WK_320
   22561,    19722,    25802
*SPRING, ELSET=WK_320

6.194139e-02
*ELEMENT, TYPE=SPRINGA, ELSET=WK_321
   22562,    19725,    25803
*SPRING, ELSET=WK_321

6.194139e-02
*ELEMENT, TYPE=SPRINGA, ELSET=WK_322
   22563,    19728,    25804
*SPRING, ELSET=WK_322

6.194139e-02
*ELEMENT, TYPE=SPRINGA, ELSET=WK_323
   22564,    19731,    25805
*SPRING, ELSET=WK_323

4.645604e-02
*ELEMENT, TYPE=SPRINGA, ELSET=WK_324
   22565,    19734,    25806
*SPRING, ELSET=WK_324

3.097070e-02
*ELEMENT, TYPE=SPRINGA, ELSET=WK_325
   22566,    19737,    25807
*SPRING, ELSET=WK_325

4.645604e-02
*ELEMENT, TYPE=SPRINGA, ELSET=WK_326
   22567,    19740,    25808
*SPRING, ELSET=WK_326

6.194139e-02
*ELEMENT, TYPE=SPRINGA, ELSET=WK_327
   22568,    19743,    25809
*SPRING, ELSET=WK_327

6.194139e-02
*ELEMENT, TYPE=SPRINGA, ELSET=WK_328
   22569,    19746,    25810
*SPRING, ELSET=WK_328

6.194139e-02
*ELEMENT, TYPE=SPRINGA, ELSET=WK_329
   22570,    19749,    25811
*SPRING, ELSET=WK_329

6.194139e-02
*ELEMENT, TYPE=SPRINGA, ELSET=WK_330
   22571,    19752,    25812
*SPRING, ELSET=WK_330

6.194139e-02
*ELEMENT, TYPE=SPRINGA, ELSET=WK_331
   22572,    19755,    25813
*SPRING, ELSET=WK_331

6.194139e-02
*ELEMENT, TYPE=SPRINGA, ELSET=WK_332
   22573,    19758,    25814
*SPRING, ELSET=WK_332

6.194139e-02
*ELEMENT, TYPE=SPRINGA, ELSET=WK_333
   22574,    19761,    25815
*SPRING, ELSET=WK_333

6.194139e-02
*ELEMENT, TYPE=SPRINGA, ELSET=WK_334
   22575,    19764,    25816
*SPRING, ELSET=WK_334

6.194139e-02
*ELEMENT, TYPE=SPRINGA, ELSET=WK_335
   22576,    19767,    25817
*SPRING, ELSET=WK_335

6.194139e-02
*ELEMENT, TYPE=SPRINGA, ELSET=WK_336
   22577,    19770,    25818
*SPRING, ELSET=WK_336

6.194139e-02
*ELEMENT, TYPE=SPRINGA, ELSET=WK_337
   22578,    19773,    25819
*SPRING, ELSET=WK_337

6.194139e-02
*ELEMENT, TYPE=SPRINGA, ELSET=WK_338
   22579,    19776,    25820
*SPRING, ELSET=WK_338

6.194139e-02
*ELEMENT, TYPE=SPRINGA, ELSET=WK_339
   22580,    19779,    25821
*SPRING, ELSET=WK_339

6.194139e-02
*ELEMENT, TYPE=SPRINGA, ELSET=WK_340
   22581,    19782,    25822
*SPRING, ELSET=WK_340

6.194139e-02
*ELEMENT, TYPE=SPRINGA, ELSET=WK_341
   22582,    19785,    25823
*SPRING, ELSET=WK_341

6.194139e-02
*ELEMENT, TYPE=SPRINGA, ELSET=WK_342
   22583,    19788,    25824
*SPRING, ELSET=WK_342

6.194139e-02
*ELEMENT, TYPE=SPRINGA, ELSET=WK_343
   22584,    19791,    25825
*SPRING, ELSET=WK_343

6.194139e-02
*ELEMENT, TYPE=SPRINGA, ELSET=WK_344
   22585,    19794,    25826
*SPRING, ELSET=WK_344

6.194139e-02
*ELEMENT, TYPE=SPRINGA, ELSET=WK_345
   22586,    19797,    25827
*SPRING, ELSET=WK_345

6.194139e-02
*ELEMENT, TYPE=SPRINGA, ELSET=WK_346
   22587,    19800,    25828
*SPRING, ELSET=WK_346

6.194139e-02
*ELEMENT, TYPE=SPRINGA, ELSET=WK_347
   22588,    19803,    25829
*SPRING, ELSET=WK_347

6.194139e-02
*ELEMENT, TYPE=SPRINGA, ELSET=WK_348
   22589,    19806,    25830
*SPRING, ELSET=WK_348

6.194139e-02
*ELEMENT, TYPE=SPRINGA, ELSET=WK_349
   22590,    19809,    25831
*SPRING, ELSET=WK_349

6.194139e-02
*ELEMENT, TYPE=SPRINGA, ELSET=WK_350
   22591,    19812,    25832
*SPRING, ELSET=WK_350

6.194139e-02
*ELEMENT, TYPE=SPRINGA, ELSET=WK_351
   22592,    19815,    25833
*SPRING, ELSET=WK_351

6.194139e-02
*ELEMENT, TYPE=SPRINGA, ELSET=WK_352
   22593,    19818,    25834
*SPRING, ELSET=WK_352

6.194139e-02
*ELEMENT, TYPE=SPRINGA, ELSET=WK_353
   22594,    19821,    25835
*SPRING, ELSET=WK_353

6.194139e-02
*ELEMENT, TYPE=SPRINGA, ELSET=WK_354
   22595,    19824,    25836
*SPRING, ELSET=WK_354

6.194139e-02
*ELEMENT, TYPE=SPRINGA, ELSET=WK_355
   22596,    19827,    25837
*SPRING, ELSET=WK_355

6.194139e-02
*ELEMENT, TYPE=SPRINGA, ELSET=WK_356
   22597,    19830,    25838
*SPRING, ELSET=WK_356

6.194139e-02
*ELEMENT, TYPE=SPRINGA, ELSET=WK_357
   22598,    19833,    25839
*SPRING, ELSET=WK_357

6.194139e-02
*ELEMENT, TYPE=SPRINGA, ELSET=WK_358
   22599,    19836,    25840
*SPRING, ELSET=WK_358

6.194139e-02
*ELEMENT, TYPE=SPRINGA, ELSET=WK_359
   22600,    19839,    25841
*SPRING, ELSET=WK_359

6.194139e-02
*ELEMENT, TYPE=SPRINGA, ELSET=WK_360
   22601,    19842,    25842
*SPRING, ELSET=WK_360

6.194139e-02
*ELEMENT, TYPE=SPRINGA, ELSET=WK_361
   22602,    19845,    25843
*SPRING, ELSET=WK_361

6.194139e-02
*ELEMENT, TYPE=SPRINGA, ELSET=WK_362
   22603,    19848,    25844
*SPRING, ELSET=WK_362

6.194139e-02
*ELEMENT, TYPE=SPRINGA, ELSET=WK_363
   22604,    19851,    25845
*SPRING, ELSET=WK_363

6.194139e-02
*ELEMENT, TYPE=SPRINGA, ELSET=WK_364
   22605,    19854,    25846
*SPRING, ELSET=WK_364

6.194139e-02
*ELEMENT, TYPE=SPRINGA, ELSET=WK_365
   22606,    19857,    25847
*SPRING, ELSET=WK_365

6.194139e-02
*ELEMENT, TYPE=SPRINGA, ELSET=WK_366
   22607,    19860,    25848
*SPRING, ELSET=WK_366

6.194139e-02
*ELEMENT, TYPE=SPRINGA, ELSET=WK_367
   22608,    19863,    25849
*SPRING, ELSET=WK_367

6.194139e-02
*ELEMENT, TYPE=SPRINGA, ELSET=WK_368
   22609,    19866,    25850
*SPRING, ELSET=WK_368

6.194139e-02
*ELEMENT, TYPE=SPRINGA, ELSET=WK_369
   22610,    19869,    25851
*SPRING, ELSET=WK_369

6.194139e-02
*ELEMENT, TYPE=SPRINGA, ELSET=WK_370
   22611,    19872,    25852
*SPRING, ELSET=WK_370

6.194139e-02
*ELEMENT, TYPE=SPRINGA, ELSET=WK_371
   22612,    19875,    25853
*SPRING, ELSET=WK_371

6.194139e-02
*ELEMENT, TYPE=SPRINGA, ELSET=WK_372
   22613,    19878,    25854
*SPRING, ELSET=WK_372

6.194139e-02
*ELEMENT, TYPE=SPRINGA, ELSET=WK_373
   22614,    19881,    25855
*SPRING, ELSET=WK_373

6.194139e-02
*ELEMENT, TYPE=SPRINGA, ELSET=WK_374
   22615,    19884,    25856
*SPRING, ELSET=WK_374

6.194139e-02
*ELEMENT, TYPE=SPRINGA, ELSET=WK_375
   22616,    19887,    25857
*SPRING, ELSET=WK_375

6.194139e-02
*ELEMENT, TYPE=SPRINGA, ELSET=WK_376
   22617,    19890,    25858
*SPRING, ELSET=WK_376

6.194139e-02
*ELEMENT, TYPE=SPRINGA, ELSET=WK_377
   22618,    19893,    25859
*SPRING, ELSET=WK_377

6.194139e-02
*ELEMENT, TYPE=SPRINGA, ELSET=WK_378
   22619,    19896,    25860
*SPRING, ELSET=WK_378

6.194139e-02
*ELEMENT, TYPE=SPRINGA, ELSET=WK_379
   22620,    19899,    25861
*SPRING, ELSET=WK_379

6.194139e-02
*ELEMENT, TYPE=SPRINGA, ELSET=WK_380
   22621,    19902,    25862
*SPRING, ELSET=WK_380

6.194139e-02
*ELEMENT, TYPE=SPRINGA, ELSET=WK_381
   22622,    19905,    25863
*SPRING, ELSET=WK_381

6.194139e-02
*ELEMENT, TYPE=SPRINGA, ELSET=WK_382
   22623,    19908,    25864
*SPRING, ELSET=WK_382

6.194139e-02
*ELEMENT, TYPE=SPRINGA, ELSET=WK_383
   22624,    19911,    25865
*SPRING, ELSET=WK_383

6.194139e-02
*ELEMENT, TYPE=SPRINGA, ELSET=WK_384
   22625,    19914,    25866
*SPRING, ELSET=WK_384

6.194139e-02
*ELEMENT, TYPE=SPRINGA, ELSET=WK_385
   22626,    19917,    25867
*SPRING, ELSET=WK_385

6.194139e-02
*ELEMENT, TYPE=SPRINGA, ELSET=WK_386
   22627,    19920,    25868
*SPRING, ELSET=WK_386

6.194139e-02
*ELEMENT, TYPE=SPRINGA, ELSET=WK_387
   22628,    19923,    25869
*SPRING, ELSET=WK_387

6.194139e-02
*ELEMENT, TYPE=SPRINGA, ELSET=WK_388
   22629,    19926,    25870
*SPRING, ELSET=WK_388

6.194139e-02
*ELEMENT, TYPE=SPRINGA, ELSET=WK_389
   22630,    19929,    25871
*SPRING, ELSET=WK_389

6.194139e-02
*ELEMENT, TYPE=SPRINGA, ELSET=WK_390
   22631,    19932,    25872
*SPRING, ELSET=WK_390

6.194139e-02
*ELEMENT, TYPE=SPRINGA, ELSET=WK_391
   22632,    19935,    25873
*SPRING, ELSET=WK_391

6.194139e-02
*ELEMENT, TYPE=SPRINGA, ELSET=WK_392
   22633,    19938,    25874
*SPRING, ELSET=WK_392

6.194139e-02
*ELEMENT, TYPE=SPRINGA, ELSET=WK_393
   22634,    19941,    25875
*SPRING, ELSET=WK_393

6.194139e-02
*ELEMENT, TYPE=SPRINGA, ELSET=WK_394
   22635,    19944,    25876
*SPRING, ELSET=WK_394

6.194139e-02
*ELEMENT, TYPE=SPRINGA, ELSET=WK_395
   22636,    19947,    25877
*SPRING, ELSET=WK_395

6.194139e-02
*ELEMENT, TYPE=SPRINGA, ELSET=WK_396
   22637,    19950,    25878
*SPRING, ELSET=WK_396

6.194139e-02
*ELEMENT, TYPE=SPRINGA, ELSET=WK_397
   22638,    19953,    25879
*SPRING, ELSET=WK_397

6.194139e-02
*ELEMENT, TYPE=SPRINGA, ELSET=WK_398
   22639,    19956,    25880
*SPRING, ELSET=WK_398

6.194139e-02
*ELEMENT, TYPE=SPRINGA, ELSET=WK_399
   22640,    19959,    25881
*SPRING, ELSET=WK_399

6.194139e-02
*ELEMENT, TYPE=SPRINGA, ELSET=WK_400
   22641,    19962,    25882
*SPRING, ELSET=WK_400

6.194139e-02
*ELEMENT, TYPE=SPRINGA, ELSET=WK_401
   22642,    19965,    25883
*SPRING, ELSET=WK_401

6.194139e-02
*ELEMENT, TYPE=SPRINGA, ELSET=WK_402
   22643,    19968,    25884
*SPRING, ELSET=WK_402

6.194139e-02
*ELEMENT, TYPE=SPRINGA, ELSET=WK_403
   22644,    19971,    25885
*SPRING, ELSET=WK_403

6.194139e-02
*ELEMENT, TYPE=SPRINGA, ELSET=WK_404
   22645,    19974,    25886
*SPRING, ELSET=WK_404

6.194139e-02
*ELEMENT, TYPE=SPRINGA, ELSET=WK_405
   22646,    19977,    25887
*SPRING, ELSET=WK_405

6.194139e-02
*ELEMENT, TYPE=SPRINGA, ELSET=WK_406
   22647,    19980,    25888
*SPRING, ELSET=WK_406

6.194139e-02
*ELEMENT, TYPE=SPRINGA, ELSET=WK_407
   22648,    19983,    25889
*SPRING, ELSET=WK_407

6.194139e-02
*ELEMENT, TYPE=SPRINGA, ELSET=WK_408
   22649,    19986,    25890
*SPRING, ELSET=WK_408

6.194139e-02
*ELEMENT, TYPE=SPRINGA, ELSET=WK_409
   22650,    19989,    25891
*SPRING, ELSET=WK_409

6.194139e-02
*ELEMENT, TYPE=SPRINGA, ELSET=WK_410
   22651,    19992,    25892
*SPRING, ELSET=WK_410

6.194139e-02
*ELEMENT, TYPE=SPRINGA, ELSET=WK_411
   22652,    19995,    25893
*SPRING, ELSET=WK_411

6.194139e-02
*ELEMENT, TYPE=SPRINGA, ELSET=WK_412
   22653,    19998,    25894
*SPRING, ELSET=WK_412

6.194139e-02
*ELEMENT, TYPE=SPRINGA, ELSET=WK_413
   22654,    20001,    25895
*SPRING, ELSET=WK_413

6.194139e-02
*ELEMENT, TYPE=SPRINGA, ELSET=WK_414
   22655,    20004,    25896
*SPRING, ELSET=WK_414

6.194139e-02
*ELEMENT, TYPE=SPRINGA, ELSET=WK_415
   22656,    20007,    25897
*SPRING, ELSET=WK_415

6.194139e-02
*ELEMENT, TYPE=SPRINGA, ELSET=WK_416
   22657,    20010,    25898
*SPRING, ELSET=WK_416

6.194139e-02
*ELEMENT, TYPE=SPRINGA, ELSET=WK_417
   22658,    20013,    25899
*SPRING, ELSET=WK_417

6.194139e-02
*ELEMENT, TYPE=SPRINGA, ELSET=WK_418
   22659,    20016,    25900
*SPRING, ELSET=WK_418

3.097070e-02
*ELEMENT, TYPE=SPRINGA, ELSET=WK_419
   22660,    20019,    25901
*SPRING, ELSET=WK_419

3.097070e-02
*ELEMENT, TYPE=SPRINGA, ELSET=WK_420
   22661,    20022,    25902
*SPRING, ELSET=WK_420

3.097070e-02
*ELEMENT, TYPE=SPRINGA, ELSET=WK_421
   22662,    20025,    25903
*SPRING, ELSET=WK_421

3.097070e-02
*ELEMENT, TYPE=SPRINGA, ELSET=WK_422
   22663,    20028,    25904
*SPRING, ELSET=WK_422

3.097070e-02
*ELEMENT, TYPE=SPRINGA, ELSET=WK_423
   22664,    20031,    25905
*SPRING, ELSET=WK_423

3.097070e-02
*ELEMENT, TYPE=SPRINGA, ELSET=WK_424
   22665,    20034,    25906
*SPRING, ELSET=WK_424

3.097070e-02
*ELEMENT, TYPE=SPRINGA, ELSET=WK_425
   22666,    20037,    25907
*SPRING, ELSET=WK_425

3.097070e-02
*ELEMENT, TYPE=SPRINGA, ELSET=WK_426
   22667,    20040,    25908
*SPRING, ELSET=WK_426

3.097070e-02
*ELEMENT, TYPE=SPRINGA, ELSET=WK_427
   22668,    20043,    25909
*SPRING, ELSET=WK_427

3.097070e-02
*ELEMENT, TYPE=SPRINGA, ELSET=WK_428
   22669,    20046,    25910
*SPRING, ELSET=WK_428

3.097070e-02
*ELEMENT, TYPE=SPRINGA, ELSET=WK_429
   22670,    20049,    25911
*SPRING, ELSET=WK_429

3.097070e-02
*ELEMENT, TYPE=SPRINGA, ELSET=WK_430
   22671,    20052,    25912
*SPRING, ELSET=WK_430

3.097070e-02
*ELEMENT, TYPE=SPRINGA, ELSET=WK_431
   22672,    20055,    25913
*SPRING, ELSET=WK_431

3.097070e-02
*ELEMENT, TYPE=SPRINGA, ELSET=WK_432
   22673,    20058,    25914
*SPRING, ELSET=WK_432

3.097070e-02
*ELEMENT, TYPE=SPRINGA, ELSET=WK_433
   22674,    20061,    25915
*SPRING, ELSET=WK_433

3.097070e-02
*ELEMENT, TYPE=SPRINGA, ELSET=WK_434
   22675,    20064,    25916
*SPRING, ELSET=WK_434

3.097070e-02
*ELEMENT, TYPE=SPRINGA, ELSET=WK_435
   22676,    20067,    25917
*SPRING, ELSET=WK_435

3.097070e-02
*ELEMENT, TYPE=SPRINGA, ELSET=WK_436
   22677,    20070,    25918
*SPRING, ELSET=WK_436

3.097070e-02
*ELEMENT, TYPE=SPRINGA, ELSET=WK_437
   22678,    20073,    25919
*SPRING, ELSET=WK_437

3.097070e-02
*ELEMENT, TYPE=SPRINGA, ELSET=WK_438
   22679,    20076,    25920
*SPRING, ELSET=WK_438

3.097070e-02
*ELEMENT, TYPE=SPRINGA, ELSET=WK_439
   22680,    20079,    25921
*SPRING, ELSET=WK_439

6.194139e-02
*ELEMENT, TYPE=SPRINGA, ELSET=WK_440
   22681,    20082,    25922
*SPRING, ELSET=WK_440

6.194139e-02
*ELEMENT, TYPE=SPRINGA, ELSET=WK_441
   22682,    20085,    25923
*SPRING, ELSET=WK_441

6.194139e-02
*ELEMENT, TYPE=SPRINGA, ELSET=WK_442
   22683,    20088,    25924
*SPRING, ELSET=WK_442

6.194139e-02
*ELEMENT, TYPE=SPRINGA, ELSET=WK_443
   22684,    20091,    25925
*SPRING, ELSET=WK_443

6.194139e-02
*ELEMENT, TYPE=SPRINGA, ELSET=WK_444
   22685,    20094,    25926
*SPRING, ELSET=WK_444

6.194139e-02
*ELEMENT, TYPE=SPRINGA, ELSET=WK_445
   22686,    20097,    25927
*SPRING, ELSET=WK_445

6.194139e-02
*ELEMENT, TYPE=SPRINGA, ELSET=WK_446
   22687,    20100,    25928
*SPRING, ELSET=WK_446

6.194139e-02
*ELEMENT, TYPE=SPRINGA, ELSET=WK_447
   22688,    20103,    25929
*SPRING, ELSET=WK_447

6.194139e-02
*ELEMENT, TYPE=SPRINGA, ELSET=WK_448
   22689,    20106,    25930
*SPRING, ELSET=WK_448

6.194139e-02
*ELEMENT, TYPE=SPRINGA, ELSET=WK_449
   22690,    20109,    25931
*SPRING, ELSET=WK_449

6.194139e-02
*ELEMENT, TYPE=SPRINGA, ELSET=WK_450
   22691,    20112,    25932
*SPRING, ELSET=WK_450

6.194139e-02
*ELEMENT, TYPE=SPRINGA, ELSET=WK_451
   22692,    20115,    25933
*SPRING, ELSET=WK_451

6.194139e-02
*ELEMENT, TYPE=SPRINGA, ELSET=WK_452
   22693,    20118,    25934
*SPRING, ELSET=WK_452

6.194139e-02
*ELEMENT, TYPE=SPRINGA, ELSET=WK_453
   22694,    20121,    25935
*SPRING, ELSET=WK_453

6.194139e-02
*ELEMENT, TYPE=SPRINGA, ELSET=WK_454
   22695,    20124,    25936
*SPRING, ELSET=WK_454

6.194139e-02
*ELEMENT, TYPE=SPRINGA, ELSET=WK_455
   22696,    20127,    25937
*SPRING, ELSET=WK_455

6.194139e-02
*ELEMENT, TYPE=SPRINGA, ELSET=WK_456
   22697,    20130,    25938
*SPRING, ELSET=WK_456

6.194139e-02
*ELEMENT, TYPE=SPRINGA, ELSET=WK_457
   22698,    20133,    25939
*SPRING, ELSET=WK_457

6.194139e-02
*ELEMENT, TYPE=SPRINGA, ELSET=WK_458
   22699,    20136,    25940
*SPRING, ELSET=WK_458

6.194139e-02
*ELEMENT, TYPE=SPRINGA, ELSET=WK_459
   22700,    20139,    25941
*SPRING, ELSET=WK_459

6.194139e-02
*ELEMENT, TYPE=SPRINGA, ELSET=WK_460
   22701,    20142,    25942
*SPRING, ELSET=WK_460

6.194139e-02
*ELEMENT, TYPE=SPRINGA, ELSET=WK_461
   22702,    20145,    25943
*SPRING, ELSET=WK_461

6.194139e-02
*ELEMENT, TYPE=SPRINGA, ELSET=WK_462
   22703,    20148,    25944
*SPRING, ELSET=WK_462

6.194139e-02
*ELEMENT, TYPE=SPRINGA, ELSET=WK_463
   22704,    20151,    25945
*SPRING, ELSET=WK_463

6.194139e-02
*ELEMENT, TYPE=SPRINGA, ELSET=WK_464
   22705,    20154,    25946
*SPRING, ELSET=WK_464

6.194139e-02
*ELEMENT, TYPE=SPRINGA, ELSET=WK_465
   22706,    20157,    25947
*SPRING, ELSET=WK_465

6.194139e-02
*ELEMENT, TYPE=SPRINGA, ELSET=WK_466
   22707,    20160,    25948
*SPRING, ELSET=WK_466

6.194139e-02
*ELEMENT, TYPE=SPRINGA, ELSET=WK_467
   22708,    20163,    25949
*SPRING, ELSET=WK_467

6.194139e-02
*ELEMENT, TYPE=SPRINGA, ELSET=WK_468
   22709,    20166,    25950
*SPRING, ELSET=WK_468

6.194139e-02
*ELEMENT, TYPE=SPRINGA, ELSET=WK_469
   22710,    20169,    25951
*SPRING, ELSET=WK_469

6.194139e-02
*ELEMENT, TYPE=SPRINGA, ELSET=WK_470
   22711,    20172,    25952
*SPRING, ELSET=WK_470

6.194139e-02
*ELEMENT, TYPE=SPRINGA, ELSET=WK_471
   22712,    20175,    25953
*SPRING, ELSET=WK_471

6.194139e-02
*ELEMENT, TYPE=SPRINGA, ELSET=WK_472
   22713,    20178,    25954
*SPRING, ELSET=WK_472

6.194139e-02
*ELEMENT, TYPE=SPRINGA, ELSET=WK_473
   22714,    20181,    25955
*SPRING, ELSET=WK_473

6.194139e-02
*ELEMENT, TYPE=SPRINGA, ELSET=WK_474
   22715,    20184,    25956
*SPRING, ELSET=WK_474

6.194139e-02
*ELEMENT, TYPE=SPRINGA, ELSET=WK_475
   22716,    20187,    25957
*SPRING, ELSET=WK_475

6.194139e-02
*ELEMENT, TYPE=SPRINGA, ELSET=WK_476
   22717,    20190,    25958
*SPRING, ELSET=WK_476

6.194139e-02
*ELEMENT, TYPE=SPRINGA, ELSET=WK_477
   22718,    20193,    25959
*SPRING, ELSET=WK_477

6.194139e-02
*ELEMENT, TYPE=SPRINGA, ELSET=WK_478
   22719,    20196,    25960
*SPRING, ELSET=WK_478

6.194139e-02
*ELEMENT, TYPE=SPRINGA, ELSET=WK_479
   22720,    20199,    25961
*SPRING, ELSET=WK_479

6.194139e-02
*ELEMENT, TYPE=SPRINGA, ELSET=WK_480
   22721,    20202,    25962
*SPRING, ELSET=WK_480

6.194139e-02
*ELEMENT, TYPE=SPRINGA, ELSET=WK_481
   22722,    20205,    25963
*SPRING, ELSET=WK_481

6.194139e-02
*ELEMENT, TYPE=SPRINGA, ELSET=WK_482
   22723,    20208,    25964
*SPRING, ELSET=WK_482

6.194139e-02
*ELEMENT, TYPE=SPRINGA, ELSET=WK_483
   22724,    20211,    25965
*SPRING, ELSET=WK_483

6.194139e-02
*ELEMENT, TYPE=SPRINGA, ELSET=WK_484
   22725,    20214,    25966
*SPRING, ELSET=WK_484

6.194139e-02
*ELEMENT, TYPE=SPRINGA, ELSET=WK_485
   22726,    20217,    25967
*SPRING, ELSET=WK_485

6.194139e-02
*ELEMENT, TYPE=SPRINGA, ELSET=WK_486
   22727,    20220,    25968
*SPRING, ELSET=WK_486

6.194139e-02
*ELEMENT, TYPE=SPRINGA, ELSET=WK_487
   22728,    20223,    25969
*SPRING, ELSET=WK_487

6.194139e-02
*ELEMENT, TYPE=SPRINGA, ELSET=WK_488
   22729,    20226,    25970
*SPRING, ELSET=WK_488

6.194139e-02
*ELEMENT, TYPE=SPRINGA, ELSET=WK_489
   22730,    20229,    25971
*SPRING, ELSET=WK_489

6.194139e-02
*ELEMENT, TYPE=SPRINGA, ELSET=WK_490
   22731,    20232,    25972
*SPRING, ELSET=WK_490

6.194139e-02
*ELEMENT, TYPE=SPRINGA, ELSET=WK_491
   22732,    20235,    25973
*SPRING, ELSET=WK_491

6.194139e-02
*ELEMENT, TYPE=SPRINGA, ELSET=WK_492
   22733,    20238,    25974
*SPRING, ELSET=WK_492

6.194139e-02
*ELEMENT, TYPE=SPRINGA, ELSET=WK_493
   22734,    20241,    25975
*SPRING, ELSET=WK_493

6.194139e-02
*ELEMENT, TYPE=SPRINGA, ELSET=WK_494
   22735,    20244,    25976
*SPRING, ELSET=WK_494

6.194139e-02
*ELEMENT, TYPE=SPRINGA, ELSET=WK_495
   22736,    20247,    25977
*SPRING, ELSET=WK_495

6.194139e-02
*ELEMENT, TYPE=SPRINGA, ELSET=WK_496
   22737,    20250,    25978
*SPRING, ELSET=WK_496

6.194139e-02
*ELEMENT, TYPE=SPRINGA, ELSET=WK_497
   22738,    20253,    25979
*SPRING, ELSET=WK_497

6.194139e-02
*ELEMENT, TYPE=SPRINGA, ELSET=WK_498
   22739,    20256,    25980
*SPRING, ELSET=WK_498

6.194139e-02
*ELEMENT, TYPE=SPRINGA, ELSET=WK_499
   22740,    20259,    25981
*SPRING, ELSET=WK_499

6.194139e-02
*ELEMENT, TYPE=SPRINGA, ELSET=WK_500
   22741,    20262,    25982
*SPRING, ELSET=WK_500

6.194139e-02
*ELEMENT, TYPE=SPRINGA, ELSET=WK_501
   22742,    20265,    25983
*SPRING, ELSET=WK_501

6.194139e-02
*ELEMENT, TYPE=SPRINGA, ELSET=WK_502
   22743,    20268,    25984
*SPRING, ELSET=WK_502

6.194139e-02
*ELEMENT, TYPE=SPRINGA, ELSET=WK_503
   22744,    20271,    25985
*SPRING, ELSET=WK_503

6.194139e-02
*ELEMENT, TYPE=SPRINGA, ELSET=WK_504
   22745,    20274,    25986
*SPRING, ELSET=WK_504

6.194139e-02
*ELEMENT, TYPE=SPRINGA, ELSET=WK_505
   22746,    20277,    25987
*SPRING, ELSET=WK_505

6.194139e-02
*ELEMENT, TYPE=SPRINGA, ELSET=WK_506
   22747,    20280,    25988
*SPRING, ELSET=WK_506

6.194139e-02
*ELEMENT, TYPE=SPRINGA, ELSET=WK_507
   22748,    20283,    25989
*SPRING, ELSET=WK_507

6.194139e-02
*ELEMENT, TYPE=SPRINGA, ELSET=WK_508
   22749,    20286,    25990
*SPRING, ELSET=WK_508

6.194139e-02
*ELEMENT, TYPE=SPRINGA, ELSET=WK_509
   22750,    20289,    25991
*SPRING, ELSET=WK_509

6.194139e-02
*ELEMENT, TYPE=SPRINGA, ELSET=WK_510
   22751,    20292,    25992
*SPRING, ELSET=WK_510

6.194139e-02
*ELEMENT, TYPE=SPRINGA, ELSET=WK_511
   22752,    20295,    25993
*SPRING, ELSET=WK_511

6.194139e-02
*ELEMENT, TYPE=SPRINGA, ELSET=WK_512
   22753,    20298,    25994
*SPRING, ELSET=WK_512

6.194139e-02
*ELEMENT, TYPE=SPRINGA, ELSET=WK_513
   22754,    20301,    25995
*SPRING, ELSET=WK_513

6.194139e-02
*ELEMENT, TYPE=SPRINGA, ELSET=WK_514
   22755,    20304,    25996
*SPRING, ELSET=WK_514

6.194139e-02
*ELEMENT, TYPE=SPRINGA, ELSET=WK_515
   22756,    20307,    25997
*SPRING, ELSET=WK_515

6.194139e-02
*ELEMENT, TYPE=SPRINGA, ELSET=WK_516
   22757,    20310,    25998
*SPRING, ELSET=WK_516

6.194139e-02
*ELEMENT, TYPE=SPRINGA, ELSET=WK_517
   22758,    20313,    25999
*SPRING, ELSET=WK_517

6.194139e-02
*ELEMENT, TYPE=SPRINGA, ELSET=WK_518
   22759,    20316,    26000
*SPRING, ELSET=WK_518

6.194139e-02
*ELEMENT, TYPE=SPRINGA, ELSET=WK_519
   22760,    20319,    26001
*SPRING, ELSET=WK_519

6.194139e-02
*ELEMENT, TYPE=SPRINGA, ELSET=WK_520
   22761,    20322,    26002
*SPRING, ELSET=WK_520

6.194139e-02
*ELEMENT, TYPE=SPRINGA, ELSET=WK_521
   22762,    20325,    26003
*SPRING, ELSET=WK_521

6.194139e-02
*ELEMENT, TYPE=SPRINGA, ELSET=WK_522
   22763,    20328,    26004
*SPRING, ELSET=WK_522

6.194139e-02
*ELEMENT, TYPE=SPRINGA, ELSET=WK_523
   22764,    20331,    26005
*SPRING, ELSET=WK_523

6.194139e-02
*ELEMENT, TYPE=SPRINGA, ELSET=WK_524
   22765,    20334,    26006
*SPRING, ELSET=WK_524

6.194139e-02
*ELEMENT, TYPE=SPRINGA, ELSET=WK_525
   22766,    20337,    26007
*SPRING, ELSET=WK_525

6.194139e-02
*ELEMENT, TYPE=SPRINGA, ELSET=WK_526
   22767,    20340,    26008
*SPRING, ELSET=WK_526

6.194139e-02
*ELEMENT, TYPE=SPRINGA, ELSET=WK_527
   22768,    20343,    26009
*SPRING, ELSET=WK_527

6.194139e-02
*ELEMENT, TYPE=SPRINGA, ELSET=WK_528
   22769,    20346,    26010
*SPRING, ELSET=WK_528

6.194139e-02
*ELEMENT, TYPE=SPRINGA, ELSET=WK_529
   22770,    20349,    26011
*SPRING, ELSET=WK_529

6.194139e-02
*ELEMENT, TYPE=SPRINGA, ELSET=WK_530
   22771,    20352,    26012
*SPRING, ELSET=WK_530

6.194139e-02
*ELEMENT, TYPE=SPRINGA, ELSET=WK_531
   22772,    20355,    26013
*SPRING, ELSET=WK_531

6.194139e-02
*ELEMENT, TYPE=SPRINGA, ELSET=WK_532
   22773,    20358,    26014
*SPRING, ELSET=WK_532

6.194139e-02
*ELEMENT, TYPE=SPRINGA, ELSET=WK_533
   22774,    20361,    26015
*SPRING, ELSET=WK_533

6.194139e-02
*ELEMENT, TYPE=SPRINGA, ELSET=WK_534
   22775,    20364,    26016
*SPRING, ELSET=WK_534

6.194139e-02
*ELEMENT, TYPE=SPRINGA, ELSET=WK_535
   22776,    20367,    26017
*SPRING, ELSET=WK_535

6.194139e-02
*ELEMENT, TYPE=SPRINGA, ELSET=WK_536
   22777,    20370,    26018
*SPRING, ELSET=WK_536

6.194139e-02
*ELEMENT, TYPE=SPRINGA, ELSET=WK_537
   22778,    20373,    26019
*SPRING, ELSET=WK_537

6.194139e-02
*ELEMENT, TYPE=SPRINGA, ELSET=WK_538
   22779,    20376,    26020
*SPRING, ELSET=WK_538

6.194139e-02
*ELEMENT, TYPE=SPRINGA, ELSET=WK_539
   22780,    20379,    26021
*SPRING, ELSET=WK_539

6.194139e-02
*ELEMENT, TYPE=SPRINGA, ELSET=WK_540
   22781,    20382,    26022
*SPRING, ELSET=WK_540

6.194139e-02
*ELEMENT, TYPE=SPRINGA, ELSET=WK_541
   22782,    20385,    26023
*SPRING, ELSET=WK_541

6.194139e-02
*ELEMENT, TYPE=SPRINGA, ELSET=WK_542
   22783,    20388,    26024
*SPRING, ELSET=WK_542

6.194139e-02
*ELEMENT, TYPE=SPRINGA, ELSET=WK_543
   22784,    20391,    26025
*SPRING, ELSET=WK_543

6.194139e-02
*ELEMENT, TYPE=SPRINGA, ELSET=WK_544
   22785,    20394,    26026
*SPRING, ELSET=WK_544

6.194139e-02
*ELEMENT, TYPE=SPRINGA, ELSET=WK_545
   22786,    20397,    26027
*SPRING, ELSET=WK_545

6.194139e-02
*ELEMENT, TYPE=SPRINGA, ELSET=WK_546
   22787,    20400,    26028
*SPRING, ELSET=WK_546

6.194139e-02
*ELEMENT, TYPE=SPRINGA, ELSET=WK_547
   22788,    20403,    26029
*SPRING, ELSET=WK_547

6.194139e-02
*ELEMENT, TYPE=SPRINGA, ELSET=WK_548
   22789,    20406,    26030
*SPRING, ELSET=WK_548

6.194139e-02
*ELEMENT, TYPE=SPRINGA, ELSET=WK_549
   22790,    20409,    26031
*SPRING, ELSET=WK_549

6.194139e-02
*ELEMENT, TYPE=SPRINGA, ELSET=WK_550
   22791,    20412,    26032
*SPRING, ELSET=WK_550

6.194139e-02
*ELEMENT, TYPE=SPRINGA, ELSET=WK_551
   22792,    20415,    26033
*SPRING, ELSET=WK_551

6.194139e-02
*ELEMENT, TYPE=SPRINGA, ELSET=WK_552
   22793,    20418,    26034
*SPRING, ELSET=WK_552

6.194139e-02
*ELEMENT, TYPE=SPRINGA, ELSET=WK_553
   22794,    20421,    26035
*SPRING, ELSET=WK_553

6.194139e-02
*ELEMENT, TYPE=SPRINGA, ELSET=WK_554
   22795,    20424,    26036
*SPRING, ELSET=WK_554

6.194139e-02
*ELEMENT, TYPE=SPRINGA, ELSET=WK_555
   22796,    20427,    26037
*SPRING, ELSET=WK_555

6.194139e-02
*ELEMENT, TYPE=SPRINGA, ELSET=WK_556
   22797,    20430,    26038
*SPRING, ELSET=WK_556

6.194139e-02
*ELEMENT, TYPE=SPRINGA, ELSET=WK_557
   22798,    20433,    26039
*SPRING, ELSET=WK_557

6.194139e-02
*ELEMENT, TYPE=SPRINGA, ELSET=WK_558
   22799,    20436,    26040
*SPRING, ELSET=WK_558

6.194139e-02
*ELEMENT, TYPE=SPRINGA, ELSET=WK_559
   22800,    20439,    26041
*SPRING, ELSET=WK_559

6.194139e-02
*ELEMENT, TYPE=SPRINGA, ELSET=WK_560
   22801,    20442,    26042
*SPRING, ELSET=WK_560

6.194139e-02
*ELEMENT, TYPE=SPRINGA, ELSET=WK_561
   22802,    20445,    26043
*SPRING, ELSET=WK_561

6.194139e-02
*ELEMENT, TYPE=SPRINGA, ELSET=WK_562
   22803,    20448,    26044
*SPRING, ELSET=WK_562

6.194139e-02
*ELEMENT, TYPE=SPRINGA, ELSET=WK_563
   22804,    20451,    26045
*SPRING, ELSET=WK_563

6.194139e-02
*ELEMENT, TYPE=SPRINGA, ELSET=WK_564
   22805,    20454,    26046
*SPRING, ELSET=WK_564

6.194139e-02
*ELEMENT, TYPE=SPRINGA, ELSET=WK_565
   22806,    20457,    26047
*SPRING, ELSET=WK_565

6.194139e-02
*ELEMENT, TYPE=SPRINGA, ELSET=WK_566
   22807,    20460,    26048
*SPRING, ELSET=WK_566

6.194139e-02
*ELEMENT, TYPE=SPRINGA, ELSET=WK_567
   22808,    20463,    26049
*SPRING, ELSET=WK_567

6.194139e-02
*ELEMENT, TYPE=SPRINGA, ELSET=WK_568
   22809,    20466,    26050
*SPRING, ELSET=WK_568

6.194139e-02
*ELEMENT, TYPE=SPRINGA, ELSET=WK_569
   22810,    20469,    26051
*SPRING, ELSET=WK_569

6.194139e-02
*ELEMENT, TYPE=SPRINGA, ELSET=WK_570
   22811,    20472,    26052
*SPRING, ELSET=WK_570

6.194139e-02
*ELEMENT, TYPE=SPRINGA, ELSET=WK_571
   22812,    20475,    26053
*SPRING, ELSET=WK_571

6.194139e-02
*ELEMENT, TYPE=SPRINGA, ELSET=WK_572
   22813,    20478,    26054
*SPRING, ELSET=WK_572

6.194139e-02
*ELEMENT, TYPE=SPRINGA, ELSET=WK_573
   22814,    20481,    26055
*SPRING, ELSET=WK_573

6.194139e-02
*ELEMENT, TYPE=SPRINGA, ELSET=WK_574
   22815,    20484,    26056
*SPRING, ELSET=WK_574

6.194139e-02
*ELEMENT, TYPE=SPRINGA, ELSET=WK_575
   22816,    20487,    26057
*SPRING, ELSET=WK_575

6.194139e-02
*ELEMENT, TYPE=SPRINGA, ELSET=WK_576
   22817,    20490,    26058
*SPRING, ELSET=WK_576

6.194139e-02
*ELEMENT, TYPE=SPRINGA, ELSET=WK_577
   22818,    20493,    26059
*SPRING, ELSET=WK_577

6.194139e-02
*ELEMENT, TYPE=SPRINGA, ELSET=WK_578
   22819,    20496,    26060
*SPRING, ELSET=WK_578

6.194139e-02
*ELEMENT, TYPE=SPRINGA, ELSET=WK_579
   22820,    20499,    26061
*SPRING, ELSET=WK_579

6.194139e-02
*ELEMENT, TYPE=SPRINGA, ELSET=WK_580
   22821,    20502,    26062
*SPRING, ELSET=WK_580

6.194139e-02
*ELEMENT, TYPE=SPRINGA, ELSET=WK_581
   22822,    20505,    26063
*SPRING, ELSET=WK_581

6.194139e-02
*ELEMENT, TYPE=SPRINGA, ELSET=WK_582
   22823,    20508,    26064
*SPRING, ELSET=WK_582

6.194139e-02
*ELEMENT, TYPE=SPRINGA, ELSET=WK_583
   22824,    20511,    26065
*SPRING, ELSET=WK_583

6.194139e-02
*ELEMENT, TYPE=SPRINGA, ELSET=WK_584
   22825,    20514,    26066
*SPRING, ELSET=WK_584

6.194139e-02
*ELEMENT, TYPE=SPRINGA, ELSET=WK_585
   22826,    20517,    26067
*SPRING, ELSET=WK_585

6.194139e-02
*ELEMENT, TYPE=SPRINGA, ELSET=WK_586
   22827,    20520,    26068
*SPRING, ELSET=WK_586

6.194139e-02
*ELEMENT, TYPE=SPRINGA, ELSET=WK_587
   22828,    20523,    26069
*SPRING, ELSET=WK_587

6.194139e-02
*ELEMENT, TYPE=SPRINGA, ELSET=WK_588
   22829,    20526,    26070
*SPRING, ELSET=WK_588

6.194139e-02
*ELEMENT, TYPE=SPRINGA, ELSET=WK_589
   22830,    20529,    26071
*SPRING, ELSET=WK_589

6.194139e-02
*ELEMENT, TYPE=SPRINGA, ELSET=WK_590
   22831,    20532,    26072
*SPRING, ELSET=WK_590

6.194139e-02
*ELEMENT, TYPE=SPRINGA, ELSET=WK_591
   22832,    20535,    26073
*SPRING, ELSET=WK_591

6.194139e-02
*ELEMENT, TYPE=SPRINGA, ELSET=WK_592
   22833,    20538,    26074
*SPRING, ELSET=WK_592

6.194139e-02
*ELEMENT, TYPE=SPRINGA, ELSET=WK_593
   22834,    20541,    26075
*SPRING, ELSET=WK_593

6.194139e-02
*ELEMENT, TYPE=SPRINGA, ELSET=WK_594
   22835,    20544,    26076
*SPRING, ELSET=WK_594

6.194139e-02
*ELEMENT, TYPE=SPRINGA, ELSET=WK_595
   22836,    20547,    26077
*SPRING, ELSET=WK_595

6.194139e-02
*ELEMENT, TYPE=SPRINGA, ELSET=WK_596
   22837,    20550,    26078
*SPRING, ELSET=WK_596

6.194139e-02
*ELEMENT, TYPE=SPRINGA, ELSET=WK_597
   22838,    20553,    26079
*SPRING, ELSET=WK_597

6.194139e-02
*ELEMENT, TYPE=SPRINGA, ELSET=WK_598
   22839,    20556,    26080
*SPRING, ELSET=WK_598

6.194139e-02
*ELEMENT, TYPE=SPRINGA, ELSET=WK_599
   22840,    20559,    26081
*SPRING, ELSET=WK_599

6.194139e-02
*ELEMENT, TYPE=SPRINGA, ELSET=WK_600
   22841,    20562,    26082
*SPRING, ELSET=WK_600

6.194139e-02
*ELEMENT, TYPE=SPRINGA, ELSET=WK_601
   22842,    20565,    26083
*SPRING, ELSET=WK_601

6.194139e-02
*ELEMENT, TYPE=SPRINGA, ELSET=WK_602
   22843,    20568,    26084
*SPRING, ELSET=WK_602

6.194139e-02
*ELEMENT, TYPE=SPRINGA, ELSET=WK_603
   22844,    20571,    26085
*SPRING, ELSET=WK_603

6.194139e-02
*ELEMENT, TYPE=SPRINGA, ELSET=WK_604
   22845,    20574,    26086
*SPRING, ELSET=WK_604

6.194139e-02
*ELEMENT, TYPE=SPRINGA, ELSET=WK_605
   22846,    20577,    26087
*SPRING, ELSET=WK_605

6.194139e-02
*ELEMENT, TYPE=SPRINGA, ELSET=WK_606
   22847,    20580,    26088
*SPRING, ELSET=WK_606

6.194139e-02
*ELEMENT, TYPE=SPRINGA, ELSET=WK_607
   22848,    20583,    26089
*SPRING, ELSET=WK_607

6.194139e-02
*ELEMENT, TYPE=SPRINGA, ELSET=WK_608
   22849,    20586,    26090
*SPRING, ELSET=WK_608

6.194139e-02
*ELEMENT, TYPE=SPRINGA, ELSET=WK_609
   22850,    20589,    26091
*SPRING, ELSET=WK_609

6.194139e-02
*ELEMENT, TYPE=SPRINGA, ELSET=WK_610
   22851,    20592,    26092
*SPRING, ELSET=WK_610

6.194139e-02
*ELEMENT, TYPE=SPRINGA, ELSET=WK_611
   22852,    20595,    26093
*SPRING, ELSET=WK_611

6.194139e-02
*ELEMENT, TYPE=SPRINGA, ELSET=WK_612
   22853,    20598,    26094
*SPRING, ELSET=WK_612

6.194139e-02
*ELEMENT, TYPE=SPRINGA, ELSET=WK_613
   22854,    20601,    26095
*SPRING, ELSET=WK_613

6.194139e-02
*ELEMENT, TYPE=SPRINGA, ELSET=WK_614
   22855,    20604,    26096
*SPRING, ELSET=WK_614

6.194139e-02
*ELEMENT, TYPE=SPRINGA, ELSET=WK_615
   22856,    20607,    26097
*SPRING, ELSET=WK_615

6.194139e-02
*ELEMENT, TYPE=SPRINGA, ELSET=WK_616
   22857,    20610,    26098
*SPRING, ELSET=WK_616

6.194139e-02
*ELEMENT, TYPE=SPRINGA, ELSET=WK_617
   22858,    20613,    26099
*SPRING, ELSET=WK_617

6.194139e-02
*ELEMENT, TYPE=SPRINGA, ELSET=WK_618
   22859,    20616,    26100
*SPRING, ELSET=WK_618

6.194139e-02
*ELEMENT, TYPE=SPRINGA, ELSET=WK_619
   22860,    20619,    26101
*SPRING, ELSET=WK_619

6.194139e-02
*ELEMENT, TYPE=SPRINGA, ELSET=WK_620
   22861,    20622,    26102
*SPRING, ELSET=WK_620

6.194139e-02
*ELEMENT, TYPE=SPRINGA, ELSET=WK_621
   22862,    20625,    26103
*SPRING, ELSET=WK_621

6.194139e-02
*ELEMENT, TYPE=SPRINGA, ELSET=WK_622
   22863,    20628,    26104
*SPRING, ELSET=WK_622

6.194139e-02
*ELEMENT, TYPE=SPRINGA, ELSET=WK_623
   22864,    20631,    26105
*SPRING, ELSET=WK_623

6.194139e-02
*ELEMENT, TYPE=SPRINGA, ELSET=WK_624
   22865,    20634,    26106
*SPRING, ELSET=WK_624

6.194139e-02
*ELEMENT, TYPE=SPRINGA, ELSET=WK_625
   22866,    20637,    26107
*SPRING, ELSET=WK_625

6.194139e-02
*ELEMENT, TYPE=SPRINGA, ELSET=WK_626
   22867,    20640,    26108
*SPRING, ELSET=WK_626

6.194139e-02
*ELEMENT, TYPE=SPRINGA, ELSET=WK_627
   22868,    20643,    26109
*SPRING, ELSET=WK_627

6.194139e-02
*ELEMENT, TYPE=SPRINGA, ELSET=WK_628
   22869,    20646,    26110
*SPRING, ELSET=WK_628

6.194139e-02
*ELEMENT, TYPE=SPRINGA, ELSET=WK_629
   22870,    20649,    26111
*SPRING, ELSET=WK_629

6.194139e-02
*ELEMENT, TYPE=SPRINGA, ELSET=WK_630
   22871,    20652,    26112
*SPRING, ELSET=WK_630

6.194139e-02
*ELEMENT, TYPE=SPRINGA, ELSET=WK_631
   22872,    20655,    26113
*SPRING, ELSET=WK_631

6.194139e-02
*ELEMENT, TYPE=SPRINGA, ELSET=WK_632
   22873,    20658,    26114
*SPRING, ELSET=WK_632

6.194139e-02
*ELEMENT, TYPE=SPRINGA, ELSET=WK_633
   22874,    20661,    26115
*SPRING, ELSET=WK_633

6.194139e-02
*ELEMENT, TYPE=SPRINGA, ELSET=WK_634
   22875,    20664,    26116
*SPRING, ELSET=WK_634

6.194139e-02
*ELEMENT, TYPE=SPRINGA, ELSET=WK_635
   22876,    20667,    26117
*SPRING, ELSET=WK_635

6.194139e-02
*ELEMENT, TYPE=SPRINGA, ELSET=WK_636
   22877,    20670,    26118
*SPRING, ELSET=WK_636

6.194139e-02
*ELEMENT, TYPE=SPRINGA, ELSET=WK_637
   22878,    20673,    26119
*SPRING, ELSET=WK_637

6.194139e-02
*ELEMENT, TYPE=SPRINGA, ELSET=WK_638
   22879,    20676,    26120
*SPRING, ELSET=WK_638

6.194139e-02
*ELEMENT, TYPE=SPRINGA, ELSET=WK_639
   22880,    20679,    26121
*SPRING, ELSET=WK_639

6.194139e-02
*ELEMENT, TYPE=SPRINGA, ELSET=WK_640
   22881,    20682,    26122
*SPRING, ELSET=WK_640

6.194139e-02
*ELEMENT, TYPE=SPRINGA, ELSET=WK_641
   22882,    20685,    26123
*SPRING, ELSET=WK_641

6.194139e-02
*ELEMENT, TYPE=SPRINGA, ELSET=WK_642
   22883,    20688,    26124
*SPRING, ELSET=WK_642

6.194139e-02
*ELEMENT, TYPE=SPRINGA, ELSET=WK_643
   22884,    20691,    26125
*SPRING, ELSET=WK_643

6.194139e-02
*ELEMENT, TYPE=SPRINGA, ELSET=WK_644
   22885,    20694,    26126
*SPRING, ELSET=WK_644

6.194139e-02
*ELEMENT, TYPE=SPRINGA, ELSET=WK_645
   22886,    20697,    26127
*SPRING, ELSET=WK_645

6.194139e-02
*ELEMENT, TYPE=SPRINGA, ELSET=WK_646
   22887,    20700,    26128
*SPRING, ELSET=WK_646

6.194139e-02
*ELEMENT, TYPE=SPRINGA, ELSET=WK_647
   22888,    20703,    26129
*SPRING, ELSET=WK_647

6.194139e-02
*ELEMENT, TYPE=SPRINGA, ELSET=WK_648
   22889,    20706,    26130
*SPRING, ELSET=WK_648

6.194139e-02
*ELEMENT, TYPE=SPRINGA, ELSET=WK_649
   22890,    20709,    26131
*SPRING, ELSET=WK_649

6.194139e-02
*ELEMENT, TYPE=SPRINGA, ELSET=WK_650
   22891,    20712,    26132
*SPRING, ELSET=WK_650

6.194139e-02
*ELEMENT, TYPE=SPRINGA, ELSET=WK_651
   22892,    20715,    26133
*SPRING, ELSET=WK_651

6.194139e-02
*ELEMENT, TYPE=SPRINGA, ELSET=WK_652
   22893,    20718,    26134
*SPRING, ELSET=WK_652

6.194139e-02
*ELEMENT, TYPE=SPRINGA, ELSET=WK_653
   22894,    20721,    26135
*SPRING, ELSET=WK_653

6.194139e-02
*ELEMENT, TYPE=SPRINGA, ELSET=WK_654
   22895,    20724,    26136
*SPRING, ELSET=WK_654

6.194139e-02
*ELEMENT, TYPE=SPRINGA, ELSET=WK_655
   22896,    20727,    26137
*SPRING, ELSET=WK_655

6.194139e-02
*ELEMENT, TYPE=SPRINGA, ELSET=WK_656
   22897,    20730,    26138
*SPRING, ELSET=WK_656

6.194139e-02
*ELEMENT, TYPE=SPRINGA, ELSET=WK_657
   22898,    20733,    26139
*SPRING, ELSET=WK_657

6.194139e-02
*ELEMENT, TYPE=SPRINGA, ELSET=WK_658
   22899,    20736,    26140
*SPRING, ELSET=WK_658

6.194139e-02
*ELEMENT, TYPE=SPRINGA, ELSET=WK_659
   22900,    20739,    26141
*SPRING, ELSET=WK_659

6.194139e-02
*ELEMENT, TYPE=SPRINGA, ELSET=WK_660
   22901,    20742,    26142
*SPRING, ELSET=WK_660

6.194139e-02
*ELEMENT, TYPE=SPRINGA, ELSET=WK_661
   22902,    20745,    26143
*SPRING, ELSET=WK_661

6.194139e-02
*ELEMENT, TYPE=SPRINGA, ELSET=WK_662
   22903,    20748,    26144
*SPRING, ELSET=WK_662

6.194139e-02
*ELEMENT, TYPE=SPRINGA, ELSET=WK_663
   22904,    20751,    26145
*SPRING, ELSET=WK_663

6.194139e-02
*ELEMENT, TYPE=SPRINGA, ELSET=WK_664
   22905,    20754,    26146
*SPRING, ELSET=WK_664

6.194139e-02
*ELEMENT, TYPE=SPRINGA, ELSET=WK_665
   22906,    20757,    26147
*SPRING, ELSET=WK_665

6.194139e-02
*ELEMENT, TYPE=SPRINGA, ELSET=WK_666
   22907,    20760,    26148
*SPRING, ELSET=WK_666

6.194139e-02
*ELEMENT, TYPE=SPRINGA, ELSET=WK_667
   22908,    20763,    26149
*SPRING, ELSET=WK_667

6.194139e-02
*ELEMENT, TYPE=SPRINGA, ELSET=WK_668
   22909,    20766,    26150
*SPRING, ELSET=WK_668

6.194139e-02
*ELEMENT, TYPE=SPRINGA, ELSET=WK_669
   22910,    20769,    26151
*SPRING, ELSET=WK_669

6.194139e-02
*ELEMENT, TYPE=SPRINGA, ELSET=WK_670
   22911,    20772,    26152
*SPRING, ELSET=WK_670

6.194139e-02
*ELEMENT, TYPE=SPRINGA, ELSET=WK_671
   22912,    20775,    26153
*SPRING, ELSET=WK_671

6.194139e-02
*ELEMENT, TYPE=SPRINGA, ELSET=WK_672
   22913,    20778,    26154
*SPRING, ELSET=WK_672

6.194139e-02
*ELEMENT, TYPE=SPRINGA, ELSET=WK_673
   22914,    20781,    26155
*SPRING, ELSET=WK_673

6.194139e-02
*ELEMENT, TYPE=SPRINGA, ELSET=WK_674
   22915,    20784,    26156
*SPRING, ELSET=WK_674

6.194139e-02
*ELEMENT, TYPE=SPRINGA, ELSET=WK_675
   22916,    20787,    26157
*SPRING, ELSET=WK_675

6.194139e-02
*ELEMENT, TYPE=SPRINGA, ELSET=WK_676
   22917,    20790,    26158
*SPRING, ELSET=WK_676

6.194139e-02
*ELEMENT, TYPE=SPRINGA, ELSET=WK_677
   22918,    20793,    26159
*SPRING, ELSET=WK_677

6.194139e-02
*ELEMENT, TYPE=SPRINGA, ELSET=WK_678
   22919,    20796,    26160
*SPRING, ELSET=WK_678

6.194139e-02
*ELEMENT, TYPE=SPRINGA, ELSET=WK_679
   22920,    20799,    26161
*SPRING, ELSET=WK_679

6.194139e-02
*ELEMENT, TYPE=SPRINGA, ELSET=WK_680
   22921,    20802,    26162
*SPRING, ELSET=WK_680

6.194139e-02
*ELEMENT, TYPE=SPRINGA, ELSET=WK_681
   22922,    20805,    26163
*SPRING, ELSET=WK_681

6.194139e-02
*ELEMENT, TYPE=SPRINGA, ELSET=WK_682
   22923,    20808,    26164
*SPRING, ELSET=WK_682

6.194139e-02
*ELEMENT, TYPE=SPRINGA, ELSET=WK_683
   22924,    20811,    26165
*SPRING, ELSET=WK_683

6.194139e-02
*ELEMENT, TYPE=SPRINGA, ELSET=WK_684
   22925,    20814,    26166
*SPRING, ELSET=WK_684

6.194139e-02
*ELEMENT, TYPE=SPRINGA, ELSET=WK_685
   22926,    20817,    26167
*SPRING, ELSET=WK_685

6.194139e-02
*ELEMENT, TYPE=SPRINGA, ELSET=WK_686
   22927,    20820,    26168
*SPRING, ELSET=WK_686

6.194139e-02
*ELEMENT, TYPE=SPRINGA, ELSET=WK_687
   22928,    20823,    26169
*SPRING, ELSET=WK_687

6.194139e-02
*ELEMENT, TYPE=SPRINGA, ELSET=WK_688
   22929,    20826,    26170
*SPRING, ELSET=WK_688

6.194139e-02
*ELEMENT, TYPE=SPRINGA, ELSET=WK_689
   22930,    20829,    26171
*SPRING, ELSET=WK_689

6.194139e-02
*ELEMENT, TYPE=SPRINGA, ELSET=WK_690
   22931,    20832,    26172
*SPRING, ELSET=WK_690

6.194139e-02
*ELEMENT, TYPE=SPRINGA, ELSET=WK_691
   22932,    20835,    26173
*SPRING, ELSET=WK_691

6.194139e-02
*ELEMENT, TYPE=SPRINGA, ELSET=WK_692
   22933,    20838,    26174
*SPRING, ELSET=WK_692

6.194139e-02
*ELEMENT, TYPE=SPRINGA, ELSET=WK_693
   22934,    20841,    26175
*SPRING, ELSET=WK_693

6.194139e-02
*ELEMENT, TYPE=SPRINGA, ELSET=WK_694
   22935,    20844,    26176
*SPRING, ELSET=WK_694

6.194139e-02
*ELEMENT, TYPE=SPRINGA, ELSET=WK_695
   22936,    20847,    26177
*SPRING, ELSET=WK_695

6.194139e-02
*ELEMENT, TYPE=SPRINGA, ELSET=WK_696
   22937,    20850,    26178
*SPRING, ELSET=WK_696

6.194139e-02
*ELEMENT, TYPE=SPRINGA, ELSET=WK_697
   22938,    20853,    26179
*SPRING, ELSET=WK_697

6.194139e-02
*ELEMENT, TYPE=SPRINGA, ELSET=WK_698
   22939,    20856,    26180
*SPRING, ELSET=WK_698

6.194139e-02
*ELEMENT, TYPE=SPRINGA, ELSET=WK_699
   22940,    20859,    26181
*SPRING, ELSET=WK_699

6.194139e-02
*ELEMENT, TYPE=SPRINGA, ELSET=WK_700
   22941,    20862,    26182
*SPRING, ELSET=WK_700

6.194139e-02
*ELEMENT, TYPE=SPRINGA, ELSET=WK_701
   22942,    20865,    26183
*SPRING, ELSET=WK_701

6.194139e-02
*ELEMENT, TYPE=SPRINGA, ELSET=WK_702
   22943,    20868,    26184
*SPRING, ELSET=WK_702

6.194139e-02
*ELEMENT, TYPE=SPRINGA, ELSET=WK_703
   22944,    20871,    26185
*SPRING, ELSET=WK_703

6.194139e-02
*ELEMENT, TYPE=SPRINGA, ELSET=WK_704
   22945,    20874,    26186
*SPRING, ELSET=WK_704

6.194139e-02
*ELEMENT, TYPE=SPRINGA, ELSET=WK_705
   22946,    20877,    26187
*SPRING, ELSET=WK_705

6.194139e-02
*ELEMENT, TYPE=SPRINGA, ELSET=WK_706
   22947,    20880,    26188
*SPRING, ELSET=WK_706

6.194139e-02
*ELEMENT, TYPE=SPRINGA, ELSET=WK_707
   22948,    20883,    26189
*SPRING, ELSET=WK_707

6.194139e-02
*ELEMENT, TYPE=SPRINGA, ELSET=WK_708
   22949,    20886,    26190
*SPRING, ELSET=WK_708

6.194139e-02
*ELEMENT, TYPE=SPRINGA, ELSET=WK_709
   22950,    20889,    26191
*SPRING, ELSET=WK_709

6.194139e-02
*ELEMENT, TYPE=SPRINGA, ELSET=WK_710
   22951,    20892,    26192
*SPRING, ELSET=WK_710

6.194139e-02
*ELEMENT, TYPE=SPRINGA, ELSET=WK_711
   22952,    20895,    26193
*SPRING, ELSET=WK_711

6.194139e-02
*ELEMENT, TYPE=SPRINGA, ELSET=WK_712
   22953,    20898,    26194
*SPRING, ELSET=WK_712

6.194139e-02
*ELEMENT, TYPE=SPRINGA, ELSET=WK_713
   22954,    20901,    26195
*SPRING, ELSET=WK_713

6.194139e-02
*ELEMENT, TYPE=SPRINGA, ELSET=WK_714
   22955,    20904,    26196
*SPRING, ELSET=WK_714

6.194139e-02
*ELEMENT, TYPE=SPRINGA, ELSET=WK_715
   22956,    20907,    26197
*SPRING, ELSET=WK_715

6.194139e-02
*ELEMENT, TYPE=SPRINGA, ELSET=WK_716
   22957,    20910,    26198
*SPRING, ELSET=WK_716

6.194139e-02
*ELEMENT, TYPE=SPRINGA, ELSET=WK_717
   22958,    20913,    26199
*SPRING, ELSET=WK_717

6.194139e-02
*ELEMENT, TYPE=SPRINGA, ELSET=WK_718
   22959,    20916,    26200
*SPRING, ELSET=WK_718

6.194139e-02
*ELEMENT, TYPE=SPRINGA, ELSET=WK_719
   22960,    20919,    26201
*SPRING, ELSET=WK_719

6.194139e-02
*ELEMENT, TYPE=SPRINGA, ELSET=WK_720
   22961,    20922,    26202
*SPRING, ELSET=WK_720

6.194139e-02
*ELEMENT, TYPE=SPRINGA, ELSET=WK_721
   22962,    20925,    26203
*SPRING, ELSET=WK_721

6.194139e-02
*ELEMENT, TYPE=SPRINGA, ELSET=WK_722
   22963,    20928,    26204
*SPRING, ELSET=WK_722

6.194139e-02
*ELEMENT, TYPE=SPRINGA, ELSET=WK_723
   22964,    20931,    26205
*SPRING, ELSET=WK_723

6.194139e-02
*ELEMENT, TYPE=SPRINGA, ELSET=WK_724
   22965,    20934,    26206
*SPRING, ELSET=WK_724

6.194139e-02
*ELEMENT, TYPE=SPRINGA, ELSET=WK_725
   22966,    20937,    26207
*SPRING, ELSET=WK_725

6.194139e-02
*ELEMENT, TYPE=SPRINGA, ELSET=WK_726
   22967,    20940,    26208
*SPRING, ELSET=WK_726

6.194139e-02
*ELEMENT, TYPE=SPRINGA, ELSET=WK_727
   22968,    20943,    26209
*SPRING, ELSET=WK_727

6.194139e-02
*ELEMENT, TYPE=SPRINGA, ELSET=WK_728
   22969,    20946,    26210
*SPRING, ELSET=WK_728

6.194139e-02
*ELEMENT, TYPE=SPRINGA, ELSET=WK_729
   22970,    20949,    26211
*SPRING, ELSET=WK_729

6.194139e-02
*ELEMENT, TYPE=SPRINGA, ELSET=WK_730
   22971,    20952,    26212
*SPRING, ELSET=WK_730

6.194139e-02
*ELEMENT, TYPE=SPRINGA, ELSET=WK_731
   22972,    20955,    26213
*SPRING, ELSET=WK_731

6.194139e-02
*ELEMENT, TYPE=SPRINGA, ELSET=WK_732
   22973,    20958,    26214
*SPRING, ELSET=WK_732

6.194139e-02
*ELEMENT, TYPE=SPRINGA, ELSET=WK_733
   22974,    20961,    26215
*SPRING, ELSET=WK_733

6.194139e-02
*ELEMENT, TYPE=SPRINGA, ELSET=WK_734
   22975,    20964,    26216
*SPRING, ELSET=WK_734

6.194139e-02
*ELEMENT, TYPE=SPRINGA, ELSET=WK_735
   22976,    20967,    26217
*SPRING, ELSET=WK_735

6.194139e-02
*ELEMENT, TYPE=SPRINGA, ELSET=WK_736
   22977,    20970,    26218
*SPRING, ELSET=WK_736

6.194139e-02
*ELEMENT, TYPE=SPRINGA, ELSET=WK_737
   22978,    20973,    26219
*SPRING, ELSET=WK_737

6.194139e-02
*ELEMENT, TYPE=SPRINGA, ELSET=WK_738
   22979,    20976,    26220
*SPRING, ELSET=WK_738

6.194139e-02
*ELEMENT, TYPE=SPRINGA, ELSET=WK_739
   22980,    20979,    26221
*SPRING, ELSET=WK_739

6.194139e-02
*ELEMENT, TYPE=SPRINGA, ELSET=WK_740
   22981,    20982,    26222
*SPRING, ELSET=WK_740

6.194139e-02
*ELEMENT, TYPE=SPRINGA, ELSET=WK_741
   22982,    20985,    26223
*SPRING, ELSET=WK_741

6.194139e-02
*ELEMENT, TYPE=SPRINGA, ELSET=WK_742
   22983,    20988,    26224
*SPRING, ELSET=WK_742

6.194139e-02
*ELEMENT, TYPE=SPRINGA, ELSET=WK_743
   22984,    20991,    26225
*SPRING, ELSET=WK_743

6.194139e-02
*ELEMENT, TYPE=SPRINGA, ELSET=WK_744
   22985,    20994,    26226
*SPRING, ELSET=WK_744

6.194139e-02
*ELEMENT, TYPE=SPRINGA, ELSET=WK_745
   22986,    20997,    26227
*SPRING, ELSET=WK_745

6.194139e-02
*ELEMENT, TYPE=SPRINGA, ELSET=WK_746
   22987,    21000,    26228
*SPRING, ELSET=WK_746

6.194139e-02
*ELEMENT, TYPE=SPRINGA, ELSET=WK_747
   22988,    21003,    26229
*SPRING, ELSET=WK_747

6.194139e-02
*ELEMENT, TYPE=SPRINGA, ELSET=WK_748
   22989,    21006,    26230
*SPRING, ELSET=WK_748

6.194139e-02
*ELEMENT, TYPE=SPRINGA, ELSET=WK_749
   22990,    21009,    26231
*SPRING, ELSET=WK_749

6.194139e-02
*ELEMENT, TYPE=SPRINGA, ELSET=WK_750
   22991,    21012,    26232
*SPRING, ELSET=WK_750

6.194139e-02
*ELEMENT, TYPE=SPRINGA, ELSET=WK_751
   22992,    21015,    26233
*SPRING, ELSET=WK_751

6.194139e-02
*ELEMENT, TYPE=SPRINGA, ELSET=WK_752
   22993,    21018,    26234
*SPRING, ELSET=WK_752

6.194139e-02
*ELEMENT, TYPE=SPRINGA, ELSET=WK_753
   22994,    21021,    26235
*SPRING, ELSET=WK_753

6.194139e-02
*ELEMENT, TYPE=SPRINGA, ELSET=WK_754
   22995,    21024,    26236
*SPRING, ELSET=WK_754

6.194139e-02
*ELEMENT, TYPE=SPRINGA, ELSET=WK_755
   22996,    21027,    26237
*SPRING, ELSET=WK_755

6.194139e-02
*ELEMENT, TYPE=SPRINGA, ELSET=WK_756
   22997,    21030,    26238
*SPRING, ELSET=WK_756

6.194139e-02
*ELEMENT, TYPE=SPRINGA, ELSET=WK_757
   22998,    21033,    26239
*SPRING, ELSET=WK_757

6.194139e-02
*ELEMENT, TYPE=SPRINGA, ELSET=WK_758
   22999,    21036,    26240
*SPRING, ELSET=WK_758

6.194139e-02
*ELEMENT, TYPE=SPRINGA, ELSET=WK_759
   23000,    21039,    26241
*SPRING, ELSET=WK_759

6.194139e-02
*ELEMENT, TYPE=SPRINGA, ELSET=WK_760
   23001,    21042,    26242
*SPRING, ELSET=WK_760

6.194139e-02
*ELEMENT, TYPE=SPRINGA, ELSET=WK_761
   23002,    21045,    26243
*SPRING, ELSET=WK_761

6.194139e-02
*ELEMENT, TYPE=SPRINGA, ELSET=WK_762
   23003,    21048,    26244
*SPRING, ELSET=WK_762

6.194139e-02
*ELEMENT, TYPE=SPRINGA, ELSET=WK_763
   23004,    21051,    26245
*SPRING, ELSET=WK_763

6.194139e-02
*ELEMENT, TYPE=SPRINGA, ELSET=WK_764
   23005,    21054,    26246
*SPRING, ELSET=WK_764

6.194139e-02
*ELEMENT, TYPE=SPRINGA, ELSET=WK_765
   23006,    21057,    26247
*SPRING, ELSET=WK_765

6.194139e-02
*ELEMENT, TYPE=SPRINGA, ELSET=WK_766
   23007,    21060,    26248
*SPRING, ELSET=WK_766

6.194139e-02
*ELEMENT, TYPE=SPRINGA, ELSET=WK_767
   23008,    21063,    26249
*SPRING, ELSET=WK_767

6.194139e-02
*ELEMENT, TYPE=SPRINGA, ELSET=WK_768
   23009,    21066,    26250
*SPRING, ELSET=WK_768

6.194139e-02
*ELEMENT, TYPE=SPRINGA, ELSET=WK_769
   23010,    21069,    26251
*SPRING, ELSET=WK_769

6.194139e-02
*ELEMENT, TYPE=SPRINGA, ELSET=WK_770
   23011,    21072,    26252
*SPRING, ELSET=WK_770

6.194139e-02
*ELEMENT, TYPE=SPRINGA, ELSET=WK_771
   23012,    21075,    26253
*SPRING, ELSET=WK_771

6.194139e-02
*ELEMENT, TYPE=SPRINGA, ELSET=WK_772
   23013,    21078,    26254
*SPRING, ELSET=WK_772

6.194139e-02
*ELEMENT, TYPE=SPRINGA, ELSET=WK_773
   23014,    21081,    26255
*SPRING, ELSET=WK_773

6.194139e-02
*ELEMENT, TYPE=SPRINGA, ELSET=WK_774
   23015,    21084,    26256
*SPRING, ELSET=WK_774

6.194139e-02
*ELEMENT, TYPE=SPRINGA, ELSET=WK_775
   23016,    21087,    26257
*SPRING, ELSET=WK_775

6.194139e-02
*ELEMENT, TYPE=SPRINGA, ELSET=WK_776
   23017,    21090,    26258
*SPRING, ELSET=WK_776

6.194139e-02
*ELEMENT, TYPE=SPRINGA, ELSET=WK_777
   23018,    21093,    26259
*SPRING, ELSET=WK_777

6.194139e-02
*ELEMENT, TYPE=SPRINGA, ELSET=WK_778
   23019,    21096,    26260
*SPRING, ELSET=WK_778

6.194139e-02
*ELEMENT, TYPE=SPRINGA, ELSET=WK_779
   23020,    21099,    26261
*SPRING, ELSET=WK_779

6.194139e-02
*ELEMENT, TYPE=SPRINGA, ELSET=WK_780
   23021,    21102,    26262
*SPRING, ELSET=WK_780

6.194139e-02
*ELEMENT, TYPE=SPRINGA, ELSET=WK_781
   23022,    21105,    26263
*SPRING, ELSET=WK_781

6.194139e-02
*ELEMENT, TYPE=SPRINGA, ELSET=WK_782
   23023,    21108,    26264
*SPRING, ELSET=WK_782

6.194139e-02
*ELEMENT, TYPE=SPRINGA, ELSET=WK_783
   23024,    21111,    26265
*SPRING, ELSET=WK_783

6.194139e-02
*ELEMENT, TYPE=SPRINGA, ELSET=WK_784
   23025,    21114,    26266
*SPRING, ELSET=WK_784

6.194139e-02
*ELEMENT, TYPE=SPRINGA, ELSET=WK_785
   23026,    21117,    26267
*SPRING, ELSET=WK_785

6.194139e-02
*ELEMENT, TYPE=SPRINGA, ELSET=WK_786
   23027,    21120,    26268
*SPRING, ELSET=WK_786

6.194139e-02
*ELEMENT, TYPE=SPRINGA, ELSET=WK_787
   23028,    21123,    26269
*SPRING, ELSET=WK_787

6.194139e-02
*ELEMENT, TYPE=SPRINGA, ELSET=WK_788
   23029,    21126,    26270
*SPRING, ELSET=WK_788

6.194139e-02
*ELEMENT, TYPE=SPRINGA, ELSET=WK_789
   23030,    21129,    26271
*SPRING, ELSET=WK_789

6.194139e-02
*ELEMENT, TYPE=SPRINGA, ELSET=WK_790
   23031,    21132,    26272
*SPRING, ELSET=WK_790

6.194139e-02
*ELEMENT, TYPE=SPRINGA, ELSET=WK_791
   23032,    21135,    26273
*SPRING, ELSET=WK_791

6.194139e-02
*ELEMENT, TYPE=SPRINGA, ELSET=WK_792
   23033,    21138,    26274
*SPRING, ELSET=WK_792

6.194139e-02
*ELEMENT, TYPE=SPRINGA, ELSET=WK_793
   23034,    21141,    26275
*SPRING, ELSET=WK_793

6.194139e-02
*ELEMENT, TYPE=SPRINGA, ELSET=WK_794
   23035,    21144,    26276
*SPRING, ELSET=WK_794

6.194139e-02
*ELEMENT, TYPE=SPRINGA, ELSET=WK_795
   23036,    21147,    26277
*SPRING, ELSET=WK_795

6.194139e-02
*ELEMENT, TYPE=SPRINGA, ELSET=WK_796
   23037,    21150,    26278
*SPRING, ELSET=WK_796

6.194139e-02
*ELEMENT, TYPE=SPRINGA, ELSET=WK_797
   23038,    21153,    26279
*SPRING, ELSET=WK_797

6.194139e-02
*ELEMENT, TYPE=SPRINGA, ELSET=WK_798
   23039,    21156,    26280
*SPRING, ELSET=WK_798

6.194139e-02
*ELEMENT, TYPE=SPRINGA, ELSET=WK_799
   23040,    21159,    26281
*SPRING, ELSET=WK_799

6.194139e-02
*ELEMENT, TYPE=SPRINGA, ELSET=WK_800
   23041,    21162,    26282
*SPRING, ELSET=WK_800

6.194139e-02
*ELEMENT, TYPE=SPRINGA, ELSET=WK_801
   23042,    21165,    26283
*SPRING, ELSET=WK_801

6.194139e-02
*ELEMENT, TYPE=SPRINGA, ELSET=WK_802
   23043,    21168,    26284
*SPRING, ELSET=WK_802

6.194139e-02
*ELEMENT, TYPE=SPRINGA, ELSET=WK_803
   23044,    21171,    26285
*SPRING, ELSET=WK_803

6.194139e-02
*ELEMENT, TYPE=SPRINGA, ELSET=WK_804
   23045,    21174,    26286
*SPRING, ELSET=WK_804

6.194139e-02
*ELEMENT, TYPE=SPRINGA, ELSET=WK_805
   23046,    21177,    26287
*SPRING, ELSET=WK_805

6.194139e-02
*ELEMENT, TYPE=SPRINGA, ELSET=WK_806
   23047,    21180,    26288
*SPRING, ELSET=WK_806

6.194139e-02
*ELEMENT, TYPE=SPRINGA, ELSET=WK_807
   23048,    21183,    26289
*SPRING, ELSET=WK_807

6.194139e-02
*ELEMENT, TYPE=SPRINGA, ELSET=WK_808
   23049,    21186,    26290
*SPRING, ELSET=WK_808

6.194139e-02
*ELEMENT, TYPE=SPRINGA, ELSET=WK_809
   23050,    21189,    26291
*SPRING, ELSET=WK_809

3.097070e-02
*ELEMENT, TYPE=SPRINGA, ELSET=WK_810
   23051,    21192,    26292
*SPRING, ELSET=WK_810

3.097070e-02
*ELEMENT, TYPE=SPRINGA, ELSET=WK_811
   23052,    21195,    26293
*SPRING, ELSET=WK_811

3.097070e-02
*ELEMENT, TYPE=SPRINGA, ELSET=WK_812
   23053,    21198,    26294
*SPRING, ELSET=WK_812

3.097070e-02
*ELEMENT, TYPE=SPRINGA, ELSET=WK_813
   23054,    21201,    26295
*SPRING, ELSET=WK_813

3.097070e-02
*ELEMENT, TYPE=SPRINGA, ELSET=WK_814
   23055,    21204,    26296
*SPRING, ELSET=WK_814

3.097070e-02
*ELEMENT, TYPE=SPRINGA, ELSET=WK_815
   23056,    21207,    26297
*SPRING, ELSET=WK_815

3.097070e-02
*ELEMENT, TYPE=SPRINGA, ELSET=WK_816
   23057,    21210,    26298
*SPRING, ELSET=WK_816

3.097070e-02
*ELEMENT, TYPE=SPRINGA, ELSET=WK_817
   23058,    21213,    26299
*SPRING, ELSET=WK_817

3.097070e-02
*ELEMENT, TYPE=SPRINGA, ELSET=WK_818
   23059,    21216,    26300
*SPRING, ELSET=WK_818

3.097070e-02
*ELEMENT, TYPE=SPRINGA, ELSET=WK_819
   23060,    21219,    26301
*SPRING, ELSET=WK_819

3.097070e-02
*ELEMENT, TYPE=SPRINGA, ELSET=WK_820
   23061,    21222,    26302
*SPRING, ELSET=WK_820

3.097070e-02
*ELEMENT, TYPE=SPRINGA, ELSET=WK_821
   23062,    21225,    26303
*SPRING, ELSET=WK_821

3.097070e-02
*ELEMENT, TYPE=SPRINGA, ELSET=WK_822
   23063,    21228,    26304
*SPRING, ELSET=WK_822

3.097070e-02
*ELEMENT, TYPE=SPRINGA, ELSET=WK_823
   23064,    21231,    26305
*SPRING, ELSET=WK_823

3.097070e-02
*ELEMENT, TYPE=SPRINGA, ELSET=WK_824
   23065,    21234,    26306
*SPRING, ELSET=WK_824

3.097070e-02
*ELEMENT, TYPE=SPRINGA, ELSET=WK_825
   23066,    21237,    26307
*SPRING, ELSET=WK_825

3.097070e-02
*ELEMENT, TYPE=SPRINGA, ELSET=WK_826
   23067,    21240,    26308
*SPRING, ELSET=WK_826

3.097070e-02
*ELEMENT, TYPE=SPRINGA, ELSET=WK_827
   23068,    21243,    26309
*SPRING, ELSET=WK_827

3.097070e-02
*ELEMENT, TYPE=SPRINGA, ELSET=WK_828
   23069,    21246,    26310
*SPRING, ELSET=WK_828

3.097070e-02
*ELEMENT, TYPE=SPRINGA, ELSET=WK_829
   23070,    21249,    26311
*SPRING, ELSET=WK_829

6.194139e-02
*ELEMENT, TYPE=SPRINGA, ELSET=WK_830
   23071,    21252,    26312
*SPRING, ELSET=WK_830

6.194139e-02
*ELEMENT, TYPE=SPRINGA, ELSET=WK_831
   23072,    21255,    26313
*SPRING, ELSET=WK_831

6.194139e-02
*ELEMENT, TYPE=SPRINGA, ELSET=WK_832
   23073,    21258,    26314
*SPRING, ELSET=WK_832

6.194139e-02
*ELEMENT, TYPE=SPRINGA, ELSET=WK_833
   23074,    21261,    26315
*SPRING, ELSET=WK_833

6.194139e-02
*ELEMENT, TYPE=SPRINGA, ELSET=WK_834
   23075,    21264,    26316
*SPRING, ELSET=WK_834

6.194139e-02
*ELEMENT, TYPE=SPRINGA, ELSET=WK_835
   23076,    21267,    26317
*SPRING, ELSET=WK_835

6.194139e-02
*ELEMENT, TYPE=SPRINGA, ELSET=WK_836
   23077,    21270,    26318
*SPRING, ELSET=WK_836

6.194139e-02
*ELEMENT, TYPE=SPRINGA, ELSET=WK_837
   23078,    21273,    26319
*SPRING, ELSET=WK_837

6.194139e-02
*ELEMENT, TYPE=SPRINGA, ELSET=WK_838
   23079,    21276,    26320
*SPRING, ELSET=WK_838

6.194139e-02
*ELEMENT, TYPE=SPRINGA, ELSET=WK_839
   23080,    21279,    26321
*SPRING, ELSET=WK_839

6.194139e-02
*ELEMENT, TYPE=SPRINGA, ELSET=WK_840
   23081,    21282,    26322
*SPRING, ELSET=WK_840

6.194139e-02
*ELEMENT, TYPE=SPRINGA, ELSET=WK_841
   23082,    21285,    26323
*SPRING, ELSET=WK_841

6.194139e-02
*ELEMENT, TYPE=SPRINGA, ELSET=WK_842
   23083,    21288,    26324
*SPRING, ELSET=WK_842

6.194139e-02
*ELEMENT, TYPE=SPRINGA, ELSET=WK_843
   23084,    21291,    26325
*SPRING, ELSET=WK_843

6.194139e-02
*ELEMENT, TYPE=SPRINGA, ELSET=WK_844
   23085,    21294,    26326
*SPRING, ELSET=WK_844

6.194139e-02
*ELEMENT, TYPE=SPRINGA, ELSET=WK_845
   23086,    21297,    26327
*SPRING, ELSET=WK_845

6.194139e-02
*ELEMENT, TYPE=SPRINGA, ELSET=WK_846
   23087,    21300,    26328
*SPRING, ELSET=WK_846

6.194139e-02
*ELEMENT, TYPE=SPRINGA, ELSET=WK_847
   23088,    21303,    26329
*SPRING, ELSET=WK_847

6.194139e-02
*ELEMENT, TYPE=SPRINGA, ELSET=WK_848
   23089,    21306,    26330
*SPRING, ELSET=WK_848

6.194139e-02
*ELEMENT, TYPE=SPRINGA, ELSET=WK_849
   23090,    21309,    26331
*SPRING, ELSET=WK_849

6.194139e-02
*ELEMENT, TYPE=SPRINGA, ELSET=WK_850
   23091,    21312,    26332
*SPRING, ELSET=WK_850

6.194139e-02
*ELEMENT, TYPE=SPRINGA, ELSET=WK_851
   23092,    21315,    26333
*SPRING, ELSET=WK_851

6.194139e-02
*ELEMENT, TYPE=SPRINGA, ELSET=WK_852
   23093,    21318,    26334
*SPRING, ELSET=WK_852

6.194139e-02
*ELEMENT, TYPE=SPRINGA, ELSET=WK_853
   23094,    21321,    26335
*SPRING, ELSET=WK_853

6.194139e-02
*ELEMENT, TYPE=SPRINGA, ELSET=WK_854
   23095,    21324,    26336
*SPRING, ELSET=WK_854

6.194139e-02
*ELEMENT, TYPE=SPRINGA, ELSET=WK_855
   23096,    21327,    26337
*SPRING, ELSET=WK_855

6.194139e-02
*ELEMENT, TYPE=SPRINGA, ELSET=WK_856
   23097,    21330,    26338
*SPRING, ELSET=WK_856

6.194139e-02
*ELEMENT, TYPE=SPRINGA, ELSET=WK_857
   23098,    21333,    26339
*SPRING, ELSET=WK_857

6.194139e-02
*ELEMENT, TYPE=SPRINGA, ELSET=WK_858
   23099,    21336,    26340
*SPRING, ELSET=WK_858

6.194139e-02
*ELEMENT, TYPE=SPRINGA, ELSET=WK_859
   23100,    21339,    26341
*SPRING, ELSET=WK_859

6.194139e-02
*ELEMENT, TYPE=SPRINGA, ELSET=WK_860
   23101,    21342,    26342
*SPRING, ELSET=WK_860

6.194139e-02
*ELEMENT, TYPE=SPRINGA, ELSET=WK_861
   23102,    21345,    26343
*SPRING, ELSET=WK_861

6.194139e-02
*ELEMENT, TYPE=SPRINGA, ELSET=WK_862
   23103,    21348,    26344
*SPRING, ELSET=WK_862

6.194139e-02
*ELEMENT, TYPE=SPRINGA, ELSET=WK_863
   23104,    21351,    26345
*SPRING, ELSET=WK_863

6.194139e-02
*ELEMENT, TYPE=SPRINGA, ELSET=WK_864
   23105,    21354,    26346
*SPRING, ELSET=WK_864

6.194139e-02
*ELEMENT, TYPE=SPRINGA, ELSET=WK_865
   23106,    21357,    26347
*SPRING, ELSET=WK_865

6.194139e-02
*ELEMENT, TYPE=SPRINGA, ELSET=WK_866
   23107,    21360,    26348
*SPRING, ELSET=WK_866

6.194139e-02
*ELEMENT, TYPE=SPRINGA, ELSET=WK_867
   23108,    21363,    26349
*SPRING, ELSET=WK_867

6.194139e-02
*ELEMENT, TYPE=SPRINGA, ELSET=WK_868
   23109,    21366,    26350
*SPRING, ELSET=WK_868

6.194139e-02
*ELEMENT, TYPE=SPRINGA, ELSET=WK_869
   23110,    21369,    26351
*SPRING, ELSET=WK_869

6.194139e-02
*ELEMENT, TYPE=SPRINGA, ELSET=WK_870
   23111,    21372,    26352
*SPRING, ELSET=WK_870

6.194139e-02
*ELEMENT, TYPE=SPRINGA, ELSET=WK_871
   23112,    21375,    26353
*SPRING, ELSET=WK_871

6.194139e-02
*ELEMENT, TYPE=SPRINGA, ELSET=WK_872
   23113,    21378,    26354
*SPRING, ELSET=WK_872

6.194139e-02
*ELEMENT, TYPE=SPRINGA, ELSET=WK_873
   23114,    21381,    26355
*SPRING, ELSET=WK_873

6.194139e-02
*ELEMENT, TYPE=SPRINGA, ELSET=WK_874
   23115,    21384,    26356
*SPRING, ELSET=WK_874

6.194139e-02
*ELEMENT, TYPE=SPRINGA, ELSET=WK_875
   23116,    21387,    26357
*SPRING, ELSET=WK_875

6.194139e-02
*ELEMENT, TYPE=SPRINGA, ELSET=WK_876
   23117,    21390,    26358
*SPRING, ELSET=WK_876

6.194139e-02
*ELEMENT, TYPE=SPRINGA, ELSET=WK_877
   23118,    21393,    26359
*SPRING, ELSET=WK_877

6.194139e-02
*ELEMENT, TYPE=SPRINGA, ELSET=WK_878
   23119,    21396,    26360
*SPRING, ELSET=WK_878

6.194139e-02
*ELEMENT, TYPE=SPRINGA, ELSET=WK_879
   23120,    21399,    26361
*SPRING, ELSET=WK_879

6.194139e-02
*ELEMENT, TYPE=SPRINGA, ELSET=WK_880
   23121,    21402,    26362
*SPRING, ELSET=WK_880

6.194139e-02
*ELEMENT, TYPE=SPRINGA, ELSET=WK_881
   23122,    21405,    26363
*SPRING, ELSET=WK_881

6.194139e-02
*ELEMENT, TYPE=SPRINGA, ELSET=WK_882
   23123,    21408,    26364
*SPRING, ELSET=WK_882

6.194139e-02
*ELEMENT, TYPE=SPRINGA, ELSET=WK_883
   23124,    21411,    26365
*SPRING, ELSET=WK_883

6.194139e-02
*ELEMENT, TYPE=SPRINGA, ELSET=WK_884
   23125,    21414,    26366
*SPRING, ELSET=WK_884

6.194139e-02
*ELEMENT, TYPE=SPRINGA, ELSET=WK_885
   23126,    21417,    26367
*SPRING, ELSET=WK_885

6.194139e-02
*ELEMENT, TYPE=SPRINGA, ELSET=WK_886
   23127,    21420,    26368
*SPRING, ELSET=WK_886

6.194139e-02
*ELEMENT, TYPE=SPRINGA, ELSET=WK_887
   23128,    21423,    26369
*SPRING, ELSET=WK_887

6.194139e-02
*ELEMENT, TYPE=SPRINGA, ELSET=WK_888
   23129,    21426,    26370
*SPRING, ELSET=WK_888

6.194139e-02
*ELEMENT, TYPE=SPRINGA, ELSET=WK_889
   23130,    21429,    26371
*SPRING, ELSET=WK_889

6.194139e-02
*ELEMENT, TYPE=SPRINGA, ELSET=WK_890
   23131,    21432,    26372
*SPRING, ELSET=WK_890

6.194139e-02
*ELEMENT, TYPE=SPRINGA, ELSET=WK_891
   23132,    21435,    26373
*SPRING, ELSET=WK_891

6.194139e-02
*ELEMENT, TYPE=SPRINGA, ELSET=WK_892
   23133,    21438,    26374
*SPRING, ELSET=WK_892

6.194139e-02
*ELEMENT, TYPE=SPRINGA, ELSET=WK_893
   23134,    21441,    26375
*SPRING, ELSET=WK_893

6.194139e-02
*ELEMENT, TYPE=SPRINGA, ELSET=WK_894
   23135,    21444,    26376
*SPRING, ELSET=WK_894

6.194139e-02
*ELEMENT, TYPE=SPRINGA, ELSET=WK_895
   23136,    21447,    26377
*SPRING, ELSET=WK_895

6.194139e-02
*ELEMENT, TYPE=SPRINGA, ELSET=WK_896
   23137,    21450,    26378
*SPRING, ELSET=WK_896

6.194139e-02
*ELEMENT, TYPE=SPRINGA, ELSET=WK_897
   23138,    21453,    26379
*SPRING, ELSET=WK_897

6.194139e-02
*ELEMENT, TYPE=SPRINGA, ELSET=WK_898
   23139,    21456,    26380
*SPRING, ELSET=WK_898

6.194139e-02
*ELEMENT, TYPE=SPRINGA, ELSET=WK_899
   23140,    21459,    26381
*SPRING, ELSET=WK_899

6.194139e-02
*ELEMENT, TYPE=SPRINGA, ELSET=WK_900
   23141,    21462,    26382
*SPRING, ELSET=WK_900

6.194139e-02
*ELEMENT, TYPE=SPRINGA, ELSET=WK_901
   23142,    21465,    26383
*SPRING, ELSET=WK_901

6.194139e-02
*ELEMENT, TYPE=SPRINGA, ELSET=WK_902
   23143,    21468,    26384
*SPRING, ELSET=WK_902

6.194139e-02
*ELEMENT, TYPE=SPRINGA, ELSET=WK_903
   23144,    21471,    26385
*SPRING, ELSET=WK_903

6.194139e-02
*ELEMENT, TYPE=SPRINGA, ELSET=WK_904
   23145,    21474,    26386
*SPRING, ELSET=WK_904

6.194139e-02
*ELEMENT, TYPE=SPRINGA, ELSET=WK_905
   23146,    21477,    26387
*SPRING, ELSET=WK_905

6.194139e-02
*ELEMENT, TYPE=SPRINGA, ELSET=WK_906
   23147,    21480,    26388
*SPRING, ELSET=WK_906

6.194139e-02
*ELEMENT, TYPE=SPRINGA, ELSET=WK_907
   23148,    21483,    26389
*SPRING, ELSET=WK_907

6.194139e-02
*ELEMENT, TYPE=SPRINGA, ELSET=WK_908
   23149,    21486,    26390
*SPRING, ELSET=WK_908

6.194139e-02
*ELEMENT, TYPE=SPRINGA, ELSET=WK_909
   23150,    21489,    26391
*SPRING, ELSET=WK_909

6.194139e-02
*ELEMENT, TYPE=SPRINGA, ELSET=WK_910
   23151,    21492,    26392
*SPRING, ELSET=WK_910

6.194139e-02
*ELEMENT, TYPE=SPRINGA, ELSET=WK_911
   23152,    21495,    26393
*SPRING, ELSET=WK_911

6.194139e-02
*ELEMENT, TYPE=SPRINGA, ELSET=WK_912
   23153,    21498,    26394
*SPRING, ELSET=WK_912

6.194139e-02
*ELEMENT, TYPE=SPRINGA, ELSET=WK_913
   23154,    21501,    26395
*SPRING, ELSET=WK_913

6.194139e-02
*ELEMENT, TYPE=SPRINGA, ELSET=WK_914
   23155,    21504,    26396
*SPRING, ELSET=WK_914

6.194139e-02
*ELEMENT, TYPE=SPRINGA, ELSET=WK_915
   23156,    21507,    26397
*SPRING, ELSET=WK_915

6.194139e-02
*ELEMENT, TYPE=SPRINGA, ELSET=WK_916
   23157,    21510,    26398
*SPRING, ELSET=WK_916

6.194139e-02
*ELEMENT, TYPE=SPRINGA, ELSET=WK_917
   23158,    21513,    26399
*SPRING, ELSET=WK_917

6.194139e-02
*ELEMENT, TYPE=SPRINGA, ELSET=WK_918
   23159,    21516,    26400
*SPRING, ELSET=WK_918

6.194139e-02
*ELEMENT, TYPE=SPRINGA, ELSET=WK_919
   23160,    21519,    26401
*SPRING, ELSET=WK_919

6.194139e-02
*ELEMENT, TYPE=SPRINGA, ELSET=WK_920
   23161,    21522,    26402
*SPRING, ELSET=WK_920

6.194139e-02
*ELEMENT, TYPE=SPRINGA, ELSET=WK_921
   23162,    21525,    26403
*SPRING, ELSET=WK_921

6.194139e-02
*ELEMENT, TYPE=SPRINGA, ELSET=WK_922
   23163,    21528,    26404
*SPRING, ELSET=WK_922

6.194139e-02
*ELEMENT, TYPE=SPRINGA, ELSET=WK_923
   23164,    21531,    26405
*SPRING, ELSET=WK_923

6.194139e-02
*ELEMENT, TYPE=SPRINGA, ELSET=WK_924
   23165,    21534,    26406
*SPRING, ELSET=WK_924

6.194139e-02
*ELEMENT, TYPE=SPRINGA, ELSET=WK_925
   23166,    21537,    26407
*SPRING, ELSET=WK_925

6.194139e-02
*ELEMENT, TYPE=SPRINGA, ELSET=WK_926
   23167,    21540,    26408
*SPRING, ELSET=WK_926

6.194139e-02
*ELEMENT, TYPE=SPRINGA, ELSET=WK_927
   23168,    21543,    26409
*SPRING, ELSET=WK_927

6.194139e-02
*ELEMENT, TYPE=SPRINGA, ELSET=WK_928
   23169,    21546,    26410
*SPRING, ELSET=WK_928

6.194139e-02
*ELEMENT, TYPE=SPRINGA, ELSET=WK_929
   23170,    21549,    26411
*SPRING, ELSET=WK_929

6.194139e-02
*ELEMENT, TYPE=SPRINGA, ELSET=WK_930
   23171,    21552,    26412
*SPRING, ELSET=WK_930

6.194139e-02
*ELEMENT, TYPE=SPRINGA, ELSET=WK_931
   23172,    21555,    26413
*SPRING, ELSET=WK_931

6.194139e-02
*ELEMENT, TYPE=SPRINGA, ELSET=WK_932
   23173,    21558,    26414
*SPRING, ELSET=WK_932

6.194139e-02
*ELEMENT, TYPE=SPRINGA, ELSET=WK_933
   23174,    21561,    26415
*SPRING, ELSET=WK_933

6.194139e-02
*ELEMENT, TYPE=SPRINGA, ELSET=WK_934
   23175,    21564,    26416
*SPRING, ELSET=WK_934

6.194139e-02
*ELEMENT, TYPE=SPRINGA, ELSET=WK_935
   23176,    21567,    26417
*SPRING, ELSET=WK_935

6.194139e-02
*ELEMENT, TYPE=SPRINGA, ELSET=WK_936
   23177,    21570,    26418
*SPRING, ELSET=WK_936

6.194139e-02
*ELEMENT, TYPE=SPRINGA, ELSET=WK_937
   23178,    21573,    26419
*SPRING, ELSET=WK_937

6.194139e-02
*ELEMENT, TYPE=SPRINGA, ELSET=WK_938
   23179,    21576,    26420
*SPRING, ELSET=WK_938

6.194139e-02
*ELEMENT, TYPE=SPRINGA, ELSET=WK_939
   23180,    21579,    26421
*SPRING, ELSET=WK_939

6.194139e-02
*ELEMENT, TYPE=SPRINGA, ELSET=WK_940
   23181,    21582,    26422
*SPRING, ELSET=WK_940

6.194139e-02
*ELEMENT, TYPE=SPRINGA, ELSET=WK_941
   23182,    21585,    26423
*SPRING, ELSET=WK_941

6.194139e-02
*ELEMENT, TYPE=SPRINGA, ELSET=WK_942
   23183,    21588,    26424
*SPRING, ELSET=WK_942

6.194139e-02
*ELEMENT, TYPE=SPRINGA, ELSET=WK_943
   23184,    21591,    26425
*SPRING, ELSET=WK_943

6.194139e-02
*ELEMENT, TYPE=SPRINGA, ELSET=WK_944
   23185,    21594,    26426
*SPRING, ELSET=WK_944

6.194139e-02
*ELEMENT, TYPE=SPRINGA, ELSET=WK_945
   23186,    21597,    26427
*SPRING, ELSET=WK_945

6.194139e-02
*ELEMENT, TYPE=SPRINGA, ELSET=WK_946
   23187,    21600,    26428
*SPRING, ELSET=WK_946

6.194139e-02
*ELEMENT, TYPE=SPRINGA, ELSET=WK_947
   23188,    21603,    26429
*SPRING, ELSET=WK_947

6.194139e-02
*ELEMENT, TYPE=SPRINGA, ELSET=WK_948
   23189,    21606,    26430
*SPRING, ELSET=WK_948

6.194139e-02
*ELEMENT, TYPE=SPRINGA, ELSET=WK_949
   23190,    21609,    26431
*SPRING, ELSET=WK_949

6.194139e-02
*ELEMENT, TYPE=SPRINGA, ELSET=WK_950
   23191,    21612,    26432
*SPRING, ELSET=WK_950

6.194139e-02
*ELEMENT, TYPE=SPRINGA, ELSET=WK_951
   23192,    21615,    26433
*SPRING, ELSET=WK_951

6.194139e-02
*ELEMENT, TYPE=SPRINGA, ELSET=WK_952
   23193,    21618,    26434
*SPRING, ELSET=WK_952

6.194139e-02
*ELEMENT, TYPE=SPRINGA, ELSET=WK_953
   23194,    21621,    26435
*SPRING, ELSET=WK_953

6.194139e-02
*ELEMENT, TYPE=SPRINGA, ELSET=WK_954
   23195,    21624,    26436
*SPRING, ELSET=WK_954

6.194139e-02
*ELEMENT, TYPE=SPRINGA, ELSET=WK_955
   23196,    21627,    26437
*SPRING, ELSET=WK_955

6.194139e-02
*ELEMENT, TYPE=SPRINGA, ELSET=WK_956
   23197,    21630,    26438
*SPRING, ELSET=WK_956

6.194139e-02
*ELEMENT, TYPE=SPRINGA, ELSET=WK_957
   23198,    21633,    26439
*SPRING, ELSET=WK_957

6.194139e-02
*ELEMENT, TYPE=SPRINGA, ELSET=WK_958
   23199,    21636,    26440
*SPRING, ELSET=WK_958

6.194139e-02
*ELEMENT, TYPE=SPRINGA, ELSET=WK_959
   23200,    21639,    26441
*SPRING, ELSET=WK_959

6.194139e-02
*ELEMENT, TYPE=SPRINGA, ELSET=WK_960
   23201,    21642,    26442
*SPRING, ELSET=WK_960

6.194139e-02
*ELEMENT, TYPE=SPRINGA, ELSET=WK_961
   23202,    21645,    26443
*SPRING, ELSET=WK_961

6.194139e-02
*ELEMENT, TYPE=SPRINGA, ELSET=WK_962
   23203,    21648,    26444
*SPRING, ELSET=WK_962

6.194139e-02
*ELEMENT, TYPE=SPRINGA, ELSET=WK_963
   23204,    21651,    26445
*SPRING, ELSET=WK_963

6.194139e-02
*ELEMENT, TYPE=SPRINGA, ELSET=WK_964
   23205,    21654,    26446
*SPRING, ELSET=WK_964

6.194139e-02
*ELEMENT, TYPE=SPRINGA, ELSET=WK_965
   23206,    21657,    26447
*SPRING, ELSET=WK_965

6.194139e-02
*ELEMENT, TYPE=SPRINGA, ELSET=WK_966
   23207,    21660,    26448
*SPRING, ELSET=WK_966

6.194139e-02
*ELEMENT, TYPE=SPRINGA, ELSET=WK_967
   23208,    21663,    26449
*SPRING, ELSET=WK_967

6.194139e-02
*ELEMENT, TYPE=SPRINGA, ELSET=WK_968
   23209,    21666,    26450
*SPRING, ELSET=WK_968

6.194139e-02
*ELEMENT, TYPE=SPRINGA, ELSET=WK_969
   23210,    21669,    26451
*SPRING, ELSET=WK_969

6.194139e-02
*ELEMENT, TYPE=SPRINGA, ELSET=WK_970
   23211,    21672,    26452
*SPRING, ELSET=WK_970

6.194139e-02
*ELEMENT, TYPE=SPRINGA, ELSET=WK_971
   23212,    21675,    26453
*SPRING, ELSET=WK_971

6.194139e-02
*ELEMENT, TYPE=SPRINGA, ELSET=WK_972
   23213,    21678,    26454
*SPRING, ELSET=WK_972

6.194139e-02
*ELEMENT, TYPE=SPRINGA, ELSET=WK_973
   23214,    21681,    26455
*SPRING, ELSET=WK_973

6.194139e-02
*ELEMENT, TYPE=SPRINGA, ELSET=WK_974
   23215,    21684,    26456
*SPRING, ELSET=WK_974

6.194139e-02
*ELEMENT, TYPE=SPRINGA, ELSET=WK_975
   23216,    21687,    26457
*SPRING, ELSET=WK_975

6.194139e-02
*ELEMENT, TYPE=SPRINGA, ELSET=WK_976
   23217,    21690,    26458
*SPRING, ELSET=WK_976

6.194139e-02
*ELEMENT, TYPE=SPRINGA, ELSET=WK_977
   23218,    21693,    26459
*SPRING, ELSET=WK_977

6.194139e-02
*ELEMENT, TYPE=SPRINGA, ELSET=WK_978
   23219,    21696,    26460
*SPRING, ELSET=WK_978

6.194139e-02
*ELEMENT, TYPE=SPRINGA, ELSET=WK_979
   23220,    21699,    26461
*SPRING, ELSET=WK_979

6.194139e-02
*ELEMENT, TYPE=SPRINGA, ELSET=WK_980
   23221,    21702,    26462
*SPRING, ELSET=WK_980

6.194139e-02
*ELEMENT, TYPE=SPRINGA, ELSET=WK_981
   23222,    21705,    26463
*SPRING, ELSET=WK_981

6.194139e-02
*ELEMENT, TYPE=SPRINGA, ELSET=WK_982
   23223,    21708,    26464
*SPRING, ELSET=WK_982

6.194139e-02
*ELEMENT, TYPE=SPRINGA, ELSET=WK_983
   23224,    21711,    26465
*SPRING, ELSET=WK_983

6.194139e-02
*ELEMENT, TYPE=SPRINGA, ELSET=WK_984
   23225,    21714,    26466
*SPRING, ELSET=WK_984

6.194139e-02
*ELEMENT, TYPE=SPRINGA, ELSET=WK_985
   23226,    21717,    26467
*SPRING, ELSET=WK_985

6.194139e-02
*ELEMENT, TYPE=SPRINGA, ELSET=WK_986
   23227,    21720,    26468
*SPRING, ELSET=WK_986

6.194139e-02
*ELEMENT, TYPE=SPRINGA, ELSET=WK_987
   23228,    21723,    26469
*SPRING, ELSET=WK_987

6.194139e-02
*ELEMENT, TYPE=SPRINGA, ELSET=WK_988
   23229,    21726,    26470
*SPRING, ELSET=WK_988

6.194139e-02
*ELEMENT, TYPE=SPRINGA, ELSET=WK_989
   23230,    21729,    26471
*SPRING, ELSET=WK_989

6.194139e-02
*ELEMENT, TYPE=SPRINGA, ELSET=WK_990
   23231,    21732,    26472
*SPRING, ELSET=WK_990

6.194139e-02
*ELEMENT, TYPE=SPRINGA, ELSET=WK_991
   23232,    21735,    26473
*SPRING, ELSET=WK_991

6.194139e-02
*ELEMENT, TYPE=SPRINGA, ELSET=WK_992
   23233,    21738,    26474
*SPRING, ELSET=WK_992

6.194139e-02
*ELEMENT, TYPE=SPRINGA, ELSET=WK_993
   23234,    21741,    26475
*SPRING, ELSET=WK_993

6.194139e-02
*ELEMENT, TYPE=SPRINGA, ELSET=WK_994
   23235,    21744,    26476
*SPRING, ELSET=WK_994

6.194139e-02
*ELEMENT, TYPE=SPRINGA, ELSET=WK_995
   23236,    21747,    26477
*SPRING, ELSET=WK_995

6.194139e-02
*ELEMENT, TYPE=SPRINGA, ELSET=WK_996
   23237,    21750,    26478
*SPRING, ELSET=WK_996

6.194139e-02
*ELEMENT, TYPE=SPRINGA, ELSET=WK_997
   23238,    21753,    26479
*SPRING, ELSET=WK_997

6.194139e-02
*ELEMENT, TYPE=SPRINGA, ELSET=WK_998
   23239,    21756,    26480
*SPRING, ELSET=WK_998

6.194139e-02
*ELEMENT, TYPE=SPRINGA, ELSET=WK_999
   23240,    21759,    26481
*SPRING, ELSET=WK_999

6.194139e-02
*ELEMENT, TYPE=SPRINGA, ELSET=WK_1000
   23241,    21762,    26482
*SPRING, ELSET=WK_1000

6.194139e-02
*ELEMENT, TYPE=SPRINGA, ELSET=WK_1001
   23242,    21765,    26483
*SPRING, ELSET=WK_1001

6.194139e-02
*ELEMENT, TYPE=SPRINGA, ELSET=WK_1002
   23243,    21768,    26484
*SPRING, ELSET=WK_1002

6.194139e-02
*ELEMENT, TYPE=SPRINGA, ELSET=WK_1003
   23244,    21771,    26485
*SPRING, ELSET=WK_1003

6.194139e-02
*ELEMENT, TYPE=SPRINGA, ELSET=WK_1004
   23245,    21774,    26486
*SPRING, ELSET=WK_1004

6.194139e-02
*ELEMENT, TYPE=SPRINGA, ELSET=WK_1005
   23246,    21777,    26487
*SPRING, ELSET=WK_1005

6.194139e-02
*ELEMENT, TYPE=SPRINGA, ELSET=WK_1006
   23247,    21780,    26488
*SPRING, ELSET=WK_1006

6.194139e-02
*ELEMENT, TYPE=SPRINGA, ELSET=WK_1007
   23248,    21783,    26489
*SPRING, ELSET=WK_1007

6.194139e-02
*ELEMENT, TYPE=SPRINGA, ELSET=WK_1008
   23249,    21786,    26490
*SPRING, ELSET=WK_1008

6.194139e-02
*ELEMENT, TYPE=SPRINGA, ELSET=WK_1009
   23250,    21789,    26491
*SPRING, ELSET=WK_1009

6.194139e-02
*ELEMENT, TYPE=SPRINGA, ELSET=WK_1010
   23251,    21792,    26492
*SPRING, ELSET=WK_1010

6.194139e-02
*ELEMENT, TYPE=SPRINGA, ELSET=WK_1011
   23252,    21795,    26493
*SPRING, ELSET=WK_1011

6.194139e-02
*ELEMENT, TYPE=SPRINGA, ELSET=WK_1012
   23253,    21798,    26494
*SPRING, ELSET=WK_1012

6.194139e-02
*ELEMENT, TYPE=SPRINGA, ELSET=WK_1013
   23254,    21801,    26495
*SPRING, ELSET=WK_1013

6.194139e-02
*ELEMENT, TYPE=SPRINGA, ELSET=WK_1014
   23255,    21804,    26496
*SPRING, ELSET=WK_1014

6.194139e-02
*ELEMENT, TYPE=SPRINGA, ELSET=WK_1015
   23256,    21807,    26497
*SPRING, ELSET=WK_1015

6.194139e-02
*ELEMENT, TYPE=SPRINGA, ELSET=WK_1016
   23257,    21810,    26498
*SPRING, ELSET=WK_1016

6.194139e-02
*ELEMENT, TYPE=SPRINGA, ELSET=WK_1017
   23258,    21813,    26499
*SPRING, ELSET=WK_1017

6.194139e-02
*ELEMENT, TYPE=SPRINGA, ELSET=WK_1018
   23259,    21816,    26500
*SPRING, ELSET=WK_1018

6.194139e-02
*ELEMENT, TYPE=SPRINGA, ELSET=WK_1019
   23260,    21819,    26501
*SPRING, ELSET=WK_1019

6.194139e-02
*ELEMENT, TYPE=SPRINGA, ELSET=WK_1020
   23261,    21822,    26502
*SPRING, ELSET=WK_1020

6.194139e-02
*ELEMENT, TYPE=SPRINGA, ELSET=WK_1021
   23262,    21825,    26503
*SPRING, ELSET=WK_1021

6.194139e-02
*ELEMENT, TYPE=SPRINGA, ELSET=WK_1022
   23263,    21828,    26504
*SPRING, ELSET=WK_1022

6.194139e-02
*ELEMENT, TYPE=SPRINGA, ELSET=WK_1023
   23264,    21831,    26505
*SPRING, ELSET=WK_1023

6.194139e-02
*ELEMENT, TYPE=SPRINGA, ELSET=WK_1024
   23265,    21834,    26506
*SPRING, ELSET=WK_1024

6.194139e-02
*ELEMENT, TYPE=SPRINGA, ELSET=WK_1025
   23266,    21837,    26507
*SPRING, ELSET=WK_1025

6.194139e-02
*ELEMENT, TYPE=SPRINGA, ELSET=WK_1026
   23267,    21840,    26508
*SPRING, ELSET=WK_1026

6.194139e-02
*ELEMENT, TYPE=SPRINGA, ELSET=WK_1027
   23268,    21843,    26509
*SPRING, ELSET=WK_1027

6.194139e-02
*ELEMENT, TYPE=SPRINGA, ELSET=WK_1028
   23269,    21846,    26510
*SPRING, ELSET=WK_1028

6.194139e-02
*ELEMENT, TYPE=SPRINGA, ELSET=WK_1029
   23270,    21849,    26511
*SPRING, ELSET=WK_1029

6.194139e-02
*ELEMENT, TYPE=SPRINGA, ELSET=WK_1030
   23271,    21852,    26512
*SPRING, ELSET=WK_1030

6.194139e-02
*ELEMENT, TYPE=SPRINGA, ELSET=WK_1031
   23272,    21855,    26513
*SPRING, ELSET=WK_1031

6.194139e-02
*ELEMENT, TYPE=SPRINGA, ELSET=WK_1032
   23273,    21858,    26514
*SPRING, ELSET=WK_1032

6.194139e-02
*ELEMENT, TYPE=SPRINGA, ELSET=WK_1033
   23274,    21861,    26515
*SPRING, ELSET=WK_1033

6.194139e-02
*ELEMENT, TYPE=SPRINGA, ELSET=WK_1034
   23275,    21864,    26516
*SPRING, ELSET=WK_1034

6.194139e-02
*ELEMENT, TYPE=SPRINGA, ELSET=WK_1035
   23276,    21867,    26517
*SPRING, ELSET=WK_1035

6.194139e-02
*ELEMENT, TYPE=SPRINGA, ELSET=WK_1036
   23277,    21870,    26518
*SPRING, ELSET=WK_1036

6.194139e-02
*ELEMENT, TYPE=SPRINGA, ELSET=WK_1037
   23278,    21873,    26519
*SPRING, ELSET=WK_1037

6.194139e-02
*ELEMENT, TYPE=SPRINGA, ELSET=WK_1038
   23279,    21876,    26520
*SPRING, ELSET=WK_1038

6.194139e-02
*ELEMENT, TYPE=SPRINGA, ELSET=WK_1039
   23280,    21879,    26521
*SPRING, ELSET=WK_1039

6.194139e-02
*ELEMENT, TYPE=SPRINGA, ELSET=WK_1040
   23281,    21882,    26522
*SPRING, ELSET=WK_1040

6.194139e-02
*ELEMENT, TYPE=SPRINGA, ELSET=WK_1041
   23282,    21885,    26523
*SPRING, ELSET=WK_1041

6.194139e-02
*ELEMENT, TYPE=SPRINGA, ELSET=WK_1042
   23283,    21888,    26524
*SPRING, ELSET=WK_1042

6.194139e-02
*ELEMENT, TYPE=SPRINGA, ELSET=WK_1043
   23284,    21891,    26525
*SPRING, ELSET=WK_1043

6.194139e-02
*ELEMENT, TYPE=SPRINGA, ELSET=WK_1044
   23285,    21894,    26526
*SPRING, ELSET=WK_1044

6.194139e-02
*ELEMENT, TYPE=SPRINGA, ELSET=WK_1045
   23286,    21897,    26527
*SPRING, ELSET=WK_1045

6.194139e-02
*ELEMENT, TYPE=SPRINGA, ELSET=WK_1046
   23287,    21900,    26528
*SPRING, ELSET=WK_1046

6.194139e-02
*ELEMENT, TYPE=SPRINGA, ELSET=WK_1047
   23288,    21903,    26529
*SPRING, ELSET=WK_1047

6.194139e-02
*ELEMENT, TYPE=SPRINGA, ELSET=WK_1048
   23289,    21906,    26530
*SPRING, ELSET=WK_1048

6.194139e-02
*ELEMENT, TYPE=SPRINGA, ELSET=WK_1049
   23290,    21909,    26531
*SPRING, ELSET=WK_1049

6.194139e-02
*ELEMENT, TYPE=SPRINGA, ELSET=WK_1050
   23291,    21912,    26532
*SPRING, ELSET=WK_1050

6.194139e-02
*ELEMENT, TYPE=SPRINGA, ELSET=WK_1051
   23292,    21915,    26533
*SPRING, ELSET=WK_1051

6.194139e-02
*ELEMENT, TYPE=SPRINGA, ELSET=WK_1052
   23293,    21918,    26534
*SPRING, ELSET=WK_1052

6.194139e-02
*ELEMENT, TYPE=SPRINGA, ELSET=WK_1053
   23294,    21921,    26535
*SPRING, ELSET=WK_1053

6.194139e-02
*ELEMENT, TYPE=SPRINGA, ELSET=WK_1054
   23295,    21924,    26536
*SPRING, ELSET=WK_1054

6.194139e-02
*ELEMENT, TYPE=SPRINGA, ELSET=WK_1055
   23296,    21927,    26537
*SPRING, ELSET=WK_1055

6.194139e-02
*ELEMENT, TYPE=SPRINGA, ELSET=WK_1056
   23297,    21930,    26538
*SPRING, ELSET=WK_1056

6.194139e-02
*ELEMENT, TYPE=SPRINGA, ELSET=WK_1057
   23298,    21933,    26539
*SPRING, ELSET=WK_1057

6.194139e-02
*ELEMENT, TYPE=SPRINGA, ELSET=WK_1058
   23299,    21936,    26540
*SPRING, ELSET=WK_1058

6.194139e-02
*ELEMENT, TYPE=SPRINGA, ELSET=WK_1059
   23300,    21939,    26541
*SPRING, ELSET=WK_1059

6.194139e-02
*ELEMENT, TYPE=SPRINGA, ELSET=WK_1060
   23301,    21942,    26542
*SPRING, ELSET=WK_1060

6.194139e-02
*ELEMENT, TYPE=SPRINGA, ELSET=WK_1061
   23302,    21945,    26543
*SPRING, ELSET=WK_1061

6.194139e-02
*ELEMENT, TYPE=SPRINGA, ELSET=WK_1062
   23303,    21948,    26544
*SPRING, ELSET=WK_1062

6.194139e-02
*ELEMENT, TYPE=SPRINGA, ELSET=WK_1063
   23304,    21951,    26545
*SPRING, ELSET=WK_1063

6.194139e-02
*ELEMENT, TYPE=SPRINGA, ELSET=WK_1064
   23305,    21954,    26546
*SPRING, ELSET=WK_1064

6.194139e-02
*ELEMENT, TYPE=SPRINGA, ELSET=WK_1065
   23306,    21957,    26547
*SPRING, ELSET=WK_1065

6.194139e-02
*ELEMENT, TYPE=SPRINGA, ELSET=WK_1066
   23307,    21960,    26548
*SPRING, ELSET=WK_1066

6.194139e-02
*ELEMENT, TYPE=SPRINGA, ELSET=WK_1067
   23308,    21963,    26549
*SPRING, ELSET=WK_1067

6.194139e-02
*ELEMENT, TYPE=SPRINGA, ELSET=WK_1068
   23309,    21966,    26550
*SPRING, ELSET=WK_1068

6.194139e-02
*ELEMENT, TYPE=SPRINGA, ELSET=WK_1069
   23310,    21969,    26551
*SPRING, ELSET=WK_1069

6.194139e-02
*ELEMENT, TYPE=SPRINGA, ELSET=WK_1070
   23311,    21972,    26552
*SPRING, ELSET=WK_1070

6.194139e-02
*ELEMENT, TYPE=SPRINGA, ELSET=WK_1071
   23312,    21975,    26553
*SPRING, ELSET=WK_1071

6.194139e-02
*ELEMENT, TYPE=SPRINGA, ELSET=WK_1072
   23313,    21978,    26554
*SPRING, ELSET=WK_1072

6.194139e-02
*ELEMENT, TYPE=SPRINGA, ELSET=WK_1073
   23314,    21981,    26555
*SPRING, ELSET=WK_1073

6.194139e-02
*ELEMENT, TYPE=SPRINGA, ELSET=WK_1074
   23315,    21984,    26556
*SPRING, ELSET=WK_1074

6.194139e-02
*ELEMENT, TYPE=SPRINGA, ELSET=WK_1075
   23316,    21987,    26557
*SPRING, ELSET=WK_1075

6.194139e-02
*ELEMENT, TYPE=SPRINGA, ELSET=WK_1076
   23317,    21990,    26558
*SPRING, ELSET=WK_1076

6.194139e-02
*ELEMENT, TYPE=SPRINGA, ELSET=WK_1077
   23318,    21993,    26559
*SPRING, ELSET=WK_1077

6.194139e-02
*ELEMENT, TYPE=SPRINGA, ELSET=WK_1078
   23319,    21996,    26560
*SPRING, ELSET=WK_1078

6.194139e-02
*ELEMENT, TYPE=SPRINGA, ELSET=WK_1079
   23320,    21999,    26561
*SPRING, ELSET=WK_1079

6.194139e-02
*ELEMENT, TYPE=SPRINGA, ELSET=WK_1080
   23321,    22002,    26562
*SPRING, ELSET=WK_1080

6.194139e-02
*ELEMENT, TYPE=SPRINGA, ELSET=WK_1081
   23322,    22005,    26563
*SPRING, ELSET=WK_1081

6.194139e-02
*ELEMENT, TYPE=SPRINGA, ELSET=WK_1082
   23323,    22008,    26564
*SPRING, ELSET=WK_1082

6.194139e-02
*ELEMENT, TYPE=SPRINGA, ELSET=WK_1083
   23324,    22011,    26565
*SPRING, ELSET=WK_1083

6.194139e-02
*ELEMENT, TYPE=SPRINGA, ELSET=WK_1084
   23325,    22014,    26566
*SPRING, ELSET=WK_1084

6.194139e-02
*ELEMENT, TYPE=SPRINGA, ELSET=WK_1085
   23326,    22017,    26567
*SPRING, ELSET=WK_1085

6.194139e-02
*ELEMENT, TYPE=SPRINGA, ELSET=WK_1086
   23327,    22020,    26568
*SPRING, ELSET=WK_1086

6.194139e-02
*ELEMENT, TYPE=SPRINGA, ELSET=WK_1087
   23328,    22023,    26569
*SPRING, ELSET=WK_1087

6.194139e-02
*ELEMENT, TYPE=SPRINGA, ELSET=WK_1088
   23329,    22026,    26570
*SPRING, ELSET=WK_1088

6.194139e-02
*ELEMENT, TYPE=SPRINGA, ELSET=WK_1089
   23330,    22029,    26571
*SPRING, ELSET=WK_1089

6.194139e-02
*ELEMENT, TYPE=SPRINGA, ELSET=WK_1090
   23331,    22032,    26572
*SPRING, ELSET=WK_1090

6.194139e-02
*ELEMENT, TYPE=SPRINGA, ELSET=WK_1091
   23332,    22035,    26573
*SPRING, ELSET=WK_1091

6.194139e-02
*ELEMENT, TYPE=SPRINGA, ELSET=WK_1092
   23333,    22038,    26574
*SPRING, ELSET=WK_1092

6.194139e-02
*ELEMENT, TYPE=SPRINGA, ELSET=WK_1093
   23334,    22041,    26575
*SPRING, ELSET=WK_1093

6.194139e-02
*ELEMENT, TYPE=SPRINGA, ELSET=WK_1094
   23335,    22044,    26576
*SPRING, ELSET=WK_1094

6.194139e-02
*ELEMENT, TYPE=SPRINGA, ELSET=WK_1095
   23336,    22047,    26577
*SPRING, ELSET=WK_1095

6.194139e-02
*ELEMENT, TYPE=SPRINGA, ELSET=WK_1096
   23337,    22050,    26578
*SPRING, ELSET=WK_1096

6.194139e-02
*ELEMENT, TYPE=SPRINGA, ELSET=WK_1097
   23338,    22053,    26579
*SPRING, ELSET=WK_1097

6.194139e-02
*ELEMENT, TYPE=SPRINGA, ELSET=WK_1098
   23339,    22056,    26580
*SPRING, ELSET=WK_1098

6.194139e-02
*ELEMENT, TYPE=SPRINGA, ELSET=WK_1099
   23340,    22059,    26581
*SPRING, ELSET=WK_1099

6.194139e-02
*ELEMENT, TYPE=SPRINGA, ELSET=WK_1100
   23341,    22062,    26582
*SPRING, ELSET=WK_1100

6.194139e-02
*ELEMENT, TYPE=SPRINGA, ELSET=WK_1101
   23342,    22065,    26583
*SPRING, ELSET=WK_1101

6.194139e-02
*ELEMENT, TYPE=SPRINGA, ELSET=WK_1102
   23343,    22068,    26584
*SPRING, ELSET=WK_1102

6.194139e-02
*ELEMENT, TYPE=SPRINGA, ELSET=WK_1103
   23344,    22071,    26585
*SPRING, ELSET=WK_1103

6.194139e-02
*ELEMENT, TYPE=SPRINGA, ELSET=WK_1104
   23345,    22074,    26586
*SPRING, ELSET=WK_1104

6.194139e-02
*ELEMENT, TYPE=SPRINGA, ELSET=WK_1105
   23346,    22077,    26587
*SPRING, ELSET=WK_1105

6.194139e-02
*ELEMENT, TYPE=SPRINGA, ELSET=WK_1106
   23347,    22080,    26588
*SPRING, ELSET=WK_1106

6.194139e-02
*ELEMENT, TYPE=SPRINGA, ELSET=WK_1107
   23348,    22083,    26589
*SPRING, ELSET=WK_1107

6.194139e-02
*ELEMENT, TYPE=SPRINGA, ELSET=WK_1108
   23349,    22086,    26590
*SPRING, ELSET=WK_1108

6.194139e-02
*ELEMENT, TYPE=SPRINGA, ELSET=WK_1109
   23350,    22089,    26591
*SPRING, ELSET=WK_1109

6.194139e-02
*ELEMENT, TYPE=SPRINGA, ELSET=WK_1110
   23351,    22092,    26592
*SPRING, ELSET=WK_1110

6.194139e-02
*ELEMENT, TYPE=SPRINGA, ELSET=WK_1111
   23352,    22095,    26593
*SPRING, ELSET=WK_1111

6.194139e-02
*ELEMENT, TYPE=SPRINGA, ELSET=WK_1112
   23353,    22098,    26594
*SPRING, ELSET=WK_1112

6.194139e-02
*ELEMENT, TYPE=SPRINGA, ELSET=WK_1113
   23354,    22101,    26595
*SPRING, ELSET=WK_1113

6.194139e-02
*ELEMENT, TYPE=SPRINGA, ELSET=WK_1114
   23355,    22104,    26596
*SPRING, ELSET=WK_1114

6.194139e-02
*ELEMENT, TYPE=SPRINGA, ELSET=WK_1115
   23356,    22107,    26597
*SPRING, ELSET=WK_1115

6.194139e-02
*ELEMENT, TYPE=SPRINGA, ELSET=WK_1116
   23357,    22110,    26598
*SPRING, ELSET=WK_1116

6.194139e-02
*ELEMENT, TYPE=SPRINGA, ELSET=WK_1117
   23358,    22113,    26599
*SPRING, ELSET=WK_1117

6.194139e-02
*ELEMENT, TYPE=SPRINGA, ELSET=WK_1118
   23359,    22116,    26600
*SPRING, ELSET=WK_1118

6.194139e-02
*ELEMENT, TYPE=SPRINGA, ELSET=WK_1119
   23360,    22119,    26601
*SPRING, ELSET=WK_1119

6.194139e-02
*ELEMENT, TYPE=SPRINGA, ELSET=WK_1120
   23361,    22122,    26602
*SPRING, ELSET=WK_1120

6.194139e-02
*ELEMENT, TYPE=SPRINGA, ELSET=WK_1121
   23362,    22125,    26603
*SPRING, ELSET=WK_1121

6.194139e-02
*ELEMENT, TYPE=SPRINGA, ELSET=WK_1122
   23363,    22128,    26604
*SPRING, ELSET=WK_1122

6.194139e-02
*ELEMENT, TYPE=SPRINGA, ELSET=WK_1123
   23364,    22131,    26605
*SPRING, ELSET=WK_1123

6.194139e-02
*ELEMENT, TYPE=SPRINGA, ELSET=WK_1124
   23365,    22134,    26606
*SPRING, ELSET=WK_1124

6.194139e-02
*ELEMENT, TYPE=SPRINGA, ELSET=WK_1125
   23366,    22137,    26607
*SPRING, ELSET=WK_1125

6.194139e-02
*ELEMENT, TYPE=SPRINGA, ELSET=WK_1126
   23367,    22140,    26608
*SPRING, ELSET=WK_1126

6.194139e-02
*ELEMENT, TYPE=SPRINGA, ELSET=WK_1127
   23368,    22143,    26609
*SPRING, ELSET=WK_1127

6.194139e-02
*ELEMENT, TYPE=SPRINGA, ELSET=WK_1128
   23369,    22146,    26610
*SPRING, ELSET=WK_1128

6.194139e-02
*ELEMENT, TYPE=SPRINGA, ELSET=WK_1129
   23370,    22149,    26611
*SPRING, ELSET=WK_1129

6.194139e-02
*ELEMENT, TYPE=SPRINGA, ELSET=WK_1130
   23371,    22152,    26612
*SPRING, ELSET=WK_1130

6.194139e-02
*ELEMENT, TYPE=SPRINGA, ELSET=WK_1131
   23372,    22155,    26613
*SPRING, ELSET=WK_1131

6.194139e-02
*ELEMENT, TYPE=SPRINGA, ELSET=WK_1132
   23373,    22158,    26614
*SPRING, ELSET=WK_1132

6.194139e-02
*ELEMENT, TYPE=SPRINGA, ELSET=WK_1133
   23374,    22161,    26615
*SPRING, ELSET=WK_1133

6.194139e-02
*ELEMENT, TYPE=SPRINGA, ELSET=WK_1134
   23375,    22164,    26616
*SPRING, ELSET=WK_1134

6.194139e-02
*ELEMENT, TYPE=SPRINGA, ELSET=WK_1135
   23376,    22167,    26617
*SPRING, ELSET=WK_1135

6.194139e-02
*ELEMENT, TYPE=SPRINGA, ELSET=WK_1136
   23377,    22170,    26618
*SPRING, ELSET=WK_1136

6.194139e-02
*ELEMENT, TYPE=SPRINGA, ELSET=WK_1137
   23378,    22173,    26619
*SPRING, ELSET=WK_1137

6.194139e-02
*ELEMENT, TYPE=SPRINGA, ELSET=WK_1138
   23379,    22176,    26620
*SPRING, ELSET=WK_1138

6.194139e-02
*ELEMENT, TYPE=SPRINGA, ELSET=WK_1139
   23380,    22179,    26621
*SPRING, ELSET=WK_1139

6.194139e-02
*ELEMENT, TYPE=SPRINGA, ELSET=WK_1140
   23381,    22182,    26622
*SPRING, ELSET=WK_1140

6.194139e-02
*ELEMENT, TYPE=SPRINGA, ELSET=WK_1141
   23382,    22185,    26623
*SPRING, ELSET=WK_1141

6.194139e-02
*ELEMENT, TYPE=SPRINGA, ELSET=WK_1142
   23383,    22188,    26624
*SPRING, ELSET=WK_1142

6.194139e-02
*ELEMENT, TYPE=SPRINGA, ELSET=WK_1143
   23384,    22191,    26625
*SPRING, ELSET=WK_1143

6.194139e-02
*ELEMENT, TYPE=SPRINGA, ELSET=WK_1144
   23385,    22194,    26626
*SPRING, ELSET=WK_1144

6.194139e-02
*ELEMENT, TYPE=SPRINGA, ELSET=WK_1145
   23386,    22197,    26627
*SPRING, ELSET=WK_1145

6.194139e-02
*ELEMENT, TYPE=SPRINGA, ELSET=WK_1146
   23387,    22200,    26628
*SPRING, ELSET=WK_1146

6.194139e-02
*ELEMENT, TYPE=SPRINGA, ELSET=WK_1147
   23388,    22203,    26629
*SPRING, ELSET=WK_1147

6.194139e-02
*ELEMENT, TYPE=SPRINGA, ELSET=WK_1148
   23389,    22206,    26630
*SPRING, ELSET=WK_1148

6.194139e-02
*ELEMENT, TYPE=SPRINGA, ELSET=WK_1149
   23390,    22209,    26631
*SPRING, ELSET=WK_1149

6.194139e-02
*ELEMENT, TYPE=SPRINGA, ELSET=WK_1150
   23391,    22212,    26632
*SPRING, ELSET=WK_1150

6.194139e-02
*ELEMENT, TYPE=SPRINGA, ELSET=WK_1151
   23392,    22215,    26633
*SPRING, ELSET=WK_1151

6.194139e-02
*ELEMENT, TYPE=SPRINGA, ELSET=WK_1152
   23393,    22218,    26634
*SPRING, ELSET=WK_1152

6.194139e-02
*ELEMENT, TYPE=SPRINGA, ELSET=WK_1153
   23394,    22221,    26635
*SPRING, ELSET=WK_1153

6.194139e-02
*ELEMENT, TYPE=SPRINGA, ELSET=WK_1154
   23395,    22224,    26636
*SPRING, ELSET=WK_1154

6.194139e-02
*ELEMENT, TYPE=SPRINGA, ELSET=WK_1155
   23396,    22227,    26637
*SPRING, ELSET=WK_1155

6.194139e-02
*ELEMENT, TYPE=SPRINGA, ELSET=WK_1156
   23397,    22230,    26638
*SPRING, ELSET=WK_1156

6.194139e-02
*ELEMENT, TYPE=SPRINGA, ELSET=WK_1157
   23398,    22233,    26639
*SPRING, ELSET=WK_1157

6.194139e-02
*ELEMENT, TYPE=SPRINGA, ELSET=WK_1158
   23399,    22236,    26640
*SPRING, ELSET=WK_1158

6.194139e-02
*ELEMENT, TYPE=SPRINGA, ELSET=WK_1159
   23400,    22239,    26641
*SPRING, ELSET=WK_1159

6.194139e-02
*ELEMENT, TYPE=SPRINGA, ELSET=WK_1160
   23401,    22242,    26642
*SPRING, ELSET=WK_1160

6.194139e-02
*ELEMENT, TYPE=SPRINGA, ELSET=WK_1161
   23402,    22245,    26643
*SPRING, ELSET=WK_1161

6.194139e-02
*ELEMENT, TYPE=SPRINGA, ELSET=WK_1162
   23403,    22248,    26644
*SPRING, ELSET=WK_1162

6.194139e-02
*ELEMENT, TYPE=SPRINGA, ELSET=WK_1163
   23404,    22251,    26645
*SPRING, ELSET=WK_1163

6.194139e-02
*ELEMENT, TYPE=SPRINGA, ELSET=WK_1164
   23405,    22254,    26646
*SPRING, ELSET=WK_1164

6.194139e-02
*ELEMENT, TYPE=SPRINGA, ELSET=WK_1165
   23406,    22257,    26647
*SPRING, ELSET=WK_1165

6.194139e-02
*ELEMENT, TYPE=SPRINGA, ELSET=WK_1166
   23407,    22260,    26648
*SPRING, ELSET=WK_1166

6.194139e-02
*ELEMENT, TYPE=SPRINGA, ELSET=WK_1167
   23408,    22263,    26649
*SPRING, ELSET=WK_1167

6.194139e-02
*ELEMENT, TYPE=SPRINGA, ELSET=WK_1168
   23409,    22266,    26650
*SPRING, ELSET=WK_1168

6.194139e-02
*ELEMENT, TYPE=SPRINGA, ELSET=WK_1169
   23410,    22269,    26651
*SPRING, ELSET=WK_1169

6.194139e-02
*ELEMENT, TYPE=SPRINGA, ELSET=WK_1170
   23411,    22272,    26652
*SPRING, ELSET=WK_1170

6.194139e-02
*ELEMENT, TYPE=SPRINGA, ELSET=WK_1171
   23412,    22275,    26653
*SPRING, ELSET=WK_1171

6.194139e-02
*ELEMENT, TYPE=SPRINGA, ELSET=WK_1172
   23413,    22278,    26654
*SPRING, ELSET=WK_1172

6.194139e-02
*ELEMENT, TYPE=SPRINGA, ELSET=WK_1173
   23414,    22281,    26655
*SPRING, ELSET=WK_1173

6.194139e-02
*ELEMENT, TYPE=SPRINGA, ELSET=WK_1174
   23415,    22284,    26656
*SPRING, ELSET=WK_1174

6.194139e-02
*ELEMENT, TYPE=SPRINGA, ELSET=WK_1175
   23416,    22287,    26657
*SPRING, ELSET=WK_1175

6.194139e-02
*ELEMENT, TYPE=SPRINGA, ELSET=WK_1176
   23417,    22290,    26658
*SPRING, ELSET=WK_1176

6.194139e-02
*ELEMENT, TYPE=SPRINGA, ELSET=WK_1177
   23418,    22293,    26659
*SPRING, ELSET=WK_1177

6.194139e-02
*ELEMENT, TYPE=SPRINGA, ELSET=WK_1178
   23419,    22296,    26660
*SPRING, ELSET=WK_1178

6.194139e-02
*ELEMENT, TYPE=SPRINGA, ELSET=WK_1179
   23420,    22299,    26661
*SPRING, ELSET=WK_1179

6.194139e-02
*ELEMENT, TYPE=SPRINGA, ELSET=WK_1180
   23421,    22302,    26662
*SPRING, ELSET=WK_1180

6.194139e-02
*ELEMENT, TYPE=SPRINGA, ELSET=WK_1181
   23422,    22305,    26663
*SPRING, ELSET=WK_1181

6.194139e-02
*ELEMENT, TYPE=SPRINGA, ELSET=WK_1182
   23423,    22308,    26664
*SPRING, ELSET=WK_1182

6.194139e-02
*ELEMENT, TYPE=SPRINGA, ELSET=WK_1183
   23424,    22311,    26665
*SPRING, ELSET=WK_1183

6.194139e-02
*ELEMENT, TYPE=SPRINGA, ELSET=WK_1184
   23425,    22314,    26666
*SPRING, ELSET=WK_1184

6.194139e-02
*ELEMENT, TYPE=SPRINGA, ELSET=WK_1185
   23426,    22317,    26667
*SPRING, ELSET=WK_1185

6.194139e-02
*ELEMENT, TYPE=SPRINGA, ELSET=WK_1186
   23427,    22320,    26668
*SPRING, ELSET=WK_1186

6.194139e-02
*ELEMENT, TYPE=SPRINGA, ELSET=WK_1187
   23428,    22323,    26669
*SPRING, ELSET=WK_1187

6.194139e-02
*ELEMENT, TYPE=SPRINGA, ELSET=WK_1188
   23429,    22326,    26670
*SPRING, ELSET=WK_1188

6.194139e-02
*ELEMENT, TYPE=SPRINGA, ELSET=WK_1189
   23430,    22329,    26671
*SPRING, ELSET=WK_1189

6.194139e-02
*ELEMENT, TYPE=SPRINGA, ELSET=WK_1190
   23431,    22332,    26672
*SPRING, ELSET=WK_1190

6.194139e-02
*ELEMENT, TYPE=SPRINGA, ELSET=WK_1191
   23432,    22335,    26673
*SPRING, ELSET=WK_1191

6.194139e-02
*ELEMENT, TYPE=SPRINGA, ELSET=WK_1192
   23433,    22338,    26674
*SPRING, ELSET=WK_1192

6.194139e-02
*ELEMENT, TYPE=SPRINGA, ELSET=WK_1193
   23434,    22341,    26675
*SPRING, ELSET=WK_1193

6.194139e-02
*ELEMENT, TYPE=SPRINGA, ELSET=WK_1194
   23435,    22344,    26676
*SPRING, ELSET=WK_1194

6.194139e-02
*ELEMENT, TYPE=SPRINGA, ELSET=WK_1195
   23436,    22347,    26677
*SPRING, ELSET=WK_1195

6.194139e-02
*ELEMENT, TYPE=SPRINGA, ELSET=WK_1196
   23437,    22350,    26678
*SPRING, ELSET=WK_1196

6.194139e-02
*ELEMENT, TYPE=SPRINGA, ELSET=WK_1197
   23438,    22353,    26679
*SPRING, ELSET=WK_1197

6.194139e-02
*ELEMENT, TYPE=SPRINGA, ELSET=WK_1198
   23439,    22356,    26680
*SPRING, ELSET=WK_1198

6.194139e-02
*ELEMENT, TYPE=SPRINGA, ELSET=WK_1199
   23440,    22359,    26681
*SPRING, ELSET=WK_1199

3.097070e-02
*ELEMENT, TYPE=SPRINGA, ELSET=WK_1200
   23441,    22362,    26682
*SPRING, ELSET=WK_1200

3.097070e-02
*ELEMENT, TYPE=SPRINGA, ELSET=WK_1201
   23442,    22365,    26683
*SPRING, ELSET=WK_1201

3.097070e-02
*ELEMENT, TYPE=SPRINGA, ELSET=WK_1202
   23443,    22368,    26684
*SPRING, ELSET=WK_1202

3.097070e-02
*ELEMENT, TYPE=SPRINGA, ELSET=WK_1203
   23444,    22371,    26685
*SPRING, ELSET=WK_1203

3.097070e-02
*ELEMENT, TYPE=SPRINGA, ELSET=WK_1204
   23445,    22374,    26686
*SPRING, ELSET=WK_1204

3.097070e-02
*ELEMENT, TYPE=SPRINGA, ELSET=WK_1205
   23446,    22377,    26687
*SPRING, ELSET=WK_1205

3.097070e-02
*ELEMENT, TYPE=SPRINGA, ELSET=WK_1206
   23447,    22380,    26688
*SPRING, ELSET=WK_1206

3.097070e-02
*ELEMENT, TYPE=SPRINGA, ELSET=WK_1207
   23448,    22383,    26689
*SPRING, ELSET=WK_1207

3.097070e-02
*ELEMENT, TYPE=SPRINGA, ELSET=WK_1208
   23449,    22386,    26690
*SPRING, ELSET=WK_1208

3.097070e-02
*ELEMENT, TYPE=SPRINGA, ELSET=WK_1209
   23450,    22389,    26691
*SPRING, ELSET=WK_1209

3.097070e-02
*ELEMENT, TYPE=SPRINGA, ELSET=WK_1210
   23451,    22392,    26692
*SPRING, ELSET=WK_1210

3.097070e-02
*ELEMENT, TYPE=SPRINGA, ELSET=WK_1211
   23452,    22395,    26693
*SPRING, ELSET=WK_1211

3.097070e-02
*ELEMENT, TYPE=SPRINGA, ELSET=WK_1212
   23453,    22398,    26694
*SPRING, ELSET=WK_1212

3.097070e-02
*ELEMENT, TYPE=SPRINGA, ELSET=WK_1213
   23454,    22401,    26695
*SPRING, ELSET=WK_1213

3.097070e-02
*ELEMENT, TYPE=SPRINGA, ELSET=WK_1214
   23455,    22404,    26696
*SPRING, ELSET=WK_1214

3.097070e-02
*ELEMENT, TYPE=SPRINGA, ELSET=WK_1215
   23456,    22407,    26697
*SPRING, ELSET=WK_1215

3.097070e-02
*ELEMENT, TYPE=SPRINGA, ELSET=WK_1216
   23457,    22410,    26698
*SPRING, ELSET=WK_1216

3.097070e-02
*ELEMENT, TYPE=SPRINGA, ELSET=WK_1217
   23458,    22413,    26699
*SPRING, ELSET=WK_1217

3.097070e-02
*ELEMENT, TYPE=SPRINGA, ELSET=WK_1218
   23459,    22416,    26700
*SPRING, ELSET=WK_1218

6.194139e-02
*ELEMENT, TYPE=SPRINGA, ELSET=WK_1219
   23460,    22419,    26701
*SPRING, ELSET=WK_1219

6.194139e-02
*ELEMENT, TYPE=SPRINGA, ELSET=WK_1220
   23461,    22422,    26702
*SPRING, ELSET=WK_1220

6.194139e-02
*ELEMENT, TYPE=SPRINGA, ELSET=WK_1221
   23462,    22425,    26703
*SPRING, ELSET=WK_1221

6.194139e-02
*ELEMENT, TYPE=SPRINGA, ELSET=WK_1222
   23463,    22428,    26704
*SPRING, ELSET=WK_1222

6.194139e-02
*ELEMENT, TYPE=SPRINGA, ELSET=WK_1223
   23464,    22431,    26705
*SPRING, ELSET=WK_1223

6.194139e-02
*ELEMENT, TYPE=SPRINGA, ELSET=WK_1224
   23465,    22434,    26706
*SPRING, ELSET=WK_1224

6.194139e-02
*ELEMENT, TYPE=SPRINGA, ELSET=WK_1225
   23466,    22437,    26707
*SPRING, ELSET=WK_1225

6.194139e-02
*ELEMENT, TYPE=SPRINGA, ELSET=WK_1226
   23467,    22440,    26708
*SPRING, ELSET=WK_1226

6.194139e-02
*ELEMENT, TYPE=SPRINGA, ELSET=WK_1227
   23468,    22443,    26709
*SPRING, ELSET=WK_1227

6.194139e-02
*ELEMENT, TYPE=SPRINGA, ELSET=WK_1228
   23469,    22446,    26710
*SPRING, ELSET=WK_1228

6.194139e-02
*ELEMENT, TYPE=SPRINGA, ELSET=WK_1229
   23470,    22449,    26711
*SPRING, ELSET=WK_1229

6.194139e-02
*ELEMENT, TYPE=SPRINGA, ELSET=WK_1230
   23471,    22452,    26712
*SPRING, ELSET=WK_1230

6.194139e-02
*ELEMENT, TYPE=SPRINGA, ELSET=WK_1231
   23472,    22455,    26713
*SPRING, ELSET=WK_1231

6.194139e-02
*ELEMENT, TYPE=SPRINGA, ELSET=WK_1232
   23473,    22458,    26714
*SPRING, ELSET=WK_1232

6.194139e-02
*ELEMENT, TYPE=SPRINGA, ELSET=WK_1233
   23474,    22461,    26715
*SPRING, ELSET=WK_1233

6.194139e-02
*ELEMENT, TYPE=SPRINGA, ELSET=WK_1234
   23475,    22464,    26716
*SPRING, ELSET=WK_1234

6.194139e-02
*ELEMENT, TYPE=SPRINGA, ELSET=WK_1235
   23476,    22467,    26717
*SPRING, ELSET=WK_1235

6.194139e-02
*ELEMENT, TYPE=SPRINGA, ELSET=WK_1236
   23477,    22470,    26718
*SPRING, ELSET=WK_1236

6.194139e-02
*ELEMENT, TYPE=SPRINGA, ELSET=WK_1237
   23478,    22473,    26719
*SPRING, ELSET=WK_1237

6.194139e-02
*ELEMENT, TYPE=SPRINGA, ELSET=WK_1238
   23479,    22476,    26720
*SPRING, ELSET=WK_1238

6.194139e-02
*ELEMENT, TYPE=SPRINGA, ELSET=WK_1239
   23480,    22479,    26721
*SPRING, ELSET=WK_1239

6.194139e-02
*ELEMENT, TYPE=SPRINGA, ELSET=WK_1240
   23481,    22482,    26722
*SPRING, ELSET=WK_1240

6.194139e-02
*ELEMENT, TYPE=SPRINGA, ELSET=WK_1241
   23482,    22485,    26723
*SPRING, ELSET=WK_1241

6.194139e-02
*ELEMENT, TYPE=SPRINGA, ELSET=WK_1242
   23483,    22488,    26724
*SPRING, ELSET=WK_1242

6.194139e-02
*ELEMENT, TYPE=SPRINGA, ELSET=WK_1243
   23484,    22491,    26725
*SPRING, ELSET=WK_1243

6.194139e-02
*ELEMENT, TYPE=SPRINGA, ELSET=WK_1244
   23485,    22494,    26726
*SPRING, ELSET=WK_1244

6.194139e-02
*ELEMENT, TYPE=SPRINGA, ELSET=WK_1245
   23486,    22497,    26727
*SPRING, ELSET=WK_1245

6.194139e-02
*ELEMENT, TYPE=SPRINGA, ELSET=WK_1246
   23487,    22500,    26728
*SPRING, ELSET=WK_1246

6.194139e-02
*ELEMENT, TYPE=SPRINGA, ELSET=WK_1247
   23488,    22503,    26729
*SPRING, ELSET=WK_1247

6.194139e-02
*ELEMENT, TYPE=SPRINGA, ELSET=WK_1248
   23489,    22506,    26730
*SPRING, ELSET=WK_1248

6.194139e-02
*ELEMENT, TYPE=SPRINGA, ELSET=WK_1249
   23490,    22509,    26731
*SPRING, ELSET=WK_1249

6.194139e-02
*ELEMENT, TYPE=SPRINGA, ELSET=WK_1250
   23491,    22512,    26732
*SPRING, ELSET=WK_1250

6.194139e-02
*ELEMENT, TYPE=SPRINGA, ELSET=WK_1251
   23492,    22515,    26733
*SPRING, ELSET=WK_1251

6.194139e-02
*ELEMENT, TYPE=SPRINGA, ELSET=WK_1252
   23493,    22518,    26734
*SPRING, ELSET=WK_1252

6.194139e-02
*ELEMENT, TYPE=SPRINGA, ELSET=WK_1253
   23494,    22521,    26735
*SPRING, ELSET=WK_1253

6.194139e-02
*ELEMENT, TYPE=SPRINGA, ELSET=WK_1254
   23495,    22524,    26736
*SPRING, ELSET=WK_1254

6.194139e-02
*ELEMENT, TYPE=SPRINGA, ELSET=WK_1255
   23496,    22527,    26737
*SPRING, ELSET=WK_1255

6.194139e-02
*ELEMENT, TYPE=SPRINGA, ELSET=WK_1256
   23497,    22530,    26738
*SPRING, ELSET=WK_1256

6.194139e-02
*ELEMENT, TYPE=SPRINGA, ELSET=WK_1257
   23498,    22533,    26739
*SPRING, ELSET=WK_1257

6.194139e-02
*ELEMENT, TYPE=SPRINGA, ELSET=WK_1258
   23499,    22536,    26740
*SPRING, ELSET=WK_1258

6.194139e-02
*ELEMENT, TYPE=SPRINGA, ELSET=WK_1259
   23500,    22539,    26741
*SPRING, ELSET=WK_1259

6.194139e-02
*ELEMENT, TYPE=SPRINGA, ELSET=WK_1260
   23501,    22542,    26742
*SPRING, ELSET=WK_1260

6.194139e-02
*ELEMENT, TYPE=SPRINGA, ELSET=WK_1261
   23502,    22545,    26743
*SPRING, ELSET=WK_1261

6.194139e-02
*ELEMENT, TYPE=SPRINGA, ELSET=WK_1262
   23503,    22548,    26744
*SPRING, ELSET=WK_1262

6.194139e-02
*ELEMENT, TYPE=SPRINGA, ELSET=WK_1263
   23504,    22551,    26745
*SPRING, ELSET=WK_1263

6.194139e-02
*ELEMENT, TYPE=SPRINGA, ELSET=WK_1264
   23505,    22554,    26746
*SPRING, ELSET=WK_1264

6.194139e-02
*ELEMENT, TYPE=SPRINGA, ELSET=WK_1265
   23506,    22557,    26747
*SPRING, ELSET=WK_1265

6.194139e-02
*ELEMENT, TYPE=SPRINGA, ELSET=WK_1266
   23507,    22560,    26748
*SPRING, ELSET=WK_1266

6.194139e-02
*ELEMENT, TYPE=SPRINGA, ELSET=WK_1267
   23508,    22563,    26749
*SPRING, ELSET=WK_1267

6.194139e-02
*ELEMENT, TYPE=SPRINGA, ELSET=WK_1268
   23509,    22566,    26750
*SPRING, ELSET=WK_1268

6.194139e-02
*ELEMENT, TYPE=SPRINGA, ELSET=WK_1269
   23510,    22569,    26751
*SPRING, ELSET=WK_1269

6.194139e-02
*ELEMENT, TYPE=SPRINGA, ELSET=WK_1270
   23511,    22572,    26752
*SPRING, ELSET=WK_1270

6.194139e-02
*ELEMENT, TYPE=SPRINGA, ELSET=WK_1271
   23512,    22575,    26753
*SPRING, ELSET=WK_1271

6.194139e-02
*ELEMENT, TYPE=SPRINGA, ELSET=WK_1272
   23513,    22578,    26754
*SPRING, ELSET=WK_1272

6.194139e-02
*ELEMENT, TYPE=SPRINGA, ELSET=WK_1273
   23514,    22581,    26755
*SPRING, ELSET=WK_1273

6.194139e-02
*ELEMENT, TYPE=SPRINGA, ELSET=WK_1274
   23515,    22584,    26756
*SPRING, ELSET=WK_1274

6.194139e-02
*ELEMENT, TYPE=SPRINGA, ELSET=WK_1275
   23516,    22587,    26757
*SPRING, ELSET=WK_1275

6.194139e-02
*ELEMENT, TYPE=SPRINGA, ELSET=WK_1276
   23517,    22590,    26758
*SPRING, ELSET=WK_1276

6.194139e-02
*ELEMENT, TYPE=SPRINGA, ELSET=WK_1277
   23518,    22593,    26759
*SPRING, ELSET=WK_1277

6.194139e-02
*ELEMENT, TYPE=SPRINGA, ELSET=WK_1278
   23519,    22596,    26760
*SPRING, ELSET=WK_1278

6.194139e-02
*ELEMENT, TYPE=SPRINGA, ELSET=WK_1279
   23520,    22599,    26761
*SPRING, ELSET=WK_1279

6.194139e-02
*ELEMENT, TYPE=SPRINGA, ELSET=WK_1280
   23521,    22602,    26762
*SPRING, ELSET=WK_1280

6.194139e-02
*ELEMENT, TYPE=SPRINGA, ELSET=WK_1281
   23522,    22605,    26763
*SPRING, ELSET=WK_1281

6.194139e-02
*ELEMENT, TYPE=SPRINGA, ELSET=WK_1282
   23523,    22608,    26764
*SPRING, ELSET=WK_1282

6.194139e-02
*ELEMENT, TYPE=SPRINGA, ELSET=WK_1283
   23524,    22611,    26765
*SPRING, ELSET=WK_1283

6.194139e-02
*ELEMENT, TYPE=SPRINGA, ELSET=WK_1284
   23525,    22614,    26766
*SPRING, ELSET=WK_1284

6.194139e-02
*ELEMENT, TYPE=SPRINGA, ELSET=WK_1285
   23526,    22617,    26767
*SPRING, ELSET=WK_1285

6.194139e-02
*ELEMENT, TYPE=SPRINGA, ELSET=WK_1286
   23527,    22620,    26768
*SPRING, ELSET=WK_1286

6.194139e-02
*ELEMENT, TYPE=SPRINGA, ELSET=WK_1287
   23528,    22623,    26769
*SPRING, ELSET=WK_1287

6.194139e-02
*ELEMENT, TYPE=SPRINGA, ELSET=WK_1288
   23529,    22626,    26770
*SPRING, ELSET=WK_1288

6.194139e-02
*ELEMENT, TYPE=SPRINGA, ELSET=WK_1289
   23530,    22629,    26771
*SPRING, ELSET=WK_1289

6.194139e-02
*ELEMENT, TYPE=SPRINGA, ELSET=WK_1290
   23531,    22632,    26772
*SPRING, ELSET=WK_1290

6.194139e-02
*ELEMENT, TYPE=SPRINGA, ELSET=WK_1291
   23532,    22635,    26773
*SPRING, ELSET=WK_1291

6.194139e-02
*ELEMENT, TYPE=SPRINGA, ELSET=WK_1292
   23533,    22638,    26774
*SPRING, ELSET=WK_1292

6.194139e-02
*ELEMENT, TYPE=SPRINGA, ELSET=WK_1293
   23534,    22641,    26775
*SPRING, ELSET=WK_1293

6.194139e-02
*ELEMENT, TYPE=SPRINGA, ELSET=WK_1294
   23535,    22644,    26776
*SPRING, ELSET=WK_1294

6.194139e-02
*ELEMENT, TYPE=SPRINGA, ELSET=WK_1295
   23536,    22647,    26777
*SPRING, ELSET=WK_1295

6.194139e-02
*ELEMENT, TYPE=SPRINGA, ELSET=WK_1296
   23537,    22650,    26778
*SPRING, ELSET=WK_1296

6.194139e-02
*ELEMENT, TYPE=SPRINGA, ELSET=WK_1297
   23538,    22653,    26779
*SPRING, ELSET=WK_1297

6.194139e-02
*ELEMENT, TYPE=SPRINGA, ELSET=WK_1298
   23539,    22656,    26780
*SPRING, ELSET=WK_1298

6.194139e-02
*ELEMENT, TYPE=SPRINGA, ELSET=WK_1299
   23540,    22659,    26781
*SPRING, ELSET=WK_1299

6.194139e-02
*ELEMENT, TYPE=SPRINGA, ELSET=WK_1300
   23541,    22662,    26782
*SPRING, ELSET=WK_1300

6.194139e-02
*ELEMENT, TYPE=SPRINGA, ELSET=WK_1301
   23542,    22665,    26783
*SPRING, ELSET=WK_1301

6.194139e-02
*ELEMENT, TYPE=SPRINGA, ELSET=WK_1302
   23543,    22668,    26784
*SPRING, ELSET=WK_1302

6.194139e-02
*ELEMENT, TYPE=SPRINGA, ELSET=WK_1303
   23544,    22671,    26785
*SPRING, ELSET=WK_1303

6.194139e-02
*ELEMENT, TYPE=SPRINGA, ELSET=WK_1304
   23545,    22674,    26786
*SPRING, ELSET=WK_1304

6.194139e-02
*ELEMENT, TYPE=SPRINGA, ELSET=WK_1305
   23546,    22677,    26787
*SPRING, ELSET=WK_1305

6.194139e-02
*ELEMENT, TYPE=SPRINGA, ELSET=WK_1306
   23547,    22680,    26788
*SPRING, ELSET=WK_1306

6.194139e-02
*ELEMENT, TYPE=SPRINGA, ELSET=WK_1307
   23548,    22683,    26789
*SPRING, ELSET=WK_1307

6.194139e-02
*ELEMENT, TYPE=SPRINGA, ELSET=WK_1308
   23549,    22686,    26790
*SPRING, ELSET=WK_1308

6.194139e-02
*ELEMENT, TYPE=SPRINGA, ELSET=WK_1309
   23550,    22689,    26791
*SPRING, ELSET=WK_1309

6.194139e-02
*ELEMENT, TYPE=SPRINGA, ELSET=WK_1310
   23551,    22692,    26792
*SPRING, ELSET=WK_1310

6.194139e-02
*ELEMENT, TYPE=SPRINGA, ELSET=WK_1311
   23552,    22695,    26793
*SPRING, ELSET=WK_1311

6.194139e-02
*ELEMENT, TYPE=SPRINGA, ELSET=WK_1312
   23553,    22698,    26794
*SPRING, ELSET=WK_1312

6.194139e-02
*ELEMENT, TYPE=SPRINGA, ELSET=WK_1313
   23554,    22701,    26795
*SPRING, ELSET=WK_1313

6.194139e-02
*ELEMENT, TYPE=SPRINGA, ELSET=WK_1314
   23555,    22704,    26796
*SPRING, ELSET=WK_1314

6.194139e-02
*ELEMENT, TYPE=SPRINGA, ELSET=WK_1315
   23556,    22707,    26797
*SPRING, ELSET=WK_1315

6.194139e-02
*ELEMENT, TYPE=SPRINGA, ELSET=WK_1316
   23557,    22710,    26798
*SPRING, ELSET=WK_1316

6.194139e-02
*ELEMENT, TYPE=SPRINGA, ELSET=WK_1317
   23558,    22713,    26799
*SPRING, ELSET=WK_1317

6.194139e-02
*ELEMENT, TYPE=SPRINGA, ELSET=WK_1318
   23559,    22716,    26800
*SPRING, ELSET=WK_1318

6.194139e-02
*ELEMENT, TYPE=SPRINGA, ELSET=WK_1319
   23560,    22719,    26801
*SPRING, ELSET=WK_1319

6.194139e-02
*ELEMENT, TYPE=SPRINGA, ELSET=WK_1320
   23561,    22722,    26802
*SPRING, ELSET=WK_1320

6.194139e-02
*ELEMENT, TYPE=SPRINGA, ELSET=WK_1321
   23562,    22725,    26803
*SPRING, ELSET=WK_1321

6.194139e-02
*ELEMENT, TYPE=SPRINGA, ELSET=WK_1322
   23563,    22728,    26804
*SPRING, ELSET=WK_1322

6.194139e-02
*ELEMENT, TYPE=SPRINGA, ELSET=WK_1323
   23564,    22731,    26805
*SPRING, ELSET=WK_1323

6.194139e-02
*ELEMENT, TYPE=SPRINGA, ELSET=WK_1324
   23565,    22734,    26806
*SPRING, ELSET=WK_1324

6.194139e-02
*ELEMENT, TYPE=SPRINGA, ELSET=WK_1325
   23566,    22737,    26807
*SPRING, ELSET=WK_1325

6.194139e-02
*ELEMENT, TYPE=SPRINGA, ELSET=WK_1326
   23567,    22740,    26808
*SPRING, ELSET=WK_1326

6.194139e-02
*ELEMENT, TYPE=SPRINGA, ELSET=WK_1327
   23568,    22743,    26809
*SPRING, ELSET=WK_1327

6.194139e-02
*ELEMENT, TYPE=SPRINGA, ELSET=WK_1328
   23569,    22746,    26810
*SPRING, ELSET=WK_1328

6.194139e-02
*ELEMENT, TYPE=SPRINGA, ELSET=WK_1329
   23570,    22749,    26811
*SPRING, ELSET=WK_1329

6.194139e-02
*ELEMENT, TYPE=SPRINGA, ELSET=WK_1330
   23571,    22752,    26812
*SPRING, ELSET=WK_1330

6.194139e-02
*ELEMENT, TYPE=SPRINGA, ELSET=WK_1331
   23572,    22755,    26813
*SPRING, ELSET=WK_1331

6.194139e-02
*ELEMENT, TYPE=SPRINGA, ELSET=WK_1332
   23573,    22758,    26814
*SPRING, ELSET=WK_1332

6.194139e-02
*ELEMENT, TYPE=SPRINGA, ELSET=WK_1333
   23574,    22761,    26815
*SPRING, ELSET=WK_1333

6.194139e-02
*ELEMENT, TYPE=SPRINGA, ELSET=WK_1334
   23575,    22764,    26816
*SPRING, ELSET=WK_1334

6.194139e-02
*ELEMENT, TYPE=SPRINGA, ELSET=WK_1335
   23576,    22767,    26817
*SPRING, ELSET=WK_1335

6.194139e-02
*ELEMENT, TYPE=SPRINGA, ELSET=WK_1336
   23577,    22770,    26818
*SPRING, ELSET=WK_1336

6.194139e-02
*ELEMENT, TYPE=SPRINGA, ELSET=WK_1337
   23578,    22773,    26819
*SPRING, ELSET=WK_1337

6.194139e-02
*ELEMENT, TYPE=SPRINGA, ELSET=WK_1338
   23579,    22776,    26820
*SPRING, ELSET=WK_1338

6.194139e-02
*ELEMENT, TYPE=SPRINGA, ELSET=WK_1339
   23580,    22779,    26821
*SPRING, ELSET=WK_1339

6.194139e-02
*ELEMENT, TYPE=SPRINGA, ELSET=WK_1340
   23581,    22782,    26822
*SPRING, ELSET=WK_1340

6.194139e-02
*ELEMENT, TYPE=SPRINGA, ELSET=WK_1341
   23582,    22785,    26823
*SPRING, ELSET=WK_1341

6.194139e-02
*ELEMENT, TYPE=SPRINGA, ELSET=WK_1342
   23583,    22788,    26824
*SPRING, ELSET=WK_1342

6.194139e-02
*ELEMENT, TYPE=SPRINGA, ELSET=WK_1343
   23584,    22791,    26825
*SPRING, ELSET=WK_1343

6.194139e-02
*ELEMENT, TYPE=SPRINGA, ELSET=WK_1344
   23585,    22794,    26826
*SPRING, ELSET=WK_1344

6.194139e-02
*ELEMENT, TYPE=SPRINGA, ELSET=WK_1345
   23586,    22797,    26827
*SPRING, ELSET=WK_1345

6.194139e-02
*ELEMENT, TYPE=SPRINGA, ELSET=WK_1346
   23587,    22800,    26828
*SPRING, ELSET=WK_1346

6.194139e-02
*ELEMENT, TYPE=SPRINGA, ELSET=WK_1347
   23588,    22803,    26829
*SPRING, ELSET=WK_1347

6.194139e-02
*ELEMENT, TYPE=SPRINGA, ELSET=WK_1348
   23589,    22806,    26830
*SPRING, ELSET=WK_1348

6.194139e-02
*ELEMENT, TYPE=SPRINGA, ELSET=WK_1349
   23590,    22809,    26831
*SPRING, ELSET=WK_1349

6.194139e-02
*ELEMENT, TYPE=SPRINGA, ELSET=WK_1350
   23591,    22812,    26832
*SPRING, ELSET=WK_1350

6.194139e-02
*ELEMENT, TYPE=SPRINGA, ELSET=WK_1351
   23592,    22815,    26833
*SPRING, ELSET=WK_1351

6.194139e-02
*ELEMENT, TYPE=SPRINGA, ELSET=WK_1352
   23593,    22818,    26834
*SPRING, ELSET=WK_1352

6.194139e-02
*ELEMENT, TYPE=SPRINGA, ELSET=WK_1353
   23594,    22821,    26835
*SPRING, ELSET=WK_1353

6.194139e-02
*ELEMENT, TYPE=SPRINGA, ELSET=WK_1354
   23595,    22824,    26836
*SPRING, ELSET=WK_1354

6.194139e-02
*ELEMENT, TYPE=SPRINGA, ELSET=WK_1355
   23596,    22827,    26837
*SPRING, ELSET=WK_1355

6.194139e-02
*ELEMENT, TYPE=SPRINGA, ELSET=WK_1356
   23597,    22830,    26838
*SPRING, ELSET=WK_1356

6.194139e-02
*ELEMENT, TYPE=SPRINGA, ELSET=WK_1357
   23598,    22833,    26839
*SPRING, ELSET=WK_1357

6.194139e-02
*ELEMENT, TYPE=SPRINGA, ELSET=WK_1358
   23599,    22836,    26840
*SPRING, ELSET=WK_1358

6.194139e-02
*ELEMENT, TYPE=SPRINGA, ELSET=WK_1359
   23600,    22839,    26841
*SPRING, ELSET=WK_1359

6.194139e-02
*ELEMENT, TYPE=SPRINGA, ELSET=WK_1360
   23601,    22842,    26842
*SPRING, ELSET=WK_1360

6.194139e-02
*ELEMENT, TYPE=SPRINGA, ELSET=WK_1361
   23602,    22845,    26843
*SPRING, ELSET=WK_1361

6.194139e-02
*ELEMENT, TYPE=SPRINGA, ELSET=WK_1362
   23603,    22848,    26844
*SPRING, ELSET=WK_1362

6.194139e-02
*ELEMENT, TYPE=SPRINGA, ELSET=WK_1363
   23604,    22851,    26845
*SPRING, ELSET=WK_1363

6.194139e-02
*ELEMENT, TYPE=SPRINGA, ELSET=WK_1364
   23605,    22854,    26846
*SPRING, ELSET=WK_1364

6.194139e-02
*ELEMENT, TYPE=SPRINGA, ELSET=WK_1365
   23606,    22857,    26847
*SPRING, ELSET=WK_1365

6.194139e-02
*ELEMENT, TYPE=SPRINGA, ELSET=WK_1366
   23607,    22860,    26848
*SPRING, ELSET=WK_1366

6.194139e-02
*ELEMENT, TYPE=SPRINGA, ELSET=WK_1367
   23608,    22863,    26849
*SPRING, ELSET=WK_1367

6.194139e-02
*ELEMENT, TYPE=SPRINGA, ELSET=WK_1368
   23609,    22866,    26850
*SPRING, ELSET=WK_1368

6.194139e-02
*ELEMENT, TYPE=SPRINGA, ELSET=WK_1369
   23610,    22869,    26851
*SPRING, ELSET=WK_1369

6.194139e-02
*ELEMENT, TYPE=SPRINGA, ELSET=WK_1370
   23611,    22872,    26852
*SPRING, ELSET=WK_1370

6.194139e-02
*ELEMENT, TYPE=SPRINGA, ELSET=WK_1371
   23612,    22875,    26853
*SPRING, ELSET=WK_1371

6.194139e-02
*ELEMENT, TYPE=SPRINGA, ELSET=WK_1372
   23613,    22878,    26854
*SPRING, ELSET=WK_1372

6.194139e-02
*ELEMENT, TYPE=SPRINGA, ELSET=WK_1373
   23614,    22881,    26855
*SPRING, ELSET=WK_1373

6.194139e-02
*ELEMENT, TYPE=SPRINGA, ELSET=WK_1374
   23615,    22884,    26856
*SPRING, ELSET=WK_1374

6.194139e-02
*ELEMENT, TYPE=SPRINGA, ELSET=WK_1375
   23616,    22887,    26857
*SPRING, ELSET=WK_1375

6.194139e-02
*ELEMENT, TYPE=SPRINGA, ELSET=WK_1376
   23617,    22890,    26858
*SPRING, ELSET=WK_1376

6.194139e-02
*ELEMENT, TYPE=SPRINGA, ELSET=WK_1377
   23618,    22893,    26859
*SPRING, ELSET=WK_1377

6.194139e-02
*ELEMENT, TYPE=SPRINGA, ELSET=WK_1378
   23619,    22896,    26860
*SPRING, ELSET=WK_1378

6.194139e-02
*ELEMENT, TYPE=SPRINGA, ELSET=WK_1379
   23620,    22899,    26861
*SPRING, ELSET=WK_1379

6.194139e-02
*ELEMENT, TYPE=SPRINGA, ELSET=WK_1380
   23621,    22902,    26862
*SPRING, ELSET=WK_1380

6.194139e-02
*ELEMENT, TYPE=SPRINGA, ELSET=WK_1381
   23622,    22905,    26863
*SPRING, ELSET=WK_1381

6.194139e-02
*ELEMENT, TYPE=SPRINGA, ELSET=WK_1382
   23623,    22908,    26864
*SPRING, ELSET=WK_1382

6.194139e-02
*ELEMENT, TYPE=SPRINGA, ELSET=WK_1383
   23624,    22911,    26865
*SPRING, ELSET=WK_1383

6.194139e-02
*ELEMENT, TYPE=SPRINGA, ELSET=WK_1384
   23625,    22914,    26866
*SPRING, ELSET=WK_1384

6.194139e-02
*ELEMENT, TYPE=SPRINGA, ELSET=WK_1385
   23626,    22917,    26867
*SPRING, ELSET=WK_1385

6.194139e-02
*ELEMENT, TYPE=SPRINGA, ELSET=WK_1386
   23627,    22920,    26868
*SPRING, ELSET=WK_1386

6.194139e-02
*ELEMENT, TYPE=SPRINGA, ELSET=WK_1387
   23628,    22923,    26869
*SPRING, ELSET=WK_1387

6.194139e-02
*ELEMENT, TYPE=SPRINGA, ELSET=WK_1388
   23629,    22926,    26870
*SPRING, ELSET=WK_1388

6.194139e-02
*ELEMENT, TYPE=SPRINGA, ELSET=WK_1389
   23630,    22929,    26871
*SPRING, ELSET=WK_1389

6.194139e-02
*ELEMENT, TYPE=SPRINGA, ELSET=WK_1390
   23631,    22932,    26872
*SPRING, ELSET=WK_1390

6.194139e-02
*ELEMENT, TYPE=SPRINGA, ELSET=WK_1391
   23632,    22935,    26873
*SPRING, ELSET=WK_1391

6.194139e-02
*ELEMENT, TYPE=SPRINGA, ELSET=WK_1392
   23633,    22938,    26874
*SPRING, ELSET=WK_1392

6.194139e-02
*ELEMENT, TYPE=SPRINGA, ELSET=WK_1393
   23634,    22941,    26875
*SPRING, ELSET=WK_1393

6.194139e-02
*ELEMENT, TYPE=SPRINGA, ELSET=WK_1394
   23635,    22944,    26876
*SPRING, ELSET=WK_1394

6.194139e-02
*ELEMENT, TYPE=SPRINGA, ELSET=WK_1395
   23636,    22947,    26877
*SPRING, ELSET=WK_1395

6.194139e-02
*ELEMENT, TYPE=SPRINGA, ELSET=WK_1396
   23637,    22950,    26878
*SPRING, ELSET=WK_1396

6.194139e-02
*ELEMENT, TYPE=SPRINGA, ELSET=WK_1397
   23638,    22953,    26879
*SPRING, ELSET=WK_1397

6.194139e-02
*ELEMENT, TYPE=SPRINGA, ELSET=WK_1398
   23639,    22956,    26880
*SPRING, ELSET=WK_1398

6.194139e-02
*ELEMENT, TYPE=SPRINGA, ELSET=WK_1399
   23640,    22959,    26881
*SPRING, ELSET=WK_1399

6.194139e-02
*ELEMENT, TYPE=SPRINGA, ELSET=WK_1400
   23641,    22962,    26882
*SPRING, ELSET=WK_1400

6.194139e-02
*ELEMENT, TYPE=SPRINGA, ELSET=WK_1401
   23642,    22965,    26883
*SPRING, ELSET=WK_1401

6.194139e-02
*ELEMENT, TYPE=SPRINGA, ELSET=WK_1402
   23643,    22968,    26884
*SPRING, ELSET=WK_1402

6.194139e-02
*ELEMENT, TYPE=SPRINGA, ELSET=WK_1403
   23644,    22971,    26885
*SPRING, ELSET=WK_1403

6.194139e-02
*ELEMENT, TYPE=SPRINGA, ELSET=WK_1404
   23645,    22974,    26886
*SPRING, ELSET=WK_1404

6.194139e-02
*ELEMENT, TYPE=SPRINGA, ELSET=WK_1405
   23646,    22977,    26887
*SPRING, ELSET=WK_1405

6.194139e-02
*ELEMENT, TYPE=SPRINGA, ELSET=WK_1406
   23647,    22980,    26888
*SPRING, ELSET=WK_1406

6.194139e-02
*ELEMENT, TYPE=SPRINGA, ELSET=WK_1407
   23648,    22983,    26889
*SPRING, ELSET=WK_1407

6.194139e-02
*ELEMENT, TYPE=SPRINGA, ELSET=WK_1408
   23649,    22986,    26890
*SPRING, ELSET=WK_1408

6.194139e-02
*ELEMENT, TYPE=SPRINGA, ELSET=WK_1409
   23650,    22989,    26891
*SPRING, ELSET=WK_1409

6.194139e-02
*ELEMENT, TYPE=SPRINGA, ELSET=WK_1410
   23651,    22992,    26892
*SPRING, ELSET=WK_1410

6.194139e-02
*ELEMENT, TYPE=SPRINGA, ELSET=WK_1411
   23652,    22995,    26893
*SPRING, ELSET=WK_1411

6.194139e-02
*ELEMENT, TYPE=SPRINGA, ELSET=WK_1412
   23653,    22998,    26894
*SPRING, ELSET=WK_1412

6.194139e-02
*ELEMENT, TYPE=SPRINGA, ELSET=WK_1413
   23654,    23001,    26895
*SPRING, ELSET=WK_1413

6.194139e-02
*ELEMENT, TYPE=SPRINGA, ELSET=WK_1414
   23655,    23004,    26896
*SPRING, ELSET=WK_1414

6.194139e-02
*ELEMENT, TYPE=SPRINGA, ELSET=WK_1415
   23656,    23007,    26897
*SPRING, ELSET=WK_1415

6.194139e-02
*ELEMENT, TYPE=SPRINGA, ELSET=WK_1416
   23657,    23010,    26898
*SPRING, ELSET=WK_1416

6.194139e-02
*ELEMENT, TYPE=SPRINGA, ELSET=WK_1417
   23658,    23013,    26899
*SPRING, ELSET=WK_1417

6.194139e-02
*ELEMENT, TYPE=SPRINGA, ELSET=WK_1418
   23659,    23016,    26900
*SPRING, ELSET=WK_1418

6.194139e-02
*ELEMENT, TYPE=SPRINGA, ELSET=WK_1419
   23660,    23019,    26901
*SPRING, ELSET=WK_1419

6.194139e-02
*ELEMENT, TYPE=SPRINGA, ELSET=WK_1420
   23661,    23022,    26902
*SPRING, ELSET=WK_1420

6.194139e-02
*ELEMENT, TYPE=SPRINGA, ELSET=WK_1421
   23662,    23025,    26903
*SPRING, ELSET=WK_1421

6.194139e-02
*ELEMENT, TYPE=SPRINGA, ELSET=WK_1422
   23663,    23028,    26904
*SPRING, ELSET=WK_1422

6.194139e-02
*ELEMENT, TYPE=SPRINGA, ELSET=WK_1423
   23664,    23031,    26905
*SPRING, ELSET=WK_1423

6.194139e-02
*ELEMENT, TYPE=SPRINGA, ELSET=WK_1424
   23665,    23034,    26906
*SPRING, ELSET=WK_1424

6.194139e-02
*ELEMENT, TYPE=SPRINGA, ELSET=WK_1425
   23666,    23037,    26907
*SPRING, ELSET=WK_1425

6.194139e-02
*ELEMENT, TYPE=SPRINGA, ELSET=WK_1426
   23667,    23040,    26908
*SPRING, ELSET=WK_1426

6.194139e-02
*ELEMENT, TYPE=SPRINGA, ELSET=WK_1427
   23668,    23043,    26909
*SPRING, ELSET=WK_1427

6.194139e-02
*ELEMENT, TYPE=SPRINGA, ELSET=WK_1428
   23669,    23046,    26910
*SPRING, ELSET=WK_1428

6.194139e-02
*ELEMENT, TYPE=SPRINGA, ELSET=WK_1429
   23670,    23049,    26911
*SPRING, ELSET=WK_1429

6.194139e-02
*ELEMENT, TYPE=SPRINGA, ELSET=WK_1430
   23671,    23052,    26912
*SPRING, ELSET=WK_1430

6.194139e-02
*ELEMENT, TYPE=SPRINGA, ELSET=WK_1431
   23672,    23055,    26913
*SPRING, ELSET=WK_1431

6.194139e-02
*ELEMENT, TYPE=SPRINGA, ELSET=WK_1432
   23673,    23058,    26914
*SPRING, ELSET=WK_1432

6.194139e-02
*ELEMENT, TYPE=SPRINGA, ELSET=WK_1433
   23674,    23061,    26915
*SPRING, ELSET=WK_1433

6.194139e-02
*ELEMENT, TYPE=SPRINGA, ELSET=WK_1434
   23675,    23064,    26916
*SPRING, ELSET=WK_1434

6.194139e-02
*ELEMENT, TYPE=SPRINGA, ELSET=WK_1435
   23676,    23067,    26917
*SPRING, ELSET=WK_1435

6.194139e-02
*ELEMENT, TYPE=SPRINGA, ELSET=WK_1436
   23677,    23070,    26918
*SPRING, ELSET=WK_1436

6.194139e-02
*ELEMENT, TYPE=SPRINGA, ELSET=WK_1437
   23678,    23073,    26919
*SPRING, ELSET=WK_1437

6.194139e-02
*ELEMENT, TYPE=SPRINGA, ELSET=WK_1438
   23679,    23076,    26920
*SPRING, ELSET=WK_1438

6.194139e-02
*ELEMENT, TYPE=SPRINGA, ELSET=WK_1439
   23680,    23079,    26921
*SPRING, ELSET=WK_1439

6.194139e-02
*ELEMENT, TYPE=SPRINGA, ELSET=WK_1440
   23681,    23082,    26922
*SPRING, ELSET=WK_1440

6.194139e-02
*ELEMENT, TYPE=SPRINGA, ELSET=WK_1441
   23682,    23085,    26923
*SPRING, ELSET=WK_1441

6.194139e-02
*ELEMENT, TYPE=SPRINGA, ELSET=WK_1442
   23683,    23088,    26924
*SPRING, ELSET=WK_1442

6.194139e-02
*ELEMENT, TYPE=SPRINGA, ELSET=WK_1443
   23684,    23091,    26925
*SPRING, ELSET=WK_1443

6.194139e-02
*ELEMENT, TYPE=SPRINGA, ELSET=WK_1444
   23685,    23094,    26926
*SPRING, ELSET=WK_1444

6.194139e-02
*ELEMENT, TYPE=SPRINGA, ELSET=WK_1445
   23686,    23097,    26927
*SPRING, ELSET=WK_1445

6.194139e-02
*ELEMENT, TYPE=SPRINGA, ELSET=WK_1446
   23687,    23100,    26928
*SPRING, ELSET=WK_1446

6.194139e-02
*ELEMENT, TYPE=SPRINGA, ELSET=WK_1447
   23688,    23103,    26929
*SPRING, ELSET=WK_1447

6.194139e-02
*ELEMENT, TYPE=SPRINGA, ELSET=WK_1448
   23689,    23106,    26930
*SPRING, ELSET=WK_1448

6.194139e-02
*ELEMENT, TYPE=SPRINGA, ELSET=WK_1449
   23690,    23109,    26931
*SPRING, ELSET=WK_1449

6.194139e-02
*ELEMENT, TYPE=SPRINGA, ELSET=WK_1450
   23691,    23112,    26932
*SPRING, ELSET=WK_1450

6.194139e-02
*ELEMENT, TYPE=SPRINGA, ELSET=WK_1451
   23692,    23115,    26933
*SPRING, ELSET=WK_1451

6.194139e-02
*ELEMENT, TYPE=SPRINGA, ELSET=WK_1452
   23693,    23118,    26934
*SPRING, ELSET=WK_1452

6.194139e-02
*ELEMENT, TYPE=SPRINGA, ELSET=WK_1453
   23694,    23121,    26935
*SPRING, ELSET=WK_1453

6.194139e-02
*ELEMENT, TYPE=SPRINGA, ELSET=WK_1454
   23695,    23124,    26936
*SPRING, ELSET=WK_1454

6.194139e-02
*ELEMENT, TYPE=SPRINGA, ELSET=WK_1455
   23696,    23127,    26937
*SPRING, ELSET=WK_1455

6.194139e-02
*ELEMENT, TYPE=SPRINGA, ELSET=WK_1456
   23697,    23130,    26938
*SPRING, ELSET=WK_1456

6.194139e-02
*ELEMENT, TYPE=SPRINGA, ELSET=WK_1457
   23698,    23133,    26939
*SPRING, ELSET=WK_1457

6.194139e-02
*ELEMENT, TYPE=SPRINGA, ELSET=WK_1458
   23699,    23136,    26940
*SPRING, ELSET=WK_1458

6.194139e-02
*ELEMENT, TYPE=SPRINGA, ELSET=WK_1459
   23700,    23139,    26941
*SPRING, ELSET=WK_1459

6.194139e-02
*ELEMENT, TYPE=SPRINGA, ELSET=WK_1460
   23701,    23142,    26942
*SPRING, ELSET=WK_1460

6.194139e-02
*ELEMENT, TYPE=SPRINGA, ELSET=WK_1461
   23702,    23145,    26943
*SPRING, ELSET=WK_1461

6.194139e-02
*ELEMENT, TYPE=SPRINGA, ELSET=WK_1462
   23703,    23148,    26944
*SPRING, ELSET=WK_1462

6.194139e-02
*ELEMENT, TYPE=SPRINGA, ELSET=WK_1463
   23704,    23151,    26945
*SPRING, ELSET=WK_1463

6.194139e-02
*ELEMENT, TYPE=SPRINGA, ELSET=WK_1464
   23705,    23154,    26946
*SPRING, ELSET=WK_1464

6.194139e-02
*ELEMENT, TYPE=SPRINGA, ELSET=WK_1465
   23706,    23157,    26947
*SPRING, ELSET=WK_1465

6.194139e-02
*ELEMENT, TYPE=SPRINGA, ELSET=WK_1466
   23707,    23160,    26948
*SPRING, ELSET=WK_1466

6.194139e-02
*ELEMENT, TYPE=SPRINGA, ELSET=WK_1467
   23708,    23163,    26949
*SPRING, ELSET=WK_1467

6.194139e-02
*ELEMENT, TYPE=SPRINGA, ELSET=WK_1468
   23709,    23166,    26950
*SPRING, ELSET=WK_1468

6.194139e-02
*ELEMENT, TYPE=SPRINGA, ELSET=WK_1469
   23710,    23169,    26951
*SPRING, ELSET=WK_1469

6.194139e-02
*ELEMENT, TYPE=SPRINGA, ELSET=WK_1470
   23711,    23172,    26952
*SPRING, ELSET=WK_1470

6.194139e-02
*ELEMENT, TYPE=SPRINGA, ELSET=WK_1471
   23712,    23175,    26953
*SPRING, ELSET=WK_1471

6.194139e-02
*ELEMENT, TYPE=SPRINGA, ELSET=WK_1472
   23713,    23178,    26954
*SPRING, ELSET=WK_1472

6.194139e-02
*ELEMENT, TYPE=SPRINGA, ELSET=WK_1473
   23714,    23181,    26955
*SPRING, ELSET=WK_1473

6.194139e-02
*ELEMENT, TYPE=SPRINGA, ELSET=WK_1474
   23715,    23184,    26956
*SPRING, ELSET=WK_1474

6.194139e-02
*ELEMENT, TYPE=SPRINGA, ELSET=WK_1475
   23716,    23187,    26957
*SPRING, ELSET=WK_1475

6.194139e-02
*ELEMENT, TYPE=SPRINGA, ELSET=WK_1476
   23717,    23190,    26958
*SPRING, ELSET=WK_1476

6.194139e-02
*ELEMENT, TYPE=SPRINGA, ELSET=WK_1477
   23718,    23193,    26959
*SPRING, ELSET=WK_1477

6.194139e-02
*ELEMENT, TYPE=SPRINGA, ELSET=WK_1478
   23719,    23196,    26960
*SPRING, ELSET=WK_1478

6.194139e-02
*ELEMENT, TYPE=SPRINGA, ELSET=WK_1479
   23720,    23199,    26961
*SPRING, ELSET=WK_1479

6.194139e-02
*ELEMENT, TYPE=SPRINGA, ELSET=WK_1480
   23721,    23202,    26962
*SPRING, ELSET=WK_1480

6.194139e-02
*ELEMENT, TYPE=SPRINGA, ELSET=WK_1481
   23722,    23205,    26963
*SPRING, ELSET=WK_1481

6.194139e-02
*ELEMENT, TYPE=SPRINGA, ELSET=WK_1482
   23723,    23208,    26964
*SPRING, ELSET=WK_1482

6.194139e-02
*ELEMENT, TYPE=SPRINGA, ELSET=WK_1483
   23724,    23211,    26965
*SPRING, ELSET=WK_1483

6.194139e-02
*ELEMENT, TYPE=SPRINGA, ELSET=WK_1484
   23725,    23214,    26966
*SPRING, ELSET=WK_1484

6.194139e-02
*ELEMENT, TYPE=SPRINGA, ELSET=WK_1485
   23726,    23217,    26967
*SPRING, ELSET=WK_1485

6.194139e-02
*ELEMENT, TYPE=SPRINGA, ELSET=WK_1486
   23727,    23220,    26968
*SPRING, ELSET=WK_1486

6.194139e-02
*ELEMENT, TYPE=SPRINGA, ELSET=WK_1487
   23728,    23223,    26969
*SPRING, ELSET=WK_1487

6.194139e-02
*ELEMENT, TYPE=SPRINGA, ELSET=WK_1488
   23729,    23226,    26970
*SPRING, ELSET=WK_1488

6.194139e-02
*ELEMENT, TYPE=SPRINGA, ELSET=WK_1489
   23730,    23229,    26971
*SPRING, ELSET=WK_1489

6.194139e-02
*ELEMENT, TYPE=SPRINGA, ELSET=WK_1490
   23731,    23232,    26972
*SPRING, ELSET=WK_1490

6.194139e-02
*ELEMENT, TYPE=SPRINGA, ELSET=WK_1491
   23732,    23235,    26973
*SPRING, ELSET=WK_1491

6.194139e-02
*ELEMENT, TYPE=SPRINGA, ELSET=WK_1492
   23733,    23238,    26974
*SPRING, ELSET=WK_1492

6.194139e-02
*ELEMENT, TYPE=SPRINGA, ELSET=WK_1493
   23734,    23241,    26975
*SPRING, ELSET=WK_1493

6.194139e-02
*ELEMENT, TYPE=SPRINGA, ELSET=WK_1494
   23735,    23244,    26976
*SPRING, ELSET=WK_1494

6.194139e-02
*ELEMENT, TYPE=SPRINGA, ELSET=WK_1495
   23736,    23247,    26977
*SPRING, ELSET=WK_1495

6.194139e-02
*ELEMENT, TYPE=SPRINGA, ELSET=WK_1496
   23737,    23250,    26978
*SPRING, ELSET=WK_1496

6.194139e-02
*ELEMENT, TYPE=SPRINGA, ELSET=WK_1497
   23738,    23253,    26979
*SPRING, ELSET=WK_1497

6.194139e-02
*ELEMENT, TYPE=SPRINGA, ELSET=WK_1498
   23739,    23256,    26980
*SPRING, ELSET=WK_1498

6.194139e-02
*ELEMENT, TYPE=SPRINGA, ELSET=WK_1499
   23740,    23259,    26981
*SPRING, ELSET=WK_1499

6.194139e-02
*ELEMENT, TYPE=SPRINGA, ELSET=WK_1500
   23741,    23262,    26982
*SPRING, ELSET=WK_1500

6.194139e-02
*ELEMENT, TYPE=SPRINGA, ELSET=WK_1501
   23742,    23265,    26983
*SPRING, ELSET=WK_1501

6.194139e-02
*ELEMENT, TYPE=SPRINGA, ELSET=WK_1502
   23743,    23268,    26984
*SPRING, ELSET=WK_1502

6.194139e-02
*ELEMENT, TYPE=SPRINGA, ELSET=WK_1503
   23744,    23271,    26985
*SPRING, ELSET=WK_1503

6.194139e-02
*ELEMENT, TYPE=SPRINGA, ELSET=WK_1504
   23745,    23274,    26986
*SPRING, ELSET=WK_1504

6.194139e-02
*ELEMENT, TYPE=SPRINGA, ELSET=WK_1505
   23746,    23277,    26987
*SPRING, ELSET=WK_1505

6.194139e-02
*ELEMENT, TYPE=SPRINGA, ELSET=WK_1506
   23747,    23280,    26988
*SPRING, ELSET=WK_1506

6.194139e-02
*ELEMENT, TYPE=SPRINGA, ELSET=WK_1507
   23748,    23283,    26989
*SPRING, ELSET=WK_1507

6.194139e-02
*ELEMENT, TYPE=SPRINGA, ELSET=WK_1508
   23749,    23286,    26990
*SPRING, ELSET=WK_1508

6.194139e-02
*ELEMENT, TYPE=SPRINGA, ELSET=WK_1509
   23750,    23289,    26991
*SPRING, ELSET=WK_1509

6.194139e-02
*ELEMENT, TYPE=SPRINGA, ELSET=WK_1510
   23751,    23292,    26992
*SPRING, ELSET=WK_1510

6.194139e-02
*ELEMENT, TYPE=SPRINGA, ELSET=WK_1511
   23752,    23295,    26993
*SPRING, ELSET=WK_1511

6.194139e-02
*ELEMENT, TYPE=SPRINGA, ELSET=WK_1512
   23753,    23298,    26994
*SPRING, ELSET=WK_1512

6.194139e-02
*ELEMENT, TYPE=SPRINGA, ELSET=WK_1513
   23754,    23301,    26995
*SPRING, ELSET=WK_1513

6.194139e-02
*ELEMENT, TYPE=SPRINGA, ELSET=WK_1514
   23755,    23304,    26996
*SPRING, ELSET=WK_1514

6.194139e-02
*ELEMENT, TYPE=SPRINGA, ELSET=WK_1515
   23756,    23307,    26997
*SPRING, ELSET=WK_1515

6.194139e-02
*ELEMENT, TYPE=SPRINGA, ELSET=WK_1516
   23757,    23310,    26998
*SPRING, ELSET=WK_1516

6.194139e-02
*ELEMENT, TYPE=SPRINGA, ELSET=WK_1517
   23758,    23313,    26999
*SPRING, ELSET=WK_1517

6.194139e-02
*ELEMENT, TYPE=SPRINGA, ELSET=WK_1518
   23759,    23316,    27000
*SPRING, ELSET=WK_1518

6.194139e-02
*ELEMENT, TYPE=SPRINGA, ELSET=WK_1519
   23760,    23319,    27001
*SPRING, ELSET=WK_1519

6.194139e-02
*ELEMENT, TYPE=SPRINGA, ELSET=WK_1520
   23761,    23322,    27002
*SPRING, ELSET=WK_1520

6.194139e-02
*ELEMENT, TYPE=SPRINGA, ELSET=WK_1521
   23762,    23325,    27003
*SPRING, ELSET=WK_1521

6.194139e-02
*ELEMENT, TYPE=SPRINGA, ELSET=WK_1522
   23763,    23328,    27004
*SPRING, ELSET=WK_1522

6.194139e-02
*ELEMENT, TYPE=SPRINGA, ELSET=WK_1523
   23764,    23331,    27005
*SPRING, ELSET=WK_1523

6.194139e-02
*ELEMENT, TYPE=SPRINGA, ELSET=WK_1524
   23765,    23334,    27006
*SPRING, ELSET=WK_1524

6.194139e-02
*ELEMENT, TYPE=SPRINGA, ELSET=WK_1525
   23766,    23337,    27007
*SPRING, ELSET=WK_1525

6.194139e-02
*ELEMENT, TYPE=SPRINGA, ELSET=WK_1526
   23767,    23340,    27008
*SPRING, ELSET=WK_1526

6.194139e-02
*ELEMENT, TYPE=SPRINGA, ELSET=WK_1527
   23768,    23343,    27009
*SPRING, ELSET=WK_1527

6.194139e-02
*ELEMENT, TYPE=SPRINGA, ELSET=WK_1528
   23769,    23346,    27010
*SPRING, ELSET=WK_1528

6.194139e-02
*ELEMENT, TYPE=SPRINGA, ELSET=WK_1529
   23770,    23349,    27011
*SPRING, ELSET=WK_1529

6.194139e-02
*ELEMENT, TYPE=SPRINGA, ELSET=WK_1530
   23771,    23352,    27012
*SPRING, ELSET=WK_1530

6.194139e-02
*ELEMENT, TYPE=SPRINGA, ELSET=WK_1531
   23772,    23355,    27013
*SPRING, ELSET=WK_1531

6.194139e-02
*ELEMENT, TYPE=SPRINGA, ELSET=WK_1532
   23773,    23358,    27014
*SPRING, ELSET=WK_1532

6.194139e-02
*ELEMENT, TYPE=SPRINGA, ELSET=WK_1533
   23774,    23361,    27015
*SPRING, ELSET=WK_1533

6.194139e-02
*ELEMENT, TYPE=SPRINGA, ELSET=WK_1534
   23775,    23364,    27016
*SPRING, ELSET=WK_1534

6.194139e-02
*ELEMENT, TYPE=SPRINGA, ELSET=WK_1535
   23776,    23367,    27017
*SPRING, ELSET=WK_1535

6.194139e-02
*ELEMENT, TYPE=SPRINGA, ELSET=WK_1536
   23777,    23370,    27018
*SPRING, ELSET=WK_1536

6.194139e-02
*ELEMENT, TYPE=SPRINGA, ELSET=WK_1537
   23778,    23373,    27019
*SPRING, ELSET=WK_1537

6.194139e-02
*ELEMENT, TYPE=SPRINGA, ELSET=WK_1538
   23779,    23376,    27020
*SPRING, ELSET=WK_1538

6.194139e-02
*ELEMENT, TYPE=SPRINGA, ELSET=WK_1539
   23780,    23379,    27021
*SPRING, ELSET=WK_1539

6.194139e-02
*ELEMENT, TYPE=SPRINGA, ELSET=WK_1540
   23781,    23382,    27022
*SPRING, ELSET=WK_1540

6.194139e-02
*ELEMENT, TYPE=SPRINGA, ELSET=WK_1541
   23782,    23385,    27023
*SPRING, ELSET=WK_1541

6.194139e-02
*ELEMENT, TYPE=SPRINGA, ELSET=WK_1542
   23783,    23388,    27024
*SPRING, ELSET=WK_1542

6.194139e-02
*ELEMENT, TYPE=SPRINGA, ELSET=WK_1543
   23784,    23391,    27025
*SPRING, ELSET=WK_1543

6.194139e-02
*ELEMENT, TYPE=SPRINGA, ELSET=WK_1544
   23785,    23394,    27026
*SPRING, ELSET=WK_1544

6.194139e-02
*ELEMENT, TYPE=SPRINGA, ELSET=WK_1545
   23786,    23397,    27027
*SPRING, ELSET=WK_1545

6.194139e-02
*ELEMENT, TYPE=SPRINGA, ELSET=WK_1546
   23787,    23400,    27028
*SPRING, ELSET=WK_1546

6.194139e-02
*ELEMENT, TYPE=SPRINGA, ELSET=WK_1547
   23788,    23403,    27029
*SPRING, ELSET=WK_1547

6.194139e-02
*ELEMENT, TYPE=SPRINGA, ELSET=WK_1548
   23789,    23406,    27030
*SPRING, ELSET=WK_1548

6.194139e-02
*ELEMENT, TYPE=SPRINGA, ELSET=WK_1549
   23790,    23409,    27031
*SPRING, ELSET=WK_1549

6.194139e-02
*ELEMENT, TYPE=SPRINGA, ELSET=WK_1550
   23791,    23412,    27032
*SPRING, ELSET=WK_1550

6.194139e-02
*ELEMENT, TYPE=SPRINGA, ELSET=WK_1551
   23792,    23415,    27033
*SPRING, ELSET=WK_1551

3.097070e-02
*ELEMENT, TYPE=SPRINGA, ELSET=WK_1552
   23793,    23418,    27034
*SPRING, ELSET=WK_1552

3.097070e-02
*ELEMENT, TYPE=SPRINGA, ELSET=WK_1553
   23794,    23421,    27035
*SPRING, ELSET=WK_1553

3.097070e-02
*ELEMENT, TYPE=SPRINGA, ELSET=WK_1554
   23795,    23424,    27036
*SPRING, ELSET=WK_1554

3.097070e-02
*ELEMENT, TYPE=SPRINGA, ELSET=WK_1555
   23796,    23427,    27037
*SPRING, ELSET=WK_1555

3.097070e-02
*ELEMENT, TYPE=SPRINGA, ELSET=WK_1556
   23797,    23430,    27038
*SPRING, ELSET=WK_1556

3.097070e-02
*ELEMENT, TYPE=SPRINGA, ELSET=WK_1557
   23798,    23433,    27039
*SPRING, ELSET=WK_1557

3.097070e-02
*ELEMENT, TYPE=SPRINGA, ELSET=WK_1558
   23799,    23436,    27040
*SPRING, ELSET=WK_1558

3.097070e-02
*ELEMENT, TYPE=SPRINGA, ELSET=WK_1559
   23800,    23439,    27041
*SPRING, ELSET=WK_1559

3.097070e-02
*BOUNDARY
GHOST_WINKLER, 1, 3, 0
