** Malha C3D8I gerada por foam_polymesh_to_ccx_inp.py
** Origem: ../solid/constant/polyMesh
*NODE, NSET=NALL
       1, -1.28359522e-02, -2.71719046e-02,  7.50000000e-04
       2, -1.28359522e-02, -2.71719046e-02,  5.00000000e-04
       3, -1.28359522e-02, -2.71719046e-02,  2.50000000e-04
       4, -1.28359522e-02, -2.71719046e-02,  0.00000000e+00
       5, -1.28359522e-02, -2.71719046e-02, -2.50000000e-04
       6, -1.28359522e-02, -2.71719046e-02, -5.00000000e-04
       7, -1.28359522e-02, -2.71719046e-02, -7.50000000e-04
       8, -1.29859522e-02, -2.69719046e-02,  7.50000000e-04
       9, -1.29859522e-02, -2.69719046e-02,  5.00000000e-04
      10, -1.29859522e-02, -2.69719046e-02,  2.50000000e-04
      11, -1.29859522e-02, -2.69719046e-02,  0.00000000e+00
      12, -1.29859522e-02, -2.69719046e-02, -2.50000000e-04
      13, -1.29859522e-02, -2.69719046e-02, -5.00000000e-04
      14, -1.29859522e-02, -2.69719046e-02, -7.50000000e-04
      15, -1.31359522e-02, -2.67719046e-02,  7.50000000e-04
      16, -1.31359522e-02, -2.67719046e-02,  5.00000000e-04
      17, -1.31359522e-02, -2.67719046e-02,  2.50000000e-04
      18, -1.31359522e-02, -2.67719046e-02,  0.00000000e+00
      19, -1.31359522e-02, -2.67719046e-02, -2.50000000e-04
      20, -1.31359522e-02, -2.67719046e-02, -5.00000000e-04
      21, -1.31359522e-02, -2.67719046e-02, -7.50000000e-04
      22, -1.32859522e-02, -2.65719046e-02,  7.50000000e-04
      23, -1.32859522e-02, -2.65719046e-02,  5.00000000e-04
      24, -1.32859522e-02, -2.65719046e-02,  2.50000000e-04
      25, -1.32859522e-02, -2.65719046e-02,  0.00000000e+00
      26, -1.32859522e-02, -2.65719046e-02, -2.50000000e-04
      27, -1.32859522e-02, -2.65719046e-02, -5.00000000e-04
      28, -1.32859522e-02, -2.65719046e-02, -7.50000000e-04
      29, -1.34359522e-02, -2.63719046e-02,  7.50000000e-04
      30, -1.34359522e-02, -2.63719046e-02,  5.00000000e-04
      31, -1.34359522e-02, -2.63719046e-02,  2.50000000e-04
      32, -1.34359522e-02, -2.63719046e-02,  0.00000000e+00
      33, -1.34359522e-02, -2.63719046e-02, -2.50000000e-04
      34, -1.34359522e-02, -2.63719046e-02, -5.00000000e-04
      35, -1.34359522e-02, -2.63719046e-02, -7.50000000e-04
      36, -1.35859522e-02, -2.61719046e-02,  7.50000000e-04
      37, -1.35859522e-02, -2.61719046e-02,  5.00000000e-04
      38, -1.35859522e-02, -2.61719046e-02,  2.50000000e-04
      39, -1.35859522e-02, -2.61719046e-02,  0.00000000e+00
      40, -1.35859522e-02, -2.61719046e-02, -2.50000000e-04
      41, -1.35859522e-02, -2.61719046e-02, -5.00000000e-04
      42, -1.35859522e-02, -2.61719046e-02, -7.50000000e-04
      43, -1.37359522e-02, -2.59719046e-02,  7.50000000e-04
      44, -1.37359522e-02, -2.59719046e-02,  5.00000000e-04
      45, -1.37359522e-02, -2.59719046e-02,  2.50000000e-04
      46, -1.37359522e-02, -2.59719046e-02,  0.00000000e+00
      47, -1.37359522e-02, -2.59719046e-02, -2.50000000e-04
      48, -1.37359522e-02, -2.59719046e-02, -5.00000000e-04
      49, -1.37359522e-02, -2.59719046e-02, -7.50000000e-04
      50, -1.04681630e-02, -2.52230045e-02,  7.50000000e-04
      51, -1.04681630e-02, -2.52230045e-02,  5.00000000e-04
      52, -1.04681630e-02, -2.52230045e-02,  2.50000000e-04
      53, -1.04681630e-02, -2.52230045e-02,  0.00000000e+00
      54, -1.04681630e-02, -2.52230045e-02, -2.50000000e-04
      55, -1.04681630e-02, -2.52230045e-02, -5.00000000e-04
      56, -1.04681630e-02, -2.52230045e-02, -7.50000000e-04
      57, -1.06355912e-02, -2.50373495e-02,  7.50000000e-04
      58, -1.06355912e-02, -2.50373495e-02,  5.00000000e-04
      59, -1.06355912e-02, -2.50373495e-02,  2.50000000e-04
      60, -1.06355912e-02, -2.50373495e-02,  0.00000000e+00
      61, -1.06355912e-02, -2.50373495e-02, -2.50000000e-04
      62, -1.06355912e-02, -2.50373495e-02, -5.00000000e-04
      63, -1.06355912e-02, -2.50373495e-02, -7.50000000e-04
      64, -1.08030194e-02, -2.48516945e-02,  7.50000000e-04
      65, -1.08030194e-02, -2.48516945e-02,  5.00000000e-04
      66, -1.08030194e-02, -2.48516945e-02,  2.50000000e-04
      67, -1.08030194e-02, -2.48516945e-02,  0.00000000e+00
      68, -1.08030194e-02, -2.48516945e-02, -2.50000000e-04
      69, -1.08030194e-02, -2.48516945e-02, -5.00000000e-04
      70, -1.08030194e-02, -2.48516945e-02, -7.50000000e-04
      71, -1.09704476e-02, -2.46660394e-02,  7.50000000e-04
      72, -1.09704476e-02, -2.46660394e-02,  5.00000000e-04
      73, -1.09704476e-02, -2.46660394e-02,  2.50000000e-04
      74, -1.09704476e-02, -2.46660394e-02,  0.00000000e+00
      75, -1.09704476e-02, -2.46660394e-02, -2.50000000e-04
      76, -1.09704476e-02, -2.46660394e-02, -5.00000000e-04
      77, -1.09704476e-02, -2.46660394e-02, -7.50000000e-04
      78, -1.11378759e-02, -2.44803844e-02,  7.50000000e-04
      79, -1.11378759e-02, -2.44803844e-02,  5.00000000e-04
      80, -1.11378759e-02, -2.44803844e-02,  2.50000000e-04
      81, -1.11378759e-02, -2.44803844e-02,  0.00000000e+00
      82, -1.11378759e-02, -2.44803844e-02, -2.50000000e-04
      83, -1.11378759e-02, -2.44803844e-02, -5.00000000e-04
      84, -1.11378759e-02, -2.44803844e-02, -7.50000000e-04
      85, -1.13053041e-02, -2.42947294e-02,  7.50000000e-04
      86, -1.13053041e-02, -2.42947294e-02,  5.00000000e-04
      87, -1.13053041e-02, -2.42947294e-02,  2.50000000e-04
      88, -1.13053041e-02, -2.42947294e-02,  0.00000000e+00
      89, -1.13053041e-02, -2.42947294e-02, -2.50000000e-04
      90, -1.13053041e-02, -2.42947294e-02, -5.00000000e-04
      91, -1.13053041e-02, -2.42947294e-02, -7.50000000e-04
      92, -1.14727323e-02, -2.41090743e-02,  7.50000000e-04
      93, -1.14727323e-02, -2.41090743e-02,  5.00000000e-04
      94, -1.14727323e-02, -2.41090743e-02,  2.50000000e-04
      95, -1.14727323e-02, -2.41090743e-02,  0.00000000e+00
      96, -1.14727323e-02, -2.41090743e-02, -2.50000000e-04
      97, -1.14727323e-02, -2.41090743e-02, -5.00000000e-04
      98, -1.14727323e-02, -2.41090743e-02, -7.50000000e-04
      99, -8.28581258e-03, -2.30684782e-02,  7.50000000e-04
     100, -8.28581258e-03, -2.30684782e-02,  5.00000000e-04
     101, -8.28581258e-03, -2.30684782e-02,  2.50000000e-04
     102, -8.28581258e-03, -2.30684782e-02,  0.00000000e+00
     103, -8.28581258e-03, -2.30684782e-02, -2.50000000e-04
     104, -8.28581258e-03, -2.30684782e-02, -5.00000000e-04
     105, -8.28581258e-03, -2.30684782e-02, -7.50000000e-04
     106, -8.46930408e-03, -2.28986817e-02,  7.50000000e-04
     107, -8.46930408e-03, -2.28986817e-02,  5.00000000e-04
     108, -8.46930408e-03, -2.28986817e-02,  2.50000000e-04
     109, -8.46930408e-03, -2.28986817e-02,  0.00000000e+00
     110, -8.46930408e-03, -2.28986817e-02, -2.50000000e-04
     111, -8.46930408e-03, -2.28986817e-02, -5.00000000e-04
     112, -8.46930408e-03, -2.28986817e-02, -7.50000000e-04
     113, -8.65279558e-03, -2.27288851e-02,  7.50000000e-04
     114, -8.65279558e-03, -2.27288851e-02,  5.00000000e-04
     115, -8.65279558e-03, -2.27288851e-02,  2.50000000e-04
     116, -8.65279558e-03, -2.27288851e-02,  0.00000000e+00
     117, -8.65279558e-03, -2.27288851e-02, -2.50000000e-04
     118, -8.65279558e-03, -2.27288851e-02, -5.00000000e-04
     119, -8.65279558e-03, -2.27288851e-02, -7.50000000e-04
     120, -8.83628709e-03, -2.25590886e-02,  7.50000000e-04
     121, -8.83628709e-03, -2.25590886e-02,  5.00000000e-04
     122, -8.83628709e-03, -2.25590886e-02,  2.50000000e-04
     123, -8.83628709e-03, -2.25590886e-02,  0.00000000e+00
     124, -8.83628709e-03, -2.25590886e-02, -2.50000000e-04
     125, -8.83628709e-03, -2.25590886e-02, -5.00000000e-04
     126, -8.83628709e-03, -2.25590886e-02, -7.50000000e-04
     127, -9.01977859e-03, -2.23892920e-02,  7.50000000e-04
     128, -9.01977859e-03, -2.23892920e-02,  5.00000000e-04
     129, -9.01977859e-03, -2.23892920e-02,  2.50000000e-04
     130, -9.01977859e-03, -2.23892920e-02,  0.00000000e+00
     131, -9.01977859e-03, -2.23892920e-02, -2.50000000e-04
     132, -9.01977859e-03, -2.23892920e-02, -5.00000000e-04
     133, -9.01977859e-03, -2.23892920e-02, -7.50000000e-04
     134, -9.20327010e-03, -2.22194955e-02,  7.50000000e-04
     135, -9.20327010e-03, -2.22194955e-02,  5.00000000e-04
     136, -9.20327010e-03, -2.22194955e-02,  2.50000000e-04
     137, -9.20327010e-03, -2.22194955e-02,  0.00000000e+00
     138, -9.20327010e-03, -2.22194955e-02, -2.50000000e-04
     139, -9.20327010e-03, -2.22194955e-02, -5.00000000e-04
     140, -9.20327010e-03, -2.22194955e-02, -7.50000000e-04
     141, -9.38676160e-03, -2.20496989e-02,  7.50000000e-04
     142, -9.38676160e-03, -2.20496989e-02,  5.00000000e-04
     143, -9.38676160e-03, -2.20496989e-02,  2.50000000e-04
     144, -9.38676160e-03, -2.20496989e-02,  0.00000000e+00
     145, -9.38676160e-03, -2.20496989e-02, -2.50000000e-04
     146, -9.38676160e-03, -2.20496989e-02, -5.00000000e-04
     147, -9.38676160e-03, -2.20496989e-02, -7.50000000e-04
     148, -6.30669221e-03, -2.07258900e-02,  7.50000000e-04
     149, -6.30669221e-03, -2.07258900e-02,  5.00000000e-04
     150, -6.30669221e-03, -2.07258900e-02,  2.50000000e-04
     151, -6.30669221e-03, -2.07258900e-02,  0.00000000e+00
     152, -6.30669221e-03, -2.07258900e-02, -2.50000000e-04
     153, -6.30669221e-03, -2.07258900e-02, -5.00000000e-04
     154, -6.30669221e-03, -2.07258900e-02, -7.50000000e-04
     155, -6.50475111e-03, -2.05733362e-02,  7.50000000e-04
     156, -6.50475111e-03, -2.05733362e-02,  5.00000000e-04
     157, -6.50475111e-03, -2.05733362e-02,  2.50000000e-04
     158, -6.50475111e-03, -2.05733362e-02,  0.00000000e+00
     159, -6.50475111e-03, -2.05733362e-02, -2.50000000e-04
     160, -6.50475111e-03, -2.05733362e-02, -5.00000000e-04
     161, -6.50475111e-03, -2.05733362e-02, -7.50000000e-04
     162, -6.70281002e-03, -2.04207823e-02,  7.50000000e-04
     163, -6.70281002e-03, -2.04207823e-02,  5.00000000e-04
     164, -6.70281002e-03, -2.04207823e-02,  2.50000000e-04
     165, -6.70281002e-03, -2.04207823e-02,  0.00000000e+00
     166, -6.70281002e-03, -2.04207823e-02, -2.50000000e-04
     167, -6.70281002e-03, -2.04207823e-02, -5.00000000e-04
     168, -6.70281002e-03, -2.04207823e-02, -7.50000000e-04
     169, -6.90086893e-03, -2.02682285e-02,  7.50000000e-04
     170, -6.90086893e-03, -2.02682285e-02,  5.00000000e-04
     171, -6.90086893e-03, -2.02682285e-02,  2.50000000e-04
     172, -6.90086893e-03, -2.02682285e-02,  0.00000000e+00
     173, -6.90086893e-03, -2.02682285e-02, -2.50000000e-04
     174, -6.90086893e-03, -2.02682285e-02, -5.00000000e-04
     175, -6.90086893e-03, -2.02682285e-02, -7.50000000e-04
     176, -7.09892783e-03, -2.01156747e-02,  7.50000000e-04
     177, -7.09892783e-03, -2.01156747e-02,  5.00000000e-04
     178, -7.09892783e-03, -2.01156747e-02,  2.50000000e-04
     179, -7.09892783e-03, -2.01156747e-02,  0.00000000e+00
     180, -7.09892783e-03, -2.01156747e-02, -2.50000000e-04
     181, -7.09892783e-03, -2.01156747e-02, -5.00000000e-04
     182, -7.09892783e-03, -2.01156747e-02, -7.50000000e-04
     183, -7.29698674e-03, -1.99631209e-02,  7.50000000e-04
     184, -7.29698674e-03, -1.99631209e-02,  5.00000000e-04
     185, -7.29698674e-03, -1.99631209e-02,  2.50000000e-04
     186, -7.29698674e-03, -1.99631209e-02,  0.00000000e+00
     187, -7.29698674e-03, -1.99631209e-02, -2.50000000e-04
     188, -7.29698674e-03, -1.99631209e-02, -5.00000000e-04
     189, -7.29698674e-03, -1.99631209e-02, -7.50000000e-04
     190, -7.49504565e-03, -1.98105670e-02,  7.50000000e-04
     191, -7.49504565e-03, -1.98105670e-02,  5.00000000e-04
     192, -7.49504565e-03, -1.98105670e-02,  2.50000000e-04
     193, -7.49504565e-03, -1.98105670e-02,  0.00000000e+00
     194, -7.49504565e-03, -1.98105670e-02, -2.50000000e-04
     195, -7.49504565e-03, -1.98105670e-02, -5.00000000e-04
     196, -7.49504565e-03, -1.98105670e-02, -7.50000000e-04
     197, -4.54693632e-03, -1.82143374e-02,  7.50000000e-04
     198, -4.54693632e-03, -1.82143374e-02,  5.00000000e-04
     199, -4.54693632e-03, -1.82143374e-02,  2.50000000e-04
     200, -4.54693632e-03, -1.82143374e-02,  0.00000000e+00
     201, -4.54693632e-03, -1.82143374e-02, -2.50000000e-04
     202, -4.54693632e-03, -1.82143374e-02, -5.00000000e-04
     203, -4.54693632e-03, -1.82143374e-02, -7.50000000e-04
     204, -4.75794798e-03, -1.80802700e-02,  7.50000000e-04
     205, -4.75794798e-03, -1.80802700e-02,  5.00000000e-04
     206, -4.75794798e-03, -1.80802700e-02,  2.50000000e-04
     207, -4.75794798e-03, -1.80802700e-02,  0.00000000e+00
     208, -4.75794798e-03, -1.80802700e-02, -2.50000000e-04
     209, -4.75794798e-03, -1.80802700e-02, -5.00000000e-04
     210, -4.75794798e-03, -1.80802700e-02, -7.50000000e-04
     211, -4.96895965e-03, -1.79462026e-02,  7.50000000e-04
     212, -4.96895965e-03, -1.79462026e-02,  5.00000000e-04
     213, -4.96895965e-03, -1.79462026e-02,  2.50000000e-04
     214, -4.96895965e-03, -1.79462026e-02,  0.00000000e+00
     215, -4.96895965e-03, -1.79462026e-02, -2.50000000e-04
     216, -4.96895965e-03, -1.79462026e-02, -5.00000000e-04
     217, -4.96895965e-03, -1.79462026e-02, -7.50000000e-04
     218, -5.17997132e-03, -1.78121351e-02,  7.50000000e-04
     219, -5.17997132e-03, -1.78121351e-02,  5.00000000e-04
     220, -5.17997132e-03, -1.78121351e-02,  2.50000000e-04
     221, -5.17997132e-03, -1.78121351e-02,  0.00000000e+00
     222, -5.17997132e-03, -1.78121351e-02, -2.50000000e-04
     223, -5.17997132e-03, -1.78121351e-02, -5.00000000e-04
     224, -5.17997132e-03, -1.78121351e-02, -7.50000000e-04
     225, -5.39098299e-03, -1.76780677e-02,  7.50000000e-04
     226, -5.39098299e-03, -1.76780677e-02,  5.00000000e-04
     227, -5.39098299e-03, -1.76780677e-02,  2.50000000e-04
     228, -5.39098299e-03, -1.76780677e-02,  0.00000000e+00
     229, -5.39098299e-03, -1.76780677e-02, -2.50000000e-04
     230, -5.39098299e-03, -1.76780677e-02, -5.00000000e-04
     231, -5.39098299e-03, -1.76780677e-02, -7.50000000e-04
     232, -5.60199465e-03, -1.75440003e-02,  7.50000000e-04
     233, -5.60199465e-03, -1.75440003e-02,  5.00000000e-04
     234, -5.60199465e-03, -1.75440003e-02,  2.50000000e-04
     235, -5.60199465e-03, -1.75440003e-02,  0.00000000e+00
     236, -5.60199465e-03, -1.75440003e-02, -2.50000000e-04
     237, -5.60199465e-03, -1.75440003e-02, -5.00000000e-04
     238, -5.60199465e-03, -1.75440003e-02, -7.50000000e-04
     239, -5.81300632e-03, -1.74099328e-02,  7.50000000e-04
     240, -5.81300632e-03, -1.74099328e-02,  5.00000000e-04
     241, -5.81300632e-03, -1.74099328e-02,  2.50000000e-04
     242, -5.81300632e-03, -1.74099328e-02,  0.00000000e+00
     243, -5.81300632e-03, -1.74099328e-02, -2.50000000e-04
     244, -5.81300632e-03, -1.74099328e-02, -5.00000000e-04
     245, -5.81300632e-03, -1.74099328e-02, -7.50000000e-04
     246, -3.02089102e-03, -1.55542955e-02,  7.50000000e-04
     247, -3.02089102e-03, -1.55542955e-02,  5.00000000e-04
     248, -3.02089102e-03, -1.55542955e-02,  2.50000000e-04
     249, -3.02089102e-03, -1.55542955e-02,  0.00000000e+00
     250, -3.02089102e-03, -1.55542955e-02, -2.50000000e-04
     251, -3.02089102e-03, -1.55542955e-02, -5.00000000e-04
     252, -3.02089102e-03, -1.55542955e-02, -7.50000000e-04
     253, -3.24313522e-03, -1.54398075e-02,  7.50000000e-04
     254, -3.24313522e-03, -1.54398075e-02,  5.00000000e-04
     255, -3.24313522e-03, -1.54398075e-02,  2.50000000e-04
     256, -3.24313522e-03, -1.54398075e-02,  0.00000000e+00
     257, -3.24313522e-03, -1.54398075e-02, -2.50000000e-04
     258, -3.24313522e-03, -1.54398075e-02, -5.00000000e-04
     259, -3.24313522e-03, -1.54398075e-02, -7.50000000e-04
     260, -3.46537941e-03, -1.53253194e-02,  7.50000000e-04
     261, -3.46537941e-03, -1.53253194e-02,  5.00000000e-04
     262, -3.46537941e-03, -1.53253194e-02,  2.50000000e-04
     263, -3.46537941e-03, -1.53253194e-02,  0.00000000e+00
     264, -3.46537941e-03, -1.53253194e-02, -2.50000000e-04
     265, -3.46537941e-03, -1.53253194e-02, -5.00000000e-04
     266, -3.46537941e-03, -1.53253194e-02, -7.50000000e-04
     267, -3.68762360e-03, -1.52108313e-02,  7.50000000e-04
     268, -3.68762360e-03, -1.52108313e-02,  5.00000000e-04
     269, -3.68762360e-03, -1.52108313e-02,  2.50000000e-04
     270, -3.68762360e-03, -1.52108313e-02,  0.00000000e+00
     271, -3.68762360e-03, -1.52108313e-02, -2.50000000e-04
     272, -3.68762360e-03, -1.52108313e-02, -5.00000000e-04
     273, -3.68762360e-03, -1.52108313e-02, -7.50000000e-04
     274, -3.90986779e-03, -1.50963432e-02,  7.50000000e-04
     275, -3.90986779e-03, -1.50963432e-02,  5.00000000e-04
     276, -3.90986779e-03, -1.50963432e-02,  2.50000000e-04
     277, -3.90986779e-03, -1.50963432e-02,  0.00000000e+00
     278, -3.90986779e-03, -1.50963432e-02, -2.50000000e-04
     279, -3.90986779e-03, -1.50963432e-02, -5.00000000e-04
     280, -3.90986779e-03, -1.50963432e-02, -7.50000000e-04
     281, -4.13211198e-03, -1.49818552e-02,  7.50000000e-04
     282, -4.13211198e-03, -1.49818552e-02,  5.00000000e-04
     283, -4.13211198e-03, -1.49818552e-02,  2.50000000e-04
     284, -4.13211198e-03, -1.49818552e-02,  0.00000000e+00
     285, -4.13211198e-03, -1.49818552e-02, -2.50000000e-04
     286, -4.13211198e-03, -1.49818552e-02, -5.00000000e-04
     287, -4.13211198e-03, -1.49818552e-02, -7.50000000e-04
     288, -4.35435617e-03, -1.48673671e-02,  7.50000000e-04
     289, -4.35435617e-03, -1.48673671e-02,  5.00000000e-04
     290, -4.35435617e-03, -1.48673671e-02,  2.50000000e-04
     291, -4.35435617e-03, -1.48673671e-02,  0.00000000e+00
     292, -4.35435617e-03, -1.48673671e-02, -2.50000000e-04
     293, -4.35435617e-03, -1.48673671e-02, -5.00000000e-04
     294, -4.35435617e-03, -1.48673671e-02, -7.50000000e-04
     295, -1.74099716e-03, -1.27674499e-02,  7.50000000e-04
     296, -1.74099716e-03, -1.27674499e-02,  5.00000000e-04
     297, -1.74099716e-03, -1.27674499e-02,  2.50000000e-04
     298, -1.74099716e-03, -1.27674499e-02,  0.00000000e+00
     299, -1.74099716e-03, -1.27674499e-02, -2.50000000e-04
     300, -1.74099716e-03, -1.27674499e-02, -5.00000000e-04
     301, -1.74099716e-03, -1.27674499e-02, -7.50000000e-04
     302, -1.97266206e-03, -1.26734745e-02,  7.50000000e-04
     303, -1.97266206e-03, -1.26734745e-02,  5.00000000e-04
     304, -1.97266206e-03, -1.26734745e-02,  2.50000000e-04
     305, -1.97266206e-03, -1.26734745e-02,  0.00000000e+00
     306, -1.97266206e-03, -1.26734745e-02, -2.50000000e-04
     307, -1.97266206e-03, -1.26734745e-02, -5.00000000e-04
     308, -1.97266206e-03, -1.26734745e-02, -7.50000000e-04
     309, -2.20432697e-03, -1.25794991e-02,  7.50000000e-04
     310, -2.20432697e-03, -1.25794991e-02,  5.00000000e-04
     311, -2.20432697e-03, -1.25794991e-02,  2.50000000e-04
     312, -2.20432697e-03, -1.25794991e-02,  0.00000000e+00
     313, -2.20432697e-03, -1.25794991e-02, -2.50000000e-04
     314, -2.20432697e-03, -1.25794991e-02, -5.00000000e-04
     315, -2.20432697e-03, -1.25794991e-02, -7.50000000e-04
     316, -2.43599187e-03, -1.24855238e-02,  7.50000000e-04
     317, -2.43599187e-03, -1.24855238e-02,  5.00000000e-04
     318, -2.43599187e-03, -1.24855238e-02,  2.50000000e-04
     319, -2.43599187e-03, -1.24855238e-02,  0.00000000e+00
     320, -2.43599187e-03, -1.24855238e-02, -2.50000000e-04
     321, -2.43599187e-03, -1.24855238e-02, -5.00000000e-04
     322, -2.43599187e-03, -1.24855238e-02, -7.50000000e-04
     323, -2.66765678e-03, -1.23915484e-02,  7.50000000e-04
     324, -2.66765678e-03, -1.23915484e-02,  5.00000000e-04
     325, -2.66765678e-03, -1.23915484e-02,  2.50000000e-04
     326, -2.66765678e-03, -1.23915484e-02,  0.00000000e+00
     327, -2.66765678e-03, -1.23915484e-02, -2.50000000e-04
     328, -2.66765678e-03, -1.23915484e-02, -5.00000000e-04
     329, -2.66765678e-03, -1.23915484e-02, -7.50000000e-04
     330, -2.89932169e-03, -1.22975730e-02,  7.50000000e-04
     331, -2.89932169e-03, -1.22975730e-02,  5.00000000e-04
     332, -2.89932169e-03, -1.22975730e-02,  2.50000000e-04
     333, -2.89932169e-03, -1.22975730e-02,  0.00000000e+00
     334, -2.89932169e-03, -1.22975730e-02, -2.50000000e-04
     335, -2.89932169e-03, -1.22975730e-02, -5.00000000e-04
     336, -2.89932169e-03, -1.22975730e-02, -7.50000000e-04
     337, -3.13098659e-03, -1.22035976e-02,  7.50000000e-04
     338, -3.13098659e-03, -1.22035976e-02,  5.00000000e-04
     339, -3.13098659e-03, -1.22035976e-02,  2.50000000e-04
     340, -3.13098659e-03, -1.22035976e-02,  0.00000000e+00
     341, -3.13098659e-03, -1.22035976e-02, -2.50000000e-04
     342, -3.13098659e-03, -1.22035976e-02, -5.00000000e-04
     343, -3.13098659e-03, -1.22035976e-02, -7.50000000e-04
     344, -7.17688831e-04, -9.87651974e-03,  7.50000000e-04
     345, -7.17688831e-04, -9.87651974e-03,  5.00000000e-04
     346, -7.17688831e-04, -9.87651974e-03,  2.50000000e-04
     347, -7.17688831e-04, -9.87651974e-03,  0.00000000e+00
     348, -7.17688831e-04, -9.87651974e-03, -2.50000000e-04
     349, -7.17688831e-04, -9.87651974e-03, -5.00000000e-04
     350, -7.17688831e-04, -9.87651974e-03, -7.50000000e-04
     351, -9.56885843e-04, -9.80382318e-03,  7.50000000e-04
     352, -9.56885843e-04, -9.80382318e-03,  5.00000000e-04
     353, -9.56885843e-04, -9.80382318e-03,  2.50000000e-04
     354, -9.56885843e-04, -9.80382318e-03,  0.00000000e+00
     355, -9.56885843e-04, -9.80382318e-03, -2.50000000e-04
     356, -9.56885843e-04, -9.80382318e-03, -5.00000000e-04
     357, -9.56885843e-04, -9.80382318e-03, -7.50000000e-04
     358, -1.19608285e-03, -9.73112662e-03,  7.50000000e-04
     359, -1.19608285e-03, -9.73112662e-03,  5.00000000e-04
     360, -1.19608285e-03, -9.73112662e-03,  2.50000000e-04
     361, -1.19608285e-03, -9.73112662e-03,  0.00000000e+00
     362, -1.19608285e-03, -9.73112662e-03, -2.50000000e-04
     363, -1.19608285e-03, -9.73112662e-03, -5.00000000e-04
     364, -1.19608285e-03, -9.73112662e-03, -7.50000000e-04
     365, -1.43527987e-03, -9.65843006e-03,  7.50000000e-04
     366, -1.43527987e-03, -9.65843006e-03,  5.00000000e-04
     367, -1.43527987e-03, -9.65843006e-03,  2.50000000e-04
     368, -1.43527987e-03, -9.65843006e-03,  0.00000000e+00
     369, -1.43527987e-03, -9.65843006e-03, -2.50000000e-04
     370, -1.43527987e-03, -9.65843006e-03, -5.00000000e-04
     371, -1.43527987e-03, -9.65843006e-03, -7.50000000e-04
     372, -1.67447688e-03, -9.58573351e-03,  7.50000000e-04
     373, -1.67447688e-03, -9.58573351e-03,  5.00000000e-04
     374, -1.67447688e-03, -9.58573351e-03,  2.50000000e-04
     375, -1.67447688e-03, -9.58573351e-03,  0.00000000e+00
     376, -1.67447688e-03, -9.58573351e-03, -2.50000000e-04
     377, -1.67447688e-03, -9.58573351e-03, -5.00000000e-04
     378, -1.67447688e-03, -9.58573351e-03, -7.50000000e-04
     379, -1.91367389e-03, -9.51303695e-03,  7.50000000e-04
     380, -1.91367389e-03, -9.51303695e-03,  5.00000000e-04
     381, -1.91367389e-03, -9.51303695e-03,  2.50000000e-04
     382, -1.91367389e-03, -9.51303695e-03,  0.00000000e+00
     383, -1.91367389e-03, -9.51303695e-03, -2.50000000e-04
     384, -1.91367389e-03, -9.51303695e-03, -5.00000000e-04
     385, -1.91367389e-03, -9.51303695e-03, -7.50000000e-04
     386, -2.15287090e-03, -9.44034039e-03,  7.50000000e-04
     387, -2.15287090e-03, -9.44034039e-03,  5.00000000e-04
     388, -2.15287090e-03, -9.44034039e-03,  2.50000000e-04
     389, -2.15287090e-03, -9.44034039e-03,  0.00000000e+00
     390, -2.15287090e-03, -9.44034039e-03, -2.50000000e-04
     391, -2.15287090e-03, -9.44034039e-03, -5.00000000e-04
     392, -2.15287090e-03, -9.44034039e-03, -7.50000000e-04
     393,  4.06916017e-05, -6.90507293e-03,  7.50000000e-04
     394,  4.06916017e-05, -6.90507293e-03,  5.00000000e-04
     395,  4.06916017e-05, -6.90507293e-03,  2.50000000e-04
     396,  4.06916017e-05, -6.90507293e-03,  0.00000000e+00
     397,  4.06916017e-05, -6.90507293e-03, -2.50000000e-04
     398,  4.06916017e-05, -6.90507293e-03, -5.00000000e-04
     399,  4.06916017e-05, -6.90507293e-03, -7.50000000e-04
     400, -2.04087503e-04, -6.85424783e-03,  7.50000000e-04
     401, -2.04087503e-04, -6.85424783e-03,  5.00000000e-04
     402, -2.04087503e-04, -6.85424783e-03,  2.50000000e-04
     403, -2.04087503e-04, -6.85424783e-03,  0.00000000e+00
     404, -2.04087503e-04, -6.85424783e-03, -2.50000000e-04
     405, -2.04087503e-04, -6.85424783e-03, -5.00000000e-04
     406, -2.04087503e-04, -6.85424783e-03, -7.50000000e-04
     407, -4.48866607e-04, -6.80342274e-03,  7.50000000e-04
     408, -4.48866607e-04, -6.80342274e-03,  5.00000000e-04
     409, -4.48866607e-04, -6.80342274e-03,  2.50000000e-04
     410, -4.48866607e-04, -6.80342274e-03,  0.00000000e+00
     411, -4.48866607e-04, -6.80342274e-03, -2.50000000e-04
     412, -4.48866607e-04, -6.80342274e-03, -5.00000000e-04
     413, -4.48866607e-04, -6.80342274e-03, -7.50000000e-04
     414, -6.93645711e-04, -6.75259765e-03,  7.50000000e-04
     415, -6.93645711e-04, -6.75259765e-03,  5.00000000e-04
     416, -6.93645711e-04, -6.75259765e-03,  2.50000000e-04
     417, -6.93645711e-04, -6.75259765e-03,  0.00000000e+00
     418, -6.93645711e-04, -6.75259765e-03, -2.50000000e-04
     419, -6.93645711e-04, -6.75259765e-03, -5.00000000e-04
     420, -6.93645711e-04, -6.75259765e-03, -7.50000000e-04
     421, -9.38424816e-04, -6.70177255e-03,  7.50000000e-04
     422, -9.38424816e-04, -6.70177255e-03,  5.00000000e-04
     423, -9.38424816e-04, -6.70177255e-03,  2.50000000e-04
     424, -9.38424816e-04, -6.70177255e-03,  0.00000000e+00
     425, -9.38424816e-04, -6.70177255e-03, -2.50000000e-04
     426, -9.38424816e-04, -6.70177255e-03, -5.00000000e-04
     427, -9.38424816e-04, -6.70177255e-03, -7.50000000e-04
     428, -1.18320392e-03, -6.65094746e-03,  7.50000000e-04
     429, -1.18320392e-03, -6.65094746e-03,  5.00000000e-04
     430, -1.18320392e-03, -6.65094746e-03,  2.50000000e-04
     431, -1.18320392e-03, -6.65094746e-03,  0.00000000e+00
     432, -1.18320392e-03, -6.65094746e-03, -2.50000000e-04
     433, -1.18320392e-03, -6.65094746e-03, -5.00000000e-04
     434, -1.18320392e-03, -6.65094746e-03, -7.50000000e-04
     435, -1.42798302e-03, -6.60012237e-03,  7.50000000e-04
     436, -1.42798302e-03, -6.60012237e-03,  5.00000000e-04
     437, -1.42798302e-03, -6.60012237e-03,  2.50000000e-04
     438, -1.42798302e-03, -6.60012237e-03,  0.00000000e+00
     439, -1.42798302e-03, -6.60012237e-03, -2.50000000e-04
     440, -1.42798302e-03, -6.60012237e-03, -5.00000000e-04
     441, -1.42798302e-03, -6.60012237e-03, -7.50000000e-04
     442,  5.27961573e-04, -3.87733367e-03,  7.50000000e-04
     443,  5.27961573e-04, -3.87733367e-03,  5.00000000e-04
     444,  5.27961573e-04, -3.87733367e-03,  2.50000000e-04
     445,  5.27961573e-04, -3.87733367e-03,  0.00000000e+00
     446,  5.27961573e-04, -3.87733367e-03, -2.50000000e-04
     447,  5.27961573e-04, -3.87733367e-03, -5.00000000e-04
     448,  5.27961573e-04, -3.87733367e-03, -7.50000000e-04
     449,  2.79595897e-04, -3.84879438e-03,  7.50000000e-04
     450,  2.79595897e-04, -3.84879438e-03,  5.00000000e-04
     451,  2.79595897e-04, -3.84879438e-03,  2.50000000e-04
     452,  2.79595897e-04, -3.84879438e-03,  0.00000000e+00
     453,  2.79595897e-04, -3.84879438e-03, -2.50000000e-04
     454,  2.79595897e-04, -3.84879438e-03, -5.00000000e-04
     455,  2.79595897e-04, -3.84879438e-03, -7.50000000e-04
     456,  3.12302204e-05, -3.82025510e-03,  7.50000000e-04
     457,  3.12302204e-05, -3.82025510e-03,  5.00000000e-04
     458,  3.12302204e-05, -3.82025510e-03,  2.50000000e-04
     459,  3.12302204e-05, -3.82025510e-03,  0.00000000e+00
     460,  3.12302204e-05, -3.82025510e-03, -2.50000000e-04
     461,  3.12302204e-05, -3.82025510e-03, -5.00000000e-04
     462,  3.12302204e-05, -3.82025510e-03, -7.50000000e-04
     463, -2.17135456e-04, -3.79171581e-03,  7.50000000e-04
     464, -2.17135456e-04, -3.79171581e-03,  5.00000000e-04
     465, -2.17135456e-04, -3.79171581e-03,  2.50000000e-04
     466, -2.17135456e-04, -3.79171581e-03,  0.00000000e+00
     467, -2.17135456e-04, -3.79171581e-03, -2.50000000e-04
     468, -2.17135456e-04, -3.79171581e-03, -5.00000000e-04
     469, -2.17135456e-04, -3.79171581e-03, -7.50000000e-04
     470, -4.65501132e-04, -3.76317653e-03,  7.50000000e-04
     471, -4.65501132e-04, -3.76317653e-03,  5.00000000e-04
     472, -4.65501132e-04, -3.76317653e-03,  2.50000000e-04
     473, -4.65501132e-04, -3.76317653e-03,  0.00000000e+00
     474, -4.65501132e-04, -3.76317653e-03, -2.50000000e-04
     475, -4.65501132e-04, -3.76317653e-03, -5.00000000e-04
     476, -4.65501132e-04, -3.76317653e-03, -7.50000000e-04
     477, -7.13866809e-04, -3.73463724e-03,  7.50000000e-04
     478, -7.13866809e-04, -3.73463724e-03,  5.00000000e-04
     479, -7.13866809e-04, -3.73463724e-03,  2.50000000e-04
     480, -7.13866809e-04, -3.73463724e-03,  0.00000000e+00
     481, -7.13866809e-04, -3.73463724e-03, -2.50000000e-04
     482, -7.13866809e-04, -3.73463724e-03, -5.00000000e-04
     483, -7.13866809e-04, -3.73463724e-03, -7.50000000e-04
     484, -9.62232485e-04, -3.70609796e-03,  7.50000000e-04
     485, -9.62232485e-04, -3.70609796e-03,  5.00000000e-04
     486, -9.62232485e-04, -3.70609796e-03,  2.50000000e-04
     487, -9.62232485e-04, -3.70609796e-03,  0.00000000e+00
     488, -9.62232485e-04, -3.70609796e-03, -2.50000000e-04
     489, -9.62232485e-04, -3.70609796e-03, -5.00000000e-04
     490, -9.62232485e-04, -3.70609796e-03, -7.50000000e-04
     491,  7.40148697e-04, -8.17985099e-04,  7.50000000e-04
     492,  7.40148697e-04, -8.17985099e-04,  5.00000000e-04
     493,  7.40148697e-04, -8.17985099e-04,  2.50000000e-04
     494,  7.40148697e-04, -8.17985099e-04,  0.00000000e+00
     495,  7.40148697e-04, -8.17985099e-04, -2.50000000e-04
     496,  7.40148697e-04, -8.17985099e-04, -5.00000000e-04
     497,  7.40148697e-04, -8.17985099e-04, -7.50000000e-04
     498,  4.90221208e-04, -8.11964284e-04,  7.50000000e-04
     499,  4.90221208e-04, -8.11964284e-04,  5.00000000e-04
     500,  4.90221208e-04, -8.11964284e-04,  2.50000000e-04
     501,  4.90221208e-04, -8.11964284e-04,  0.00000000e+00
     502,  4.90221208e-04, -8.11964284e-04, -2.50000000e-04
     503,  4.90221208e-04, -8.11964284e-04, -5.00000000e-04
     504,  4.90221208e-04, -8.11964284e-04, -7.50000000e-04
     505,  2.40293719e-04, -8.05943469e-04,  7.50000000e-04
     506,  2.40293719e-04, -8.05943469e-04,  5.00000000e-04
     507,  2.40293719e-04, -8.05943469e-04,  2.50000000e-04
     508,  2.40293719e-04, -8.05943469e-04,  0.00000000e+00
     509,  2.40293719e-04, -8.05943469e-04, -2.50000000e-04
     510,  2.40293719e-04, -8.05943469e-04, -5.00000000e-04
     511,  2.40293719e-04, -8.05943469e-04, -7.50000000e-04
     512, -9.63377023e-06, -7.99922653e-04,  7.50000000e-04
     513, -9.63377023e-06, -7.99922653e-04,  5.00000000e-04
     514, -9.63377023e-06, -7.99922653e-04,  2.50000000e-04
     515, -9.63377023e-06, -7.99922653e-04,  0.00000000e+00
     516, -9.63377023e-06, -7.99922653e-04, -2.50000000e-04
     517, -9.63377023e-06, -7.99922653e-04, -5.00000000e-04
     518, -9.63377023e-06, -7.99922653e-04, -7.50000000e-04
     519, -2.59561259e-04, -7.93901838e-04,  7.50000000e-04
     520, -2.59561259e-04, -7.93901838e-04,  5.00000000e-04
     521, -2.59561259e-04, -7.93901838e-04,  2.50000000e-04
     522, -2.59561259e-04, -7.93901838e-04,  0.00000000e+00
     523, -2.59561259e-04, -7.93901838e-04, -2.50000000e-04
     524, -2.59561259e-04, -7.93901838e-04, -5.00000000e-04
     525, -2.59561259e-04, -7.93901838e-04, -7.50000000e-04
     526, -5.09488748e-04, -7.87881023e-04,  7.50000000e-04
     527, -5.09488748e-04, -7.87881023e-04,  5.00000000e-04
     528, -5.09488748e-04, -7.87881023e-04,  2.50000000e-04
     529, -5.09488748e-04, -7.87881023e-04,  0.00000000e+00
     530, -5.09488748e-04, -7.87881023e-04, -2.50000000e-04
     531, -5.09488748e-04, -7.87881023e-04, -5.00000000e-04
     532, -5.09488748e-04, -7.87881023e-04, -7.50000000e-04
     533, -7.59416237e-04, -7.81860208e-04,  7.50000000e-04
     534, -7.59416237e-04, -7.81860208e-04,  5.00000000e-04
     535, -7.59416237e-04, -7.81860208e-04,  2.50000000e-04
     536, -7.59416237e-04, -7.81860208e-04,  0.00000000e+00
     537, -7.59416237e-04, -7.81860208e-04, -2.50000000e-04
     538, -7.59416237e-04, -7.81860208e-04, -5.00000000e-04
     539, -7.59416237e-04, -7.81860208e-04, -7.50000000e-04
     540, -1.37670182e-02, -2.59304832e-02,  8.01776667e-04
     541, -1.37980842e-02, -2.58890619e-02,  8.53553333e-04
     542, -1.38291502e-02, -2.58476406e-02,  9.05330000e-04
     543, -1.38602162e-02, -2.58062192e-02,  9.57106667e-04
     544, -1.38912822e-02, -2.57647979e-02,  1.00888333e-03
     545, -1.39223482e-02, -2.57233766e-02,  1.06066000e-03
     546, -1.36109522e-02, -2.61385713e-02,  8.41506337e-04
     547, -1.36359522e-02, -2.61052379e-02,  9.33012674e-04
     548, -1.36609522e-02, -2.60719046e-02,  1.02451901e-03
     549, -1.36859522e-02, -2.60385713e-02,  1.11602535e-03
     550, -1.37109522e-02, -2.60052380e-02,  1.20753168e-03
     551, -1.37359521e-02, -2.59719046e-02,  1.29903802e-03
     552, -1.34497750e-02, -2.63534741e-02,  8.66481453e-04
     553, -1.34635979e-02, -2.63350436e-02,  9.82962906e-04
     554, -1.34774208e-02, -2.63166132e-02,  1.09944436e-03
     555, -1.34912436e-02, -2.62981827e-02,  1.21592581e-03
     556, -1.35050665e-02, -2.62797522e-02,  1.33240726e-03
     557, -1.35188893e-02, -2.62613217e-02,  1.44888872e-03
     558, -1.32859522e-02, -2.65719046e-02,  8.75000000e-04
     559, -1.32859522e-02, -2.65719046e-02,  1.00000000e-03
     560, -1.32859522e-02, -2.65719046e-02,  1.12500000e-03
     561, -1.32859522e-02, -2.65719046e-02,  1.25000000e-03
     562, -1.32859522e-02, -2.65719046e-02,  1.37500000e-03
     563, -1.32859522e-02, -2.65719046e-02,  1.50000000e-03
     564, -1.31221293e-02, -2.67903351e-02,  8.66481453e-04
     565, -1.31083065e-02, -2.68087655e-02,  9.82962906e-04
     566, -1.30944836e-02, -2.68271960e-02,  1.09944436e-03
     567, -1.30806608e-02, -2.68456265e-02,  1.21592581e-03
     568, -1.30668379e-02, -2.68640569e-02,  1.33240726e-03
     569, -1.30530151e-02, -2.68824874e-02,  1.44888872e-03
     570, -1.29609522e-02, -2.70052379e-02,  8.41506337e-04
     571, -1.29359522e-02, -2.70385712e-02,  9.33012674e-04
     572, -1.29109522e-02, -2.70719045e-02,  1.02451901e-03
     573, -1.28859522e-02, -2.71052379e-02,  1.11602535e-03
     574, -1.28609522e-02, -2.71385712e-02,  1.20753168e-03
     575, -1.28359522e-02, -2.71719045e-02,  1.29903802e-03
     576, -1.28048862e-02, -2.72133259e-02,  8.01776667e-04
     577, -1.27738202e-02, -2.72547472e-02,  8.53553333e-04
     578, -1.27427542e-02, -2.72961686e-02,  9.05330000e-04
     579, -1.27116882e-02, -2.73375899e-02,  9.57106667e-04
     580, -1.26806222e-02, -2.73790112e-02,  1.00888333e-03
     581, -1.26495562e-02, -2.74204326e-02,  1.06066000e-03
     582, -1.15074078e-02, -2.40706239e-02,  8.01776667e-04
     583, -1.15420833e-02, -2.40321735e-02,  8.53553333e-04
     584, -1.15767588e-02, -2.39937231e-02,  9.05330000e-04
     585, -1.16114343e-02, -2.39552728e-02,  9.57106667e-04
     586, -1.16461098e-02, -2.39168224e-02,  1.00888333e-03
     587, -1.16807853e-02, -2.38783720e-02,  1.06066000e-03
     588, -1.13332088e-02, -2.42637869e-02,  8.41506337e-04
     589, -1.13611135e-02, -2.42328444e-02,  9.33012674e-04
     590, -1.13890182e-02, -2.42019019e-02,  1.02451901e-03
     591, -1.14169229e-02, -2.41709594e-02,  1.11602535e-03
     592, -1.14448275e-02, -2.41400169e-02,  1.20753168e-03
     593, -1.14727322e-02, -2.41090744e-02,  1.29903802e-03
     594, -1.11533048e-02, -2.44632759e-02,  8.66481453e-04
     595, -1.11687337e-02, -2.44461673e-02,  9.82962906e-04
     596, -1.11841626e-02, -2.44290588e-02,  1.09944436e-03
     597, -1.11995915e-02, -2.44119502e-02,  1.21592581e-03
     598, -1.12150204e-02, -2.43948417e-02,  1.33240726e-03
     599, -1.12304493e-02, -2.43777331e-02,  1.44888872e-03
     600, -1.09704476e-02, -2.46660394e-02,  8.75000000e-04
     601, -1.09704476e-02, -2.46660394e-02,  1.00000000e-03
     602, -1.09704476e-02, -2.46660394e-02,  1.12500000e-03
     603, -1.09704476e-02, -2.46660394e-02,  1.25000000e-03
     604, -1.09704476e-02, -2.46660394e-02,  1.37500000e-03
     605, -1.09704476e-02, -2.46660394e-02,  1.50000000e-03
     606, -1.07875905e-02, -2.48688030e-02,  8.66481453e-04
     607, -1.07721616e-02, -2.48859116e-02,  9.82962906e-04
     608, -1.07567327e-02, -2.49030201e-02,  1.09944436e-03
     609, -1.07413038e-02, -2.49201287e-02,  1.21592581e-03
     610, -1.07258749e-02, -2.49372372e-02,  1.33240726e-03
     611, -1.07104460e-02, -2.49543458e-02,  1.44888872e-03
     612, -1.06076865e-02, -2.50682920e-02,  8.41506337e-04
     613, -1.05797818e-02, -2.50992345e-02,  9.33012674e-04
     614, -1.05518771e-02, -2.51301770e-02,  1.02451901e-03
     615, -1.05239724e-02, -2.51611195e-02,  1.11602535e-03
     616, -1.04960677e-02, -2.51920620e-02,  1.20753168e-03
     617, -1.04681630e-02, -2.52230045e-02,  1.29903802e-03
     618, -1.04334875e-02, -2.52614549e-02,  8.01776667e-04
     619, -1.03988120e-02, -2.52999053e-02,  8.53553333e-04
     620, -1.03641365e-02, -2.53383557e-02,  9.05330000e-04
     621, -1.03294610e-02, -2.53768061e-02,  9.57106667e-04
     622, -1.02947855e-02, -2.54152565e-02,  1.00888333e-03
     623, -1.02601100e-02, -2.54537069e-02,  1.06066000e-03
     624, -9.42476391e-03, -2.20145329e-02,  8.01776667e-04
     625, -9.46276623e-03, -2.19793669e-02,  8.53553333e-04
     626, -9.50076854e-03, -2.19442009e-02,  9.05330000e-04
     627, -9.53877086e-03, -2.19090349e-02,  9.57106667e-04
     628, -9.57677317e-03, -2.18738689e-02,  1.00888333e-03
     629, -9.61477548e-03, -2.18387029e-02,  1.06066000e-03
     630, -9.23385200e-03, -2.21911960e-02,  8.41506337e-04
     631, -9.26443391e-03, -2.21628966e-02,  9.33012674e-04
     632, -9.29501582e-03, -2.21345972e-02,  1.02451901e-03
     633, -9.32559773e-03, -2.21062978e-02,  1.11602535e-03
     634, -9.35617964e-03, -2.20779984e-02,  1.20753168e-03
     635, -9.38676154e-03, -2.20496990e-02,  1.29903802e-03
     636, -9.03668777e-03, -2.23736449e-02,  8.66481453e-04
     637, -9.05359694e-03, -2.23579977e-02,  9.82962906e-04
     638, -9.07050612e-03, -2.23423506e-02,  1.09944436e-03
     639, -9.08741529e-03, -2.23267034e-02,  1.21592581e-03
     640, -9.10432447e-03, -2.23110562e-02,  1.33240726e-03
     641, -9.12123365e-03, -2.22954091e-02,  1.44888872e-03
     642, -8.83628709e-03, -2.25590886e-02,  8.75000000e-04
     643, -8.83628709e-03, -2.25590886e-02,  1.00000000e-03
     644, -8.83628709e-03, -2.25590886e-02,  1.12500000e-03
     645, -8.83628709e-03, -2.25590886e-02,  1.25000000e-03
     646, -8.83628709e-03, -2.25590886e-02,  1.37500000e-03
     647, -8.83628709e-03, -2.25590886e-02,  1.50000000e-03
     648, -8.63588641e-03, -2.27445323e-02,  8.66481453e-04
     649, -8.61897723e-03, -2.27601794e-02,  9.82962906e-04
     650, -8.60206806e-03, -2.27758266e-02,  1.09944436e-03
     651, -8.58515888e-03, -2.27914737e-02,  1.21592581e-03
     652, -8.56824971e-03, -2.28071209e-02,  1.33240726e-03
     653, -8.55134053e-03, -2.28227680e-02,  1.44888872e-03
     654, -8.43872217e-03, -2.29269811e-02,  8.41506337e-04
     655, -8.40814026e-03, -2.29552805e-02,  9.33012674e-04
     656, -8.37755836e-03, -2.29835799e-02,  1.02451901e-03
     657, -8.34697645e-03, -2.30118793e-02,  1.11602535e-03
     658, -8.31639454e-03, -2.30401787e-02,  1.20753168e-03
     659, -8.28581263e-03, -2.30684782e-02,  1.29903802e-03
     660, -8.24781026e-03, -2.31036442e-02,  8.01776667e-04
     661, -8.20980795e-03, -2.31388102e-02,  8.53553333e-04
     662, -8.17180564e-03, -2.31739762e-02,  9.05330000e-04
     663, -8.13380332e-03, -2.32091422e-02,  9.57106667e-04
     664, -8.09580101e-03, -2.32443082e-02,  1.00888333e-03
     665, -8.05779869e-03, -2.32794742e-02,  1.06066000e-03
     666, -7.53606497e-03, -1.97789721e-02,  8.01776667e-04
     667, -7.57708428e-03, -1.97473772e-02,  8.53553333e-04
     668, -7.61810360e-03, -1.97157823e-02,  9.05330000e-04
     669, -7.65912293e-03, -1.96841874e-02,  9.57106667e-04
     670, -7.70014224e-03, -1.96525925e-02,  1.00888333e-03
     671, -7.74116156e-03, -1.96209975e-02,  1.06066000e-03
     672, -7.32999655e-03, -1.99376952e-02,  8.41506337e-04
     673, -7.36300635e-03, -1.99122696e-02,  9.33012674e-04
     674, -7.39601616e-03, -1.98868440e-02,  1.02451901e-03
     675, -7.42902597e-03, -1.98614183e-02,  1.11602535e-03
     676, -7.46203578e-03, -1.98359927e-02,  1.20753168e-03
     677, -7.49504558e-03, -1.98105671e-02,  1.29903802e-03
     678, -7.11717943e-03, -2.01016165e-02,  8.66481453e-04
     679, -7.13543102e-03, -2.00875583e-02,  9.82962906e-04
     680, -7.15368262e-03, -2.00735001e-02,  1.09944436e-03
     681, -7.17193422e-03, -2.00594419e-02,  1.21592581e-03
     682, -7.19018581e-03, -2.00453837e-02,  1.33240726e-03
     683, -7.20843741e-03, -2.00313255e-02,  1.44888872e-03
     684, -6.90086893e-03, -2.02682285e-02,  8.75000000e-04
     685, -6.90086893e-03, -2.02682285e-02,  1.00000000e-03
     686, -6.90086893e-03, -2.02682285e-02,  1.12500000e-03
     687, -6.90086893e-03, -2.02682285e-02,  1.25000000e-03
     688, -6.90086893e-03, -2.02682285e-02,  1.37500000e-03
     689, -6.90086893e-03, -2.02682285e-02,  1.50000000e-03
     690, -6.68455842e-03, -2.04348405e-02,  8.66481453e-04
     691, -6.66630683e-03, -2.04488987e-02,  9.82962906e-04
     692, -6.64805523e-03, -2.04629569e-02,  1.09944436e-03
     693, -6.62980364e-03, -2.04770151e-02,  1.21592581e-03
     694, -6.61155204e-03, -2.04910733e-02,  1.33240726e-03
     695, -6.59330044e-03, -2.05051315e-02,  1.44888872e-03
     696, -6.47174130e-03, -2.05987618e-02,  8.41506337e-04
     697, -6.43873150e-03, -2.06241874e-02,  9.33012674e-04
     698, -6.40572169e-03, -2.06496130e-02,  1.02451901e-03
     699, -6.37271188e-03, -2.06750387e-02,  1.11602535e-03
     700, -6.33970207e-03, -2.07004643e-02,  1.20753168e-03
     701, -6.30669227e-03, -2.07258899e-02,  1.29903802e-03
     702, -6.26567289e-03, -2.07574849e-02,  8.01776667e-04
     703, -6.22465357e-03, -2.07890798e-02,  8.53553333e-04
     704, -6.18363425e-03, -2.08206747e-02,  9.05330000e-04
     705, -6.14261493e-03, -2.08522696e-02,  9.57106667e-04
     706, -6.10159561e-03, -2.08838645e-02,  1.00888333e-03
     707, -6.06057629e-03, -2.09154595e-02,  1.06066000e-03
     708, -5.85670824e-03, -1.73821666e-02,  8.01776667e-04
     709, -5.90041017e-03, -1.73544003e-02,  8.53553333e-04
     710, -5.94411209e-03, -1.73266341e-02,  9.05330000e-04
     711, -5.98781401e-03, -1.72988678e-02,  9.57106667e-04
     712, -6.03151593e-03, -1.72711015e-02,  1.00888333e-03
     713, -6.07521786e-03, -1.72433353e-02,  1.06066000e-03
     714, -5.63716325e-03, -1.75216557e-02,  8.41506337e-04
     715, -5.67233185e-03, -1.74993111e-02,  9.33012674e-04
     716, -5.70750045e-03, -1.74769666e-02,  1.02451901e-03
     717, -5.74266906e-03, -1.74546220e-02,  1.11602535e-03
     718, -5.77783766e-03, -1.74322774e-02,  1.20753168e-03
     719, -5.81300626e-03, -1.74099329e-02,  1.29903802e-03
     720, -5.41042821e-03, -1.76657131e-02,  8.66481453e-04
     721, -5.42987343e-03, -1.76533584e-02,  9.82962906e-04
     722, -5.44931866e-03, -1.76410038e-02,  1.09944436e-03
     723, -5.46876388e-03, -1.76286492e-02,  1.21592581e-03
     724, -5.48820910e-03, -1.76162945e-02,  1.33240726e-03
     725, -5.50765433e-03, -1.76039399e-02,  1.44888872e-03
     726, -5.17997132e-03, -1.78121351e-02,  8.75000000e-04
     727, -5.17997132e-03, -1.78121351e-02,  1.00000000e-03
     728, -5.17997132e-03, -1.78121351e-02,  1.12500000e-03
     729, -5.17997132e-03, -1.78121351e-02,  1.25000000e-03
     730, -5.17997132e-03, -1.78121351e-02,  1.37500000e-03
     731, -5.17997132e-03, -1.78121351e-02,  1.50000000e-03
     732, -4.94951443e-03, -1.79585572e-02,  8.66481453e-04
     733, -4.93006920e-03, -1.79709118e-02,  9.82962906e-04
     734, -4.91062398e-03, -1.79832664e-02,  1.09944436e-03
     735, -4.89117876e-03, -1.79956211e-02,  1.21592581e-03
     736, -4.87173354e-03, -1.80079757e-02,  1.33240726e-03
     737, -4.85228831e-03, -1.80203303e-02,  1.44888872e-03
     738, -4.72277938e-03, -1.81026146e-02,  8.41506337e-04
     739, -4.68761078e-03, -1.81249591e-02,  9.33012674e-04
     740, -4.65244218e-03, -1.81473037e-02,  1.02451901e-03
     741, -4.61727358e-03, -1.81696483e-02,  1.11602535e-03
     742, -4.58210498e-03, -1.81919928e-02,  1.20753168e-03
     743, -4.54693638e-03, -1.82143374e-02,  1.29903802e-03
     744, -4.50323439e-03, -1.82421037e-02,  8.01776667e-04
     745, -4.45953247e-03, -1.82698699e-02,  8.53553333e-04
     746, -4.41583055e-03, -1.82976362e-02,  9.05330000e-04
     747, -4.37212862e-03, -1.83254025e-02,  9.57106667e-04
     748, -4.32842670e-03, -1.83531687e-02,  1.00888333e-03
     749, -4.28472478e-03, -1.83809350e-02,  1.06066000e-03
     750, -4.40038442e-03, -1.48436558e-02,  8.01776667e-04
     751, -4.44641268e-03, -1.48199446e-02,  8.53553333e-04
     752, -4.49244093e-03, -1.47962334e-02,  9.05330000e-04
     753, -4.53846918e-03, -1.47725221e-02,  9.57106667e-04
     754, -4.58449743e-03, -1.47488109e-02,  1.00888333e-03
     755, -4.63052569e-03, -1.47250996e-02,  1.06066000e-03
     756, -4.16915267e-03, -1.49627738e-02,  8.41506337e-04
     757, -4.20619335e-03, -1.49436925e-02,  9.33012674e-04
     758, -4.24323404e-03, -1.49246111e-02,  1.02451901e-03
     759, -4.28027473e-03, -1.49055298e-02,  1.11602535e-03
     760, -4.31731541e-03, -1.48864485e-02,  1.20753168e-03
     761, -4.35435610e-03, -1.48673671e-02,  1.29903802e-03
     762, -3.93034811e-03, -1.50857929e-02,  8.66481453e-04
     763, -3.95082844e-03, -1.50752425e-02,  9.82962906e-04
     764, -3.97130877e-03, -1.50646922e-02,  1.09944436e-03
     765, -3.99178910e-03, -1.50541418e-02,  1.21592581e-03
     766, -4.01226942e-03, -1.50435915e-02,  1.33240726e-03
     767, -4.03274975e-03, -1.50330412e-02,  1.44888872e-03
     768, -3.68762360e-03, -1.52108313e-02,  8.75000000e-04
     769, -3.68762360e-03, -1.52108313e-02,  1.00000000e-03
     770, -3.68762360e-03, -1.52108313e-02,  1.12500000e-03
     771, -3.68762360e-03, -1.52108313e-02,  1.25000000e-03
     772, -3.68762360e-03, -1.52108313e-02,  1.37500000e-03
     773, -3.68762360e-03, -1.52108313e-02,  1.50000000e-03
     774, -3.44489908e-03, -1.53358697e-02,  8.66481453e-04
     775, -3.42441875e-03, -1.53464201e-02,  9.82962906e-04
     776, -3.40393843e-03, -1.53569704e-02,  1.09944436e-03
     777, -3.38345810e-03, -1.53675208e-02,  1.21592581e-03
     778, -3.36297777e-03, -1.53780711e-02,  1.33240726e-03
     779, -3.34249744e-03, -1.53886215e-02,  1.44888872e-03
     780, -3.20609453e-03, -1.54588888e-02,  8.41506337e-04
     781, -3.16905384e-03, -1.54779701e-02,  9.33012674e-04
     782, -3.13201315e-03, -1.54970515e-02,  1.02451901e-03
     783, -3.09497247e-03, -1.55161328e-02,  1.11602535e-03
     784, -3.05793178e-03, -1.55352142e-02,  1.20753168e-03
     785, -3.02089109e-03, -1.55542955e-02,  1.29903802e-03
     786, -2.97486277e-03, -1.55780068e-02,  8.01776667e-04
     787, -2.92883452e-03, -1.56017180e-02,  8.53553333e-04
     788, -2.88280626e-03, -1.56254293e-02,  9.05330000e-04
     789, -2.83677801e-03, -1.56491405e-02,  9.57106667e-04
     790, -2.79074976e-03, -1.56728518e-02,  1.00888333e-03
     791, -2.74472150e-03, -1.56965630e-02,  1.06066000e-03
     792, -3.17896594e-03, -1.21841347e-02,  8.01776667e-04
     793, -3.22694528e-03, -1.21646718e-02,  8.53553333e-04
     794, -3.27492463e-03, -1.21452088e-02,  9.05330000e-04
     795, -3.32290398e-03, -1.21257459e-02,  9.57106667e-04
     796, -3.37088332e-03, -1.21062830e-02,  1.00888333e-03
     797, -3.41886267e-03, -1.20868201e-02,  1.06066000e-03
     798, -2.93793249e-03, -1.22819104e-02,  8.41506337e-04
     799, -2.97654330e-03, -1.22662479e-02,  9.33012674e-04
     800, -3.01515410e-03, -1.22505853e-02,  1.02451901e-03
     801, -3.05376491e-03, -1.22349228e-02,  1.11602535e-03
     802, -3.09237571e-03, -1.22192602e-02,  1.20753168e-03
     803, -3.13098652e-03, -1.22035977e-02,  1.29903802e-03
     804, -2.68900525e-03, -1.23828883e-02,  8.66481453e-04
     805, -2.71035372e-03, -1.23742283e-02,  9.82962906e-04
     806, -2.73170218e-03, -1.23655682e-02,  1.09944436e-03
     807, -2.75305065e-03, -1.23569082e-02,  1.21592581e-03
     808, -2.77439912e-03, -1.23482481e-02,  1.33240726e-03
     809, -2.79574759e-03, -1.23395881e-02,  1.44888872e-03
     810, -2.43599187e-03, -1.24855238e-02,  8.75000000e-04
     811, -2.43599187e-03, -1.24855238e-02,  1.00000000e-03
     812, -2.43599187e-03, -1.24855238e-02,  1.12500000e-03
     813, -2.43599187e-03, -1.24855238e-02,  1.25000000e-03
     814, -2.43599187e-03, -1.24855238e-02,  1.37500000e-03
     815, -2.43599187e-03, -1.24855238e-02,  1.50000000e-03
     816, -2.18297850e-03, -1.25881592e-02,  8.66481453e-04
     817, -2.16163003e-03, -1.25968192e-02,  9.82962906e-04
     818, -2.14028156e-03, -1.26054793e-02,  1.09944436e-03
     819, -2.11893310e-03, -1.26141393e-02,  1.21592581e-03
     820, -2.09758463e-03, -1.26227994e-02,  1.33240726e-03
     821, -2.07623616e-03, -1.26314594e-02,  1.44888872e-03
     822, -1.93405126e-03, -1.26891371e-02,  8.41506337e-04
     823, -1.89544045e-03, -1.27047996e-02,  9.33012674e-04
     824, -1.85682964e-03, -1.27204622e-02,  1.02451901e-03
     825, -1.81821884e-03, -1.27361247e-02,  1.11602535e-03
     826, -1.77960803e-03, -1.27517873e-02,  1.20753168e-03
     827, -1.74099723e-03, -1.27674499e-02,  1.29903802e-03
     828, -1.69301781e-03, -1.27869128e-02,  8.01776667e-04
     829, -1.64503846e-03, -1.28063757e-02,  8.53553333e-04
     830, -1.59705912e-03, -1.28258387e-02,  9.05330000e-04
     831, -1.54907977e-03, -1.28453016e-02,  9.57106667e-04
     832, -1.50110043e-03, -1.28647645e-02,  1.00888333e-03
     833, -1.45312108e-03, -1.28842274e-02,  1.06066000e-03
     834, -2.20241020e-03, -9.42528445e-03,  8.01776667e-04
     835, -2.25194949e-03, -9.41022851e-03,  8.53553333e-04
     836, -2.30148879e-03, -9.39517256e-03,  9.05330000e-04
     837, -2.35102809e-03, -9.38011662e-03,  9.57106667e-04
     838, -2.40056738e-03, -9.36506068e-03,  1.00888333e-03
     839, -2.45010668e-03, -9.35000474e-03,  1.06066000e-03
     840, -1.95354005e-03, -9.50092086e-03,  8.41506337e-04
     841, -1.99340620e-03, -9.48880477e-03,  9.33012674e-04
     842, -2.03327236e-03, -9.47668868e-03,  1.02451901e-03
     843, -2.07313852e-03, -9.46457259e-03,  1.11602535e-03
     844, -2.11300467e-03, -9.45245650e-03,  1.20753168e-03
     845, -2.15287083e-03, -9.44034041e-03,  1.29903802e-03
     846, -1.69651945e-03, -9.57903435e-03,  8.66481453e-04
     847, -1.71856202e-03, -9.57233519e-03,  9.82962906e-04
     848, -1.74060459e-03, -9.56563603e-03,  1.09944436e-03
     849, -1.76264716e-03, -9.55893687e-03,  1.21592581e-03
     850, -1.78468972e-03, -9.55223771e-03,  1.33240726e-03
     851, -1.80673230e-03, -9.54553855e-03,  1.44888872e-03
     852, -1.43527987e-03, -9.65843006e-03,  8.75000000e-04
     853, -1.43527987e-03, -9.65843006e-03,  1.00000000e-03
     854, -1.43527987e-03, -9.65843006e-03,  1.12500000e-03
     855, -1.43527987e-03, -9.65843006e-03,  1.25000000e-03
     856, -1.43527987e-03, -9.65843006e-03,  1.37500000e-03
     857, -1.43527987e-03, -9.65843006e-03,  1.50000000e-03
     858, -1.17404029e-03, -9.73782578e-03,  8.66481453e-04
     859, -1.15199772e-03, -9.74452494e-03,  9.82962906e-04
     860, -1.12995515e-03, -9.75122410e-03,  1.09944436e-03
     861, -1.10791258e-03, -9.75792326e-03,  1.21592581e-03
     862, -1.08587001e-03, -9.76462242e-03,  1.33240726e-03
     863, -1.06382744e-03, -9.77132158e-03,  1.44888872e-03
     864, -9.17019686e-04, -9.81593927e-03,  8.41506337e-04
     865, -8.77153530e-04, -9.82805536e-03,  9.33012674e-04
     866, -8.37287373e-04, -9.84017145e-03,  1.02451901e-03
     867, -7.97421217e-04, -9.85228754e-03,  1.11602535e-03
     868, -7.57555060e-04, -9.86440363e-03,  1.20753168e-03
     869, -7.17688904e-04, -9.87651972e-03,  1.29903802e-03
     870, -6.68149535e-04, -9.89157568e-03,  8.01776667e-04
     871, -6.18610240e-04, -9.90663162e-03,  8.53553333e-04
     872, -5.69070944e-04, -9.92168756e-03,  9.05330000e-04
     873, -5.19531648e-04, -9.93674350e-03,  9.57106667e-04
     874, -4.69992355e-04, -9.95179945e-03,  1.00888333e-03
     875, -4.20453056e-04, -9.96685539e-03,  1.06066000e-03
     876, -1.47867841e-03, -6.58959615e-03,  8.01776667e-04
     877, -1.52937379e-03, -6.57906994e-03,  8.53553333e-04
     878, -1.58006918e-03, -6.56854372e-03,  9.05330000e-04
     879, -1.63076456e-03, -6.55801750e-03,  9.57106667e-04
     880, -1.68145994e-03, -6.54749129e-03,  1.00888333e-03
     881, -1.73215533e-03, -6.53696507e-03,  1.06066000e-03
     882, -1.22400042e-03, -6.64247661e-03,  8.41506337e-04
     883, -1.26479693e-03, -6.63400577e-03,  9.33012674e-04
     884, -1.30559343e-03, -6.62553492e-03,  1.02451901e-03
     885, -1.34638994e-03, -6.61706408e-03,  1.11602535e-03
     886, -1.38718644e-03, -6.60859323e-03,  1.20753168e-03
     887, -1.42798295e-03, -6.60012238e-03,  1.29903802e-03
     888, -9.60981788e-04, -6.69708890e-03,  8.66481453e-04
     889, -9.83538761e-04, -6.69240525e-03,  9.82962906e-04
     890, -1.00609573e-03, -6.68772160e-03,  1.09944436e-03
     891, -1.02865271e-03, -6.68303794e-03,  1.21592581e-03
     892, -1.05120968e-03, -6.67835429e-03,  1.33240726e-03
     893, -1.07376665e-03, -6.67367064e-03,  1.44888872e-03
     894, -6.93645711e-04, -6.75259765e-03,  8.75000000e-04
     895, -6.93645711e-04, -6.75259765e-03,  1.00000000e-03
     896, -6.93645711e-04, -6.75259765e-03,  1.12500000e-03
     897, -6.93645711e-04, -6.75259765e-03,  1.25000000e-03
     898, -6.93645711e-04, -6.75259765e-03,  1.37500000e-03
     899, -6.93645711e-04, -6.75259765e-03,  1.50000000e-03
     900, -4.26309635e-04, -6.80810639e-03,  8.66481453e-04
     901, -4.03752662e-04, -6.81279004e-03,  9.82962906e-04
     902, -3.81195690e-04, -6.81747370e-03,  1.09944436e-03
     903, -3.58638717e-04, -6.82215735e-03,  1.21592581e-03
     904, -3.36081745e-04, -6.82684100e-03,  1.33240726e-03
     905, -3.13524772e-04, -6.83152465e-03,  1.44888872e-03
     906, -1.63290998e-04, -6.86271868e-03,  8.41506337e-04
     907, -1.22494493e-04, -6.87118952e-03,  9.33012674e-04
     908, -8.16979877e-05, -6.87966037e-03,  1.02451901e-03
     909, -4.09014827e-05, -6.88813122e-03,  1.11602535e-03
     910, -1.04977703e-07, -6.89660206e-03,  1.20753168e-03
     911,  4.06915273e-05, -6.90507291e-03,  1.29903802e-03
     912,  9.13869864e-05, -6.91559914e-03,  8.01776667e-04
     913,  1.42082370e-04, -6.92612536e-03,  8.53553333e-04
     914,  1.92777755e-04, -6.93665157e-03,  9.05330000e-04
     915,  2.43473139e-04, -6.94717779e-03,  9.57106667e-04
     916,  2.94168520e-04, -6.95770400e-03,  1.00888333e-03
     917,  3.44863908e-04, -6.96823022e-03,  1.06066000e-03
     918, -1.01367067e-03, -3.70018728e-03,  8.01776667e-04
     919, -1.06510886e-03, -3.69427661e-03,  8.53553333e-04
     920, -1.11654705e-03, -3.68836593e-03,  9.05330000e-04
     921, -1.16798523e-03, -3.68245525e-03,  9.57106667e-04
     922, -1.21942342e-03, -3.67654458e-03,  1.00888333e-03
     923, -1.27086161e-03, -3.67063390e-03,  1.06066000e-03
     924, -7.55261076e-04, -3.72988070e-03,  8.41506337e-04
     925, -7.96655342e-04, -3.72512415e-03,  9.33012674e-04
     926, -8.38049609e-04, -3.72036760e-03,  1.02451901e-03
     927, -8.79443876e-04, -3.71561106e-03,  1.11602535e-03
     928, -9.20838143e-04, -3.71085451e-03,  1.20753168e-03
     929, -9.62232410e-04, -3.70609797e-03,  1.29903802e-03
     930, -4.88388616e-04, -3.76054657e-03,  8.66481453e-04
     931, -5.11276100e-04, -3.75791660e-03,  9.82962906e-04
     932, -5.34163583e-04, -3.75528664e-03,  1.09944436e-03
     933, -5.57051066e-04, -3.75265668e-03,  1.21592581e-03
     934, -5.79938549e-04, -3.75002672e-03,  1.33240726e-03
     935, -6.02826034e-04, -3.74739675e-03,  1.44888872e-03
     936, -2.17135456e-04, -3.79171581e-03,  8.75000000e-04
     937, -2.17135456e-04, -3.79171581e-03,  1.00000000e-03
     938, -2.17135456e-04, -3.79171581e-03,  1.12500000e-03
     939, -2.17135456e-04, -3.79171581e-03,  1.25000000e-03
     940, -2.17135456e-04, -3.79171581e-03,  1.37500000e-03
     941, -2.17135456e-04, -3.79171581e-03,  1.50000000e-03
     942,  5.41177036e-05, -3.82288506e-03,  8.66481453e-04
     943,  7.70051879e-05, -3.82551502e-03,  9.82962906e-04
     944,  9.98926711e-05, -3.82814499e-03,  1.09944436e-03
     945,  1.22780154e-04, -3.83077495e-03,  1.21592581e-03
     946,  1.45667638e-04, -3.83340491e-03,  1.33240726e-03
     947,  1.68555122e-04, -3.83603487e-03,  1.44888872e-03
     948,  3.20990164e-04, -3.85355093e-03,  8.41506337e-04
     949,  3.62384430e-04, -3.85830747e-03,  9.33012674e-04
     950,  4.03778697e-04, -3.86306402e-03,  1.02451901e-03
     951,  4.45172964e-04, -3.86782057e-03,  1.11602535e-03
     952,  4.86567231e-04, -3.87257711e-03,  1.20753168e-03
     953,  5.27961498e-04, -3.87733366e-03,  1.29903802e-03
     954,  5.79399761e-04, -3.88324434e-03,  8.01776667e-04
     955,  6.30837948e-04, -3.88915502e-03,  8.53553333e-04
     956,  6.82276135e-04, -3.89506570e-03,  9.05330000e-04
     957,  7.33714323e-04, -3.90097637e-03,  9.57106667e-04
     958,  7.85152507e-04, -3.90688705e-03,  1.00888333e-03
     959,  8.36590697e-04, -3.91279772e-03,  1.06066000e-03
     960, -8.11177887e-04, -7.80613257e-04,  8.01776667e-04
     961, -8.62939535e-04, -7.79366306e-04,  8.53553333e-04
     962, -9.14701185e-04, -7.78119355e-04,  9.05330000e-04
     963, -9.66462834e-04, -7.76872404e-04,  9.57106667e-04
     964, -1.01822448e-03, -7.75625453e-04,  1.00888333e-03
     965, -1.06998613e-03, -7.74378502e-04,  1.06066000e-03
     966, -5.51143317e-04, -7.86877554e-04,  8.41506337e-04
     967, -5.92797886e-04, -7.85874085e-04,  9.33012674e-04
     968, -6.34452455e-04, -7.84870616e-04,  1.02451901e-03
     969, -6.76107024e-04, -7.83867147e-04,  1.11602535e-03
     970, -7.17761593e-04, -7.82863678e-04,  1.20753168e-03
     971, -7.59416161e-04, -7.81860209e-04,  1.29903802e-03
     972, -2.82592667e-04, -7.93347006e-04,  8.66481453e-04
     973, -3.05624076e-04, -7.92792173e-04,  9.82962906e-04
     974, -3.28655484e-04, -7.92237341e-04,  1.09944436e-03
     975, -3.51686892e-04, -7.91682509e-04,  1.21592581e-03
     976, -3.74718300e-04, -7.91127676e-04,  1.33240726e-03
     977, -3.97749709e-04, -7.90572844e-04,  1.44888872e-03
     978, -9.63377023e-06, -7.99922653e-04,  8.75000000e-04
     979, -9.63377023e-06, -7.99922653e-04,  1.00000000e-03
     980, -9.63377023e-06, -7.99922653e-04,  1.12500000e-03
     981, -9.63377023e-06, -7.99922653e-04,  1.25000000e-03
     982, -9.63377023e-06, -7.99922653e-04,  1.37500000e-03
     983, -9.63377023e-06, -7.99922653e-04,  1.50000000e-03
     984,  2.63325127e-04, -8.06498301e-04,  8.66481453e-04
     985,  2.86356536e-04, -8.07053134e-04,  9.82962906e-04
     986,  3.09387944e-04, -8.07607966e-04,  1.09944436e-03
     987,  3.32419352e-04, -8.08162798e-04,  1.21592581e-03
     988,  3.55450760e-04, -8.08717631e-04,  1.33240726e-03
     989,  3.78482168e-04, -8.09272463e-04,  1.44888872e-03
     990,  5.31875777e-04, -8.12967753e-04,  8.41506337e-04
     991,  5.73530346e-04, -8.13971222e-04,  9.33012674e-04
     992,  6.15184914e-04, -8.14974691e-04,  1.02451901e-03
     993,  6.56839483e-04, -8.15978160e-04,  1.11602535e-03
     994,  6.98494052e-04, -8.16981629e-04,  1.20753168e-03
     995,  7.40148621e-04, -8.17985098e-04,  1.29903802e-03
     996,  7.91910346e-04, -8.19232050e-04,  8.01776667e-04
     997,  8.43671995e-04, -8.20479001e-04,  8.53553333e-04
     998,  8.95433644e-04, -8.21725952e-04,  9.05330000e-04
     999,  9.47195294e-04, -8.22972903e-04,  9.57106667e-04
    1000,  9.98956939e-04, -8.24219854e-04,  1.00888333e-03
    1001,  1.05071859e-03, -8.25466805e-04,  1.06066000e-03
    1002, -1.27810484e-02, -2.72451096e-02,  5.41666654e-04
    1003, -1.27261446e-02, -2.73183147e-02,  5.83333308e-04
    1004, -1.26712408e-02, -2.73915198e-02,  6.24999962e-04
    1005, -1.26163370e-02, -2.74647249e-02,  6.66666616e-04
    1006, -1.25614332e-02, -2.75379299e-02,  7.08333270e-04
    1007, -1.25065294e-02, -2.76111350e-02,  7.49999924e-04
    1008, -1.27660633e-02, -2.72650897e-02,  2.73038090e-04
    1009, -1.26961744e-02, -2.73582749e-02,  2.96076181e-04
    1010, -1.26262856e-02, -2.74514601e-02,  3.19114271e-04
    1011, -1.25563967e-02, -2.75446452e-02,  3.42152361e-04
    1012, -1.24865078e-02, -2.76378304e-02,  3.65190451e-04
    1013, -1.24166189e-02, -2.77310156e-02,  3.88228542e-04
    1014, -1.27609522e-02, -2.72719046e-02,  1.85037171e-20
    1015, -1.26859522e-02, -2.73719046e-02,  3.70074342e-20
    1016, -1.26109522e-02, -2.74719046e-02,  5.55111512e-20
    1017, -1.25359522e-02, -2.75719046e-02,  7.40148683e-20
    1018, -1.24609522e-02, -2.76719046e-02,  9.71445147e-20
    1019, -1.23859522e-02, -2.77719046e-02,  1.11022303e-19
    1020, -1.27660633e-02, -2.72650897e-02, -2.73038090e-04
    1021, -1.26961744e-02, -2.73582749e-02, -2.96076181e-04
    1022, -1.26262856e-02, -2.74514601e-02, -3.19114271e-04
    1023, -1.25563967e-02, -2.75446452e-02, -3.42152361e-04
    1024, -1.24865078e-02, -2.76378304e-02, -3.65190451e-04
    1025, -1.24166189e-02, -2.77310156e-02, -3.88228542e-04
    1026, -1.27810484e-02, -2.72451096e-02, -5.41666654e-04
    1027, -1.27261446e-02, -2.73183147e-02, -5.83333308e-04
    1028, -1.26712408e-02, -2.73915198e-02, -6.24999962e-04
    1029, -1.26163370e-02, -2.74647249e-02, -6.66666616e-04
    1030, -1.25614332e-02, -2.75379299e-02, -7.08333270e-04
    1031, -1.25065294e-02, -2.76111350e-02, -7.49999924e-04
    1032, -1.28048862e-02, -2.72133259e-02, -8.01776667e-04
    1033, -1.27738202e-02, -2.72547472e-02, -8.53553333e-04
    1034, -1.27427542e-02, -2.72961686e-02, -9.05330000e-04
    1035, -1.27116882e-02, -2.73375899e-02, -9.57106667e-04
    1036, -1.26806222e-02, -2.73790112e-02, -1.00888333e-03
    1037, -1.26495562e-02, -2.74204326e-02, -1.06066000e-03
    1038, -1.04068800e-02, -2.52909590e-02,  5.41666654e-04
    1039, -1.03455970e-02, -2.53589134e-02,  5.83333308e-04
    1040, -1.02843141e-02, -2.54268679e-02,  6.24999962e-04
    1041, -1.02230311e-02, -2.54948223e-02,  6.66666616e-04
    1042, -1.01617481e-02, -2.55627768e-02,  7.08333270e-04
    1043, -1.01004652e-02, -2.56307312e-02,  7.49999924e-04
    1044, -1.03901539e-02, -2.53095060e-02,  2.73038090e-04
    1045, -1.03121447e-02, -2.53960075e-02,  2.96076181e-04
    1046, -1.02341356e-02, -2.54825090e-02,  3.19114271e-04
    1047, -1.01561265e-02, -2.55690104e-02,  3.42152361e-04
    1048, -1.00781173e-02, -2.56555119e-02,  3.65190451e-04
    1049, -1.00001082e-02, -2.57420134e-02,  3.88228542e-04
    1050, -1.03844489e-02, -2.53158321e-02,  1.85037171e-20
    1051, -1.03007348e-02, -2.54086596e-02,  3.70074342e-20
    1052, -1.02170207e-02, -2.55014871e-02,  5.55111512e-20
    1053, -1.01333065e-02, -2.55943146e-02,  7.40148683e-20
    1054, -1.00495924e-02, -2.56871421e-02,  9.71445147e-20
    1055, -9.96587833e-03, -2.57799696e-02,  1.11022303e-19
    1056, -1.03901539e-02, -2.53095060e-02, -2.73038090e-04
    1057, -1.03121447e-02, -2.53960075e-02, -2.96076181e-04
    1058, -1.02341356e-02, -2.54825090e-02, -3.19114271e-04
    1059, -1.01561265e-02, -2.55690104e-02, -3.42152361e-04
    1060, -1.00781173e-02, -2.56555119e-02, -3.65190451e-04
    1061, -1.00001082e-02, -2.57420134e-02, -3.88228542e-04
    1062, -1.04068800e-02, -2.52909590e-02, -5.41666654e-04
    1063, -1.03455970e-02, -2.53589134e-02, -5.83333308e-04
    1064, -1.02843141e-02, -2.54268679e-02, -6.24999962e-04
    1065, -1.02230311e-02, -2.54948223e-02, -6.66666616e-04
    1066, -1.01617481e-02, -2.55627768e-02, -7.08333270e-04
    1067, -1.01004652e-02, -2.56307312e-02, -7.49999924e-04
    1068, -1.04334875e-02, -2.52614549e-02, -8.01776667e-04
    1069, -1.03988120e-02, -2.52999053e-02, -8.53553333e-04
    1070, -1.03641365e-02, -2.53383557e-02, -9.05330000e-04
    1071, -1.03294610e-02, -2.53768061e-02, -9.57106667e-04
    1072, -1.02947855e-02, -2.54152565e-02, -1.00888333e-03
    1073, -1.02601100e-02, -2.54537069e-02, -1.06066000e-03
    1074, -8.21865004e-03, -2.31306280e-02,  5.41666654e-04
    1075, -8.15148749e-03, -2.31927779e-02,  5.83333308e-04
    1076, -8.08432495e-03, -2.32549277e-02,  6.24999962e-04
    1077, -8.01716241e-03, -2.33170776e-02,  6.66666616e-04
    1078, -7.94999987e-03, -2.33792274e-02,  7.08333270e-04
    1079, -7.88283733e-03, -2.34413772e-02,  7.49999924e-04
    1080, -8.20031915e-03, -2.31475908e-02,  2.73038090e-04
    1081, -8.11482572e-03, -2.32267034e-02,  2.96076181e-04
    1082, -8.02933229e-03, -2.33058160e-02,  3.19114271e-04
    1083, -7.94383887e-03, -2.33849286e-02,  3.42152361e-04
    1084, -7.85834544e-03, -2.34640412e-02,  3.65190451e-04
    1085, -7.77285201e-03, -2.35431538e-02,  3.88228542e-04
    1086, -8.19406682e-03, -2.31533765e-02,  1.85037171e-20
    1087, -8.10232107e-03, -2.32382748e-02,  3.70074342e-20
    1088, -8.01057532e-03, -2.33231730e-02,  5.55111512e-20
    1089, -7.91882957e-03, -2.34080713e-02,  7.40148683e-20
    1090, -7.82708382e-03, -2.34929696e-02,  7.86407976e-20
    1091, -7.73533806e-03, -2.35778679e-02,  1.11022303e-19
    1092, -8.20031915e-03, -2.31475908e-02, -2.73038090e-04
    1093, -8.11482572e-03, -2.32267034e-02, -2.96076181e-04
    1094, -8.02933229e-03, -2.33058160e-02, -3.19114271e-04
    1095, -7.94383887e-03, -2.33849286e-02, -3.42152361e-04
    1096, -7.85834544e-03, -2.34640412e-02, -3.65190451e-04
    1097, -7.77285201e-03, -2.35431538e-02, -3.88228542e-04
    1098, -8.21865004e-03, -2.31306280e-02, -5.41666654e-04
    1099, -8.15148749e-03, -2.31927779e-02, -5.83333308e-04
    1100, -8.08432495e-03, -2.32549277e-02, -6.24999962e-04
    1101, -8.01716241e-03, -2.33170776e-02, -6.66666616e-04
    1102, -7.94999987e-03, -2.33792274e-02, -7.08333270e-04
    1103, -7.88283733e-03, -2.34413772e-02, -7.49999924e-04
    1104, -8.24781026e-03, -2.31036442e-02, -8.01776667e-04
    1105, -8.20980795e-03, -2.31388102e-02, -8.53553333e-04
    1106, -8.17180564e-03, -2.31739762e-02, -9.05330000e-04
    1107, -8.13380332e-03, -2.32091422e-02, -9.57106667e-04
    1108, -8.09580101e-03, -2.32443082e-02, -1.00888333e-03
    1109, -8.05779869e-03, -2.32794742e-02, -1.06066000e-03
    1110, -6.23419763e-03, -2.07817285e-02,  5.41666654e-04
    1111, -6.16170305e-03, -2.08375671e-02,  5.83333308e-04
    1112, -6.08920847e-03, -2.08934057e-02,  6.24999962e-04
    1113, -6.01671388e-03, -2.09492442e-02,  6.66666616e-04
    1114, -5.94421931e-03, -2.10050828e-02,  7.08333270e-04
    1115, -5.87172473e-03, -2.10609214e-02,  7.49999924e-04
    1116, -6.21441145e-03, -2.07969687e-02,  2.73038090e-04
    1117, -6.12213069e-03, -2.08680475e-02,  2.96076181e-04
    1118, -6.02984993e-03, -2.09391263e-02,  3.19114271e-04
    1119, -5.93756918e-03, -2.10102050e-02,  3.42152361e-04
    1120, -5.84528843e-03, -2.10812838e-02,  3.65190451e-04
    1121, -5.75300766e-03, -2.11523626e-02,  3.88228542e-04
    1122, -6.20766275e-03, -2.08021669e-02,  1.85037171e-20
    1123, -6.10863330e-03, -2.08784438e-02,  3.70074342e-20
    1124, -6.00960385e-03, -2.09547207e-02,  5.55111512e-20
    1125, -5.91057439e-03, -2.10309976e-02,  7.40148683e-20
    1126, -5.81154494e-03, -2.11072745e-02,  9.71445147e-20
    1127, -5.71251549e-03, -2.11835515e-02,  1.11022303e-19
    1128, -6.21441145e-03, -2.07969687e-02, -2.73038090e-04
    1129, -6.12213069e-03, -2.08680475e-02, -2.96076181e-04
    1130, -6.02984993e-03, -2.09391263e-02, -3.19114271e-04
    1131, -5.93756918e-03, -2.10102050e-02, -3.42152361e-04
    1132, -5.84528843e-03, -2.10812838e-02, -3.65190451e-04
    1133, -5.75300766e-03, -2.11523626e-02, -3.88228542e-04
    1134, -6.23419763e-03, -2.07817285e-02, -5.41666654e-04
    1135, -6.16170305e-03, -2.08375671e-02, -5.83333308e-04
    1136, -6.08920847e-03, -2.08934057e-02, -6.24999962e-04
    1137, -6.01671388e-03, -2.09492442e-02, -6.66666616e-04
    1138, -5.94421931e-03, -2.10050828e-02, -7.08333270e-04
    1139, -5.87172473e-03, -2.10609214e-02, -7.49999924e-04
    1140, -6.26567289e-03, -2.07574849e-02, -8.01776667e-04
    1141, -6.22465357e-03, -2.07890798e-02, -8.53553333e-04
    1142, -6.18363425e-03, -2.08206747e-02, -9.05330000e-04
    1143, -6.14261493e-03, -2.08522696e-02, -9.57106667e-04
    1144, -6.10159561e-03, -2.08838645e-02, -1.00888333e-03
    1145, -6.06057629e-03, -2.09154595e-02, -1.06066000e-03
    1146, -4.46970070e-03, -1.82634095e-02,  5.41666654e-04
    1147, -4.39246508e-03, -1.83124816e-02,  5.83333308e-04
    1148, -4.31522946e-03, -1.83615537e-02,  6.24999962e-04
    1149, -4.23799384e-03, -1.84106257e-02,  6.66666616e-04
    1150, -4.16075823e-03, -1.84596978e-02,  7.08333270e-04
    1151, -4.08352261e-03, -1.85087699e-02,  7.49999924e-04
    1152, -4.44862053e-03, -1.82768029e-02,  2.73038090e-04
    1153, -4.35030475e-03, -1.83392684e-02,  2.96076181e-04
    1154, -4.25198897e-03, -1.84017339e-02,  3.19114271e-04
    1155, -4.15367319e-03, -1.84641993e-02,  3.42152361e-04
    1156, -4.05535741e-03, -1.85266648e-02,  3.65190451e-04
    1157, -3.95704162e-03, -1.85891303e-02,  3.88228542e-04
    1158, -4.44143048e-03, -1.82813711e-02,  1.85037171e-20
    1159, -4.33592465e-03, -1.83484049e-02,  3.70074342e-20
    1160, -4.23041882e-03, -1.84154386e-02,  5.55111512e-20
    1161, -4.12491298e-03, -1.84824723e-02,  7.40148683e-20
    1162, -4.01940715e-03, -1.85495060e-02,  9.71445147e-20
    1163, -3.91390132e-03, -1.86165397e-02,  1.11022303e-19
    1164, -4.44862053e-03, -1.82768029e-02, -2.73038090e-04
    1165, -4.35030475e-03, -1.83392684e-02, -2.96076181e-04
    1166, -4.25198897e-03, -1.84017339e-02, -3.19114271e-04
    1167, -4.15367319e-03, -1.84641993e-02, -3.42152361e-04
    1168, -4.05535741e-03, -1.85266648e-02, -3.65190451e-04
    1169, -3.95704162e-03, -1.85891303e-02, -3.88228542e-04
    1170, -4.46970070e-03, -1.82634095e-02, -5.41666654e-04
    1171, -4.39246508e-03, -1.83124816e-02, -5.83333308e-04
    1172, -4.31522946e-03, -1.83615537e-02, -6.24999962e-04
    1173, -4.23799384e-03, -1.84106257e-02, -6.66666616e-04
    1174, -4.16075823e-03, -1.84596978e-02, -7.08333270e-04
    1175, -4.08352261e-03, -1.85087699e-02, -7.49999924e-04
    1176, -4.50323439e-03, -1.82421037e-02, -8.01776667e-04
    1177, -4.45953247e-03, -1.82698699e-02, -8.53553333e-04
    1178, -4.41583055e-03, -1.82976362e-02, -9.05330000e-04
    1179, -4.37212862e-03, -1.83254025e-02, -9.57106667e-04
    1180, -4.32842670e-03, -1.83531687e-02, -1.00888333e-03
    1181, -4.28472478e-03, -1.83809350e-02, -1.06066000e-03
    1182, -2.93954402e-03, -1.55962011e-02,  5.41666654e-04
    1183, -2.85819701e-03, -1.56381066e-02,  5.83333308e-04
    1184, -2.77685000e-03, -1.56800122e-02,  6.24999962e-04
    1185, -2.69550299e-03, -1.57219177e-02,  6.66666616e-04
    1186, -2.61415599e-03, -1.57638232e-02,  7.08333270e-04
    1187, -2.53280898e-03, -1.58057288e-02,  7.49999924e-04
    1188, -2.91734172e-03, -1.56076385e-02,  2.73038090e-04
    1189, -2.81379241e-03, -1.56609814e-02,  2.96076181e-04
    1190, -2.71024311e-03, -1.57143244e-02,  3.19114271e-04
    1191, -2.60669381e-03, -1.57676673e-02,  3.42152361e-04
    1192, -2.50314450e-03, -1.58210103e-02,  3.65190451e-04
    1193, -2.39959519e-03, -1.58743532e-02,  3.88228542e-04
    1194, -2.90976893e-03, -1.56115396e-02,  1.85037171e-20
    1195, -2.79864683e-03, -1.56687836e-02,  3.70074342e-20
    1196, -2.68752474e-03, -1.57260277e-02,  5.55111512e-20
    1197, -2.57640264e-03, -1.57832717e-02,  7.40148683e-20
    1198, -2.46528055e-03, -1.58405157e-02,  9.71445147e-20
    1199, -2.35415845e-03, -1.58977598e-02,  1.11022303e-19
    1200, -2.91734172e-03, -1.56076385e-02, -2.73038090e-04
    1201, -2.81379241e-03, -1.56609814e-02, -2.96076181e-04
    1202, -2.71024311e-03, -1.57143244e-02, -3.19114271e-04
    1203, -2.60669381e-03, -1.57676673e-02, -3.42152361e-04
    1204, -2.50314450e-03, -1.58210103e-02, -3.65190451e-04
    1205, -2.39959519e-03, -1.58743532e-02, -3.88228542e-04
    1206, -2.93954402e-03, -1.55962011e-02, -5.41666654e-04
    1207, -2.85819701e-03, -1.56381066e-02, -5.83333308e-04
    1208, -2.77685000e-03, -1.56800122e-02, -6.24999962e-04
    1209, -2.69550299e-03, -1.57219177e-02, -6.66666616e-04
    1210, -2.61415599e-03, -1.57638232e-02, -7.08333270e-04
    1211, -2.53280898e-03, -1.58057288e-02, -7.49999924e-04
    1212, -2.97486277e-03, -1.55780068e-02, -8.01776667e-04
    1213, -2.92883452e-03, -1.56017180e-02, -8.53553333e-04
    1214, -2.88280626e-03, -1.56254293e-02, -9.05330000e-04
    1215, -2.83677801e-03, -1.56491405e-02, -9.57106667e-04
    1216, -2.79074976e-03, -1.56728518e-02, -1.00888333e-03
    1217, -2.74472150e-03, -1.56965630e-02, -1.06066000e-03
    1218, -1.65620193e-03, -1.28018473e-02,  5.41666654e-04
    1219, -1.57140670e-03, -1.28362446e-02,  5.83333308e-04
    1220, -1.48661147e-03, -1.28706420e-02,  6.24999962e-04
    1221, -1.40181624e-03, -1.29050394e-02,  6.66666616e-04
    1222, -1.31702102e-03, -1.29394367e-02,  7.08333270e-04
    1223, -1.23222579e-03, -1.29738341e-02,  7.49999924e-04
    1224, -1.63305850e-03, -1.28112354e-02,  2.73038090e-04
    1225, -1.52511984e-03, -1.28550210e-02,  2.96076181e-04
    1226, -1.41718118e-03, -1.28988065e-02,  3.19114271e-04
    1227, -1.30924252e-03, -1.29425921e-02,  3.42152361e-04
    1228, -1.20130386e-03, -1.29863776e-02,  3.65190451e-04
    1229, -1.09336520e-03, -1.30301632e-02,  3.88228542e-04
    1230, -1.62516470e-03, -1.28144376e-02,  1.85037171e-20
    1231, -1.50933225e-03, -1.28614253e-02,  3.70074342e-20
    1232, -1.39349980e-03, -1.29084129e-02,  5.55111512e-20
    1233, -1.27766734e-03, -1.29554006e-02,  7.40148683e-20
    1234, -1.16183489e-03, -1.30023883e-02,  9.71445147e-20
    1235, -1.04600244e-03, -1.30493760e-02,  1.11022303e-19
    1236, -1.63305850e-03, -1.28112354e-02, -2.73038090e-04
    1237, -1.52511984e-03, -1.28550210e-02, -2.96076181e-04
    1238, -1.41718118e-03, -1.28988065e-02, -3.19114271e-04
    1239, -1.30924252e-03, -1.29425921e-02, -3.42152361e-04
    1240, -1.20130386e-03, -1.29863776e-02, -3.65190451e-04
    1241, -1.09336520e-03, -1.30301632e-02, -3.88228542e-04
    1242, -1.65620193e-03, -1.28018473e-02, -5.41666654e-04
    1243, -1.57140670e-03, -1.28362446e-02, -5.83333308e-04
    1244, -1.48661147e-03, -1.28706420e-02, -6.24999962e-04
    1245, -1.40181624e-03, -1.29050394e-02, -6.66666616e-04
    1246, -1.31702102e-03, -1.29394367e-02, -7.08333270e-04
    1247, -1.23222579e-03, -1.29738341e-02, -7.49999924e-04
    1248, -1.69301781e-03, -1.27869128e-02, -8.01776667e-04
    1249, -1.64503846e-03, -1.28063757e-02, -8.53553333e-04
    1250, -1.59705912e-03, -1.28258387e-02, -9.05330000e-04
    1251, -1.54907977e-03, -1.28453016e-02, -9.57106667e-04
    1252, -1.50110043e-03, -1.28647645e-02, -1.00888333e-03
    1253, -1.45312108e-03, -1.28842274e-02, -1.06066000e-03
    1254, -6.30136662e-04, -9.90312852e-03,  5.41666654e-04
    1255, -5.42584492e-04, -9.92973730e-03,  5.83333308e-04
    1256, -4.55032324e-04, -9.95634609e-03,  6.24999962e-04
    1257, -3.67480151e-04, -9.98295487e-03,  6.66666616e-04
    1258, -2.79927988e-04, -1.00095637e-02,  7.08333270e-04
    1259, -1.92375816e-04, -1.00361724e-02,  7.49999924e-04
    1260, -6.06240769e-04, -9.91039094e-03,  2.73038090e-04
    1261, -4.94792707e-04, -9.94426214e-03,  2.96076181e-04
    1262, -3.83344644e-04, -9.97813335e-03,  3.19114271e-04
    1263, -2.71896585e-04, -1.00120045e-02,  3.42152361e-04
    1264, -1.60448526e-04, -1.00458758e-02,  3.65190451e-04
    1265, -4.90004575e-05, -1.00797470e-02,  3.88228542e-04
    1266, -5.98090325e-04, -9.91286802e-03,  1.85037171e-20
    1267, -4.78491819e-04, -9.94921630e-03,  3.70074342e-20
    1268, -3.58893313e-04, -9.98556457e-03,  5.55111512e-20
    1269, -2.39294808e-04, -1.00219129e-02,  7.40148683e-20
    1270, -1.19696302e-04, -1.00582611e-02,  7.86407976e-20
    1271, -9.77957290e-08, -1.00946094e-02,  1.11022303e-19
    1272, -6.06240769e-04, -9.91039094e-03, -2.73038090e-04
    1273, -4.94792707e-04, -9.94426214e-03, -2.96076181e-04
    1274, -3.83344644e-04, -9.97813335e-03, -3.19114271e-04
    1275, -2.71896585e-04, -1.00120045e-02, -3.42152361e-04
    1276, -1.60448526e-04, -1.00458758e-02, -3.65190451e-04
    1277, -4.90004575e-05, -1.00797470e-02, -3.88228542e-04
    1278, -6.30136662e-04, -9.90312852e-03, -5.41666654e-04
    1279, -5.42584492e-04, -9.92973730e-03, -5.83333308e-04
    1280, -4.55032324e-04, -9.95634609e-03, -6.24999962e-04
    1281, -3.67480151e-04, -9.98295487e-03, -6.66666616e-04
    1282, -2.79927988e-04, -1.00095637e-02, -7.08333270e-04
    1283, -1.92375816e-04, -1.00361724e-02, -7.49999924e-04
    1284, -6.68149535e-04, -9.89157568e-03, -8.01776667e-04
    1285, -6.18610240e-04, -9.90663162e-03, -8.53553333e-04
    1286, -5.69070944e-04, -9.92168756e-03, -9.05330000e-04
    1287, -5.19531648e-04, -9.93674350e-03, -9.57106667e-04
    1288, -4.69992355e-04, -9.95179945e-03, -1.00888333e-03
    1289, -4.20453056e-04, -9.96685539e-03, -1.06066000e-03
    1290,  1.30286959e-04, -6.92367620e-03,  5.41666654e-04
    1291,  2.19882315e-04, -6.94227947e-03,  5.83333308e-04
    1292,  3.09477671e-04, -6.96088274e-03,  6.24999962e-04
    1293,  3.99073031e-04, -6.97948602e-03,  6.66666616e-04
    1294,  4.88668381e-04, -6.99808929e-03,  7.08333270e-04
    1295,  5.78263741e-04, -7.01669256e-03,  7.49999924e-04
    1296,  1.54740505e-04, -6.92875365e-03,  2.73038090e-04
    1297,  2.68789408e-04, -6.95243437e-03,  2.96076181e-04
    1298,  3.82838312e-04, -6.97611509e-03,  3.19114271e-04
    1299,  4.96887212e-04, -6.99979582e-03,  3.42152361e-04
    1300,  6.10936112e-04, -7.02347654e-03,  3.65190451e-04
    1301,  7.24985021e-04, -7.04715726e-03,  3.88228542e-04
    1302,  1.63081154e-04, -6.93048547e-03,  1.85037171e-20
    1303,  2.85470706e-04, -6.95589802e-03,  3.70074342e-20
    1304,  4.07860258e-04, -6.98131057e-03,  5.55111512e-20
    1305,  5.30249810e-04, -7.00672311e-03,  7.40148683e-20
    1306,  6.52639363e-04, -7.03213566e-03,  9.71445147e-20
    1307,  7.75028915e-04, -7.05754820e-03,  1.11022303e-19
    1308,  1.54740505e-04, -6.92875365e-03, -2.73038090e-04
    1309,  2.68789408e-04, -6.95243437e-03, -2.96076181e-04
    1310,  3.82838312e-04, -6.97611509e-03, -3.19114271e-04
    1311,  4.96887212e-04, -6.99979582e-03, -3.42152361e-04
    1312,  6.10936112e-04, -7.02347654e-03, -3.65190451e-04
    1313,  7.24985021e-04, -7.04715726e-03, -3.88228542e-04
    1314,  1.30286959e-04, -6.92367620e-03, -5.41666654e-04
    1315,  2.19882315e-04, -6.94227947e-03, -5.83333308e-04
    1316,  3.09477671e-04, -6.96088274e-03, -6.24999962e-04
    1317,  3.99073031e-04, -6.97948602e-03, -6.66666616e-04
    1318,  4.88668381e-04, -6.99808929e-03, -7.08333270e-04
    1319,  5.78263741e-04, -7.01669256e-03, -7.49999924e-04
    1320,  9.13869864e-05, -6.91559914e-03, -8.01776667e-04
    1321,  1.42082370e-04, -6.92612536e-03, -8.53553333e-04
    1322,  1.92777755e-04, -6.93665157e-03, -9.05330000e-04
    1323,  2.43473139e-04, -6.94717779e-03, -9.57106667e-04
    1324,  2.94168520e-04, -6.95770400e-03, -1.00888333e-03
    1325,  3.44863908e-04, -6.96823022e-03, -1.06066000e-03
    1326,  6.18869706e-04, -3.88777977e-03,  5.41666654e-04
    1327,  7.09777839e-04, -3.89822587e-03,  5.83333308e-04
    1328,  8.00685972e-04, -3.90867197e-03,  6.24999962e-04
    1329,  8.91594108e-04, -3.91911807e-03,  6.66666616e-04
    1330,  9.82502234e-04, -3.92956418e-03,  7.08333270e-04
    1331,  1.07341037e-03, -3.94001028e-03,  7.49999924e-04
    1332,  6.43681553e-04, -3.89063086e-03,  2.73038090e-04
    1333,  7.59401532e-04, -3.90392805e-03,  2.96076181e-04
    1334,  8.75121513e-04, -3.91722524e-03,  3.19114271e-04
    1335,  9.90841489e-04, -3.93052243e-03,  3.42152361e-04
    1336,  1.10656147e-03, -3.94381961e-03,  3.65190451e-04
    1337,  1.22228145e-03, -3.95711681e-03,  3.88228542e-04
    1338,  6.52144411e-04, -3.89160331e-03,  1.85037171e-20
    1339,  7.76327250e-04, -3.90587295e-03,  3.70074342e-20
    1340,  9.00510088e-04, -3.92014260e-03,  5.55111512e-20
    1341,  1.02469293e-03, -3.93441224e-03,  7.40148683e-20
    1342,  1.14887576e-03, -3.94868188e-03,  7.40148683e-20
    1343,  1.27305860e-03, -3.96295152e-03,  1.11022303e-19
    1344,  6.43681553e-04, -3.89063086e-03, -2.73038090e-04
    1345,  7.59401532e-04, -3.90392805e-03, -2.96076181e-04
    1346,  8.75121513e-04, -3.91722524e-03, -3.19114271e-04
    1347,  9.90841489e-04, -3.93052243e-03, -3.42152361e-04
    1348,  1.10656147e-03, -3.94381961e-03, -3.65190451e-04
    1349,  1.22228145e-03, -3.95711681e-03, -3.88228542e-04
    1350,  6.18869706e-04, -3.88777977e-03, -5.41666654e-04
    1351,  7.09777839e-04, -3.89822587e-03, -5.83333308e-04
    1352,  8.00685972e-04, -3.90867197e-03, -6.24999962e-04
    1353,  8.91594108e-04, -3.91911807e-03, -6.66666616e-04
    1354,  9.82502234e-04, -3.92956418e-03, -7.08333270e-04
    1355,  1.07341037e-03, -3.94001028e-03, -7.49999924e-04
    1356,  5.79399761e-04, -3.88324434e-03, -8.01776667e-04
    1357,  6.30837948e-04, -3.88915502e-03, -8.53553333e-04
    1358,  6.82276135e-04, -3.89506570e-03, -9.05330000e-04
    1359,  7.33714323e-04, -3.90097637e-03, -9.57106667e-04
    1360,  7.85152507e-04, -3.90688705e-03, -1.00888333e-03
    1361,  8.36590697e-04, -3.91279772e-03, -1.06066000e-03
    1362,  8.31628493e-04, -8.20188870e-04,  5.41666654e-04
    1363,  9.23108289e-04, -8.22392641e-04,  5.83333308e-04
    1364,  1.01458808e-03, -8.24596412e-04,  6.24999962e-04
    1365,  1.10606788e-03, -8.26800184e-04,  6.66666616e-04
    1366,  1.19754767e-03, -8.29003954e-04,  7.08333270e-04
    1367,  1.28902747e-03, -8.31207725e-04,  7.49999924e-04
    1368,  8.56596365e-04, -8.20790353e-04,  2.73038090e-04
    1369,  9.73044033e-04, -8.23595606e-04,  2.96076181e-04
    1370,  1.08949170e-03, -8.26400859e-04,  3.19114271e-04
    1371,  1.20593937e-03, -8.29206112e-04,  3.42152361e-04
    1372,  1.32238703e-03, -8.32011366e-04,  3.65190451e-04
    1373,  1.43883471e-03, -8.34816619e-04,  3.88228542e-04
    1374,  8.65112441e-04, -8.20995507e-04,  1.85037171e-20
    1375,  9.90076186e-04, -8.24005915e-04,  3.70074342e-20
    1376,  1.11503993e-03, -8.27016322e-04,  5.55111512e-20
    1377,  1.24000368e-03, -8.30026730e-04,  7.40148683e-20
    1378,  1.36496742e-03, -8.33037138e-04,  9.71445147e-20
    1379,  1.48993116e-03, -8.36047545e-04,  1.11022303e-19
    1380,  8.56596365e-04, -8.20790353e-04, -2.73038090e-04
    1381,  9.73044033e-04, -8.23595606e-04, -2.96076181e-04
    1382,  1.08949170e-03, -8.26400859e-04, -3.19114271e-04
    1383,  1.20593937e-03, -8.29206112e-04, -3.42152361e-04
    1384,  1.32238703e-03, -8.32011366e-04, -3.65190451e-04
    1385,  1.43883471e-03, -8.34816619e-04, -3.88228542e-04
    1386,  8.31628493e-04, -8.20188870e-04, -5.41666654e-04
    1387,  9.23108289e-04, -8.22392641e-04, -5.83333308e-04
    1388,  1.01458808e-03, -8.24596412e-04, -6.24999962e-04
    1389,  1.10606788e-03, -8.26800184e-04, -6.66666616e-04
    1390,  1.19754767e-03, -8.29003954e-04, -7.08333270e-04
    1391,  1.28902747e-03, -8.31207725e-04, -7.49999924e-04
    1392,  7.91910346e-04, -8.19232050e-04, -8.01776667e-04
    1393,  8.43671995e-04, -8.20479001e-04, -8.53553333e-04
    1394,  8.95433644e-04, -8.21725952e-04, -9.05330000e-04
    1395,  9.47195294e-04, -8.22972903e-04, -9.57106667e-04
    1396,  9.98956939e-04, -8.24219854e-04, -1.00888333e-03
    1397,  1.05071859e-03, -8.25466805e-04, -1.06066000e-03
    1398, -1.29609522e-02, -2.70052379e-02, -8.41506337e-04
    1399, -1.29359522e-02, -2.70385712e-02, -9.33012674e-04
    1400, -1.29109522e-02, -2.70719045e-02, -1.02451901e-03
    1401, -1.28859522e-02, -2.71052379e-02, -1.11602535e-03
    1402, -1.28609522e-02, -2.71385712e-02, -1.20753168e-03
    1403, -1.28359522e-02, -2.71719045e-02, -1.29903802e-03
    1404, -1.31221293e-02, -2.67903351e-02, -8.66481453e-04
    1405, -1.31083065e-02, -2.68087655e-02, -9.82962906e-04
    1406, -1.30944836e-02, -2.68271960e-02, -1.09944436e-03
    1407, -1.30806608e-02, -2.68456265e-02, -1.21592581e-03
    1408, -1.30668379e-02, -2.68640569e-02, -1.33240726e-03
    1409, -1.30530151e-02, -2.68824874e-02, -1.44888872e-03
    1410, -1.32859522e-02, -2.65719046e-02, -8.75000000e-04
    1411, -1.32859522e-02, -2.65719046e-02, -1.00000000e-03
    1412, -1.32859522e-02, -2.65719046e-02, -1.12500000e-03
    1413, -1.32859522e-02, -2.65719046e-02, -1.25000000e-03
    1414, -1.32859522e-02, -2.65719046e-02, -1.37500000e-03
    1415, -1.32859522e-02, -2.65719046e-02, -1.50000000e-03
    1416, -1.34497750e-02, -2.63534741e-02, -8.66481453e-04
    1417, -1.34635979e-02, -2.63350436e-02, -9.82962906e-04
    1418, -1.34774208e-02, -2.63166132e-02, -1.09944436e-03
    1419, -1.34912436e-02, -2.62981827e-02, -1.21592581e-03
    1420, -1.35050665e-02, -2.62797522e-02, -1.33240726e-03
    1421, -1.35188893e-02, -2.62613217e-02, -1.44888872e-03
    1422, -1.36109522e-02, -2.61385713e-02, -8.41506337e-04
    1423, -1.36359522e-02, -2.61052379e-02, -9.33012674e-04
    1424, -1.36609522e-02, -2.60719046e-02, -1.02451901e-03
    1425, -1.36859522e-02, -2.60385713e-02, -1.11602535e-03
    1426, -1.37109522e-02, -2.60052380e-02, -1.20753168e-03
    1427, -1.37359521e-02, -2.59719046e-02, -1.29903802e-03
    1428, -1.37670182e-02, -2.59304832e-02, -8.01776667e-04
    1429, -1.37980842e-02, -2.58890619e-02, -8.53553333e-04
    1430, -1.38291502e-02, -2.58476406e-02, -9.05330000e-04
    1431, -1.38602162e-02, -2.58062192e-02, -9.57106667e-04
    1432, -1.38912822e-02, -2.57647979e-02, -1.00888333e-03
    1433, -1.39223482e-02, -2.57233766e-02, -1.06066000e-03
    1434, -1.06076865e-02, -2.50682920e-02, -8.41506337e-04
    1435, -1.05797818e-02, -2.50992345e-02, -9.33012674e-04
    1436, -1.05518771e-02, -2.51301770e-02, -1.02451901e-03
    1437, -1.05239724e-02, -2.51611195e-02, -1.11602535e-03
    1438, -1.04960677e-02, -2.51920620e-02, -1.20753168e-03
    1439, -1.04681630e-02, -2.52230045e-02, -1.29903802e-03
    1440, -1.07875905e-02, -2.48688030e-02, -8.66481453e-04
    1441, -1.07721616e-02, -2.48859116e-02, -9.82962906e-04
    1442, -1.07567327e-02, -2.49030201e-02, -1.09944436e-03
    1443, -1.07413038e-02, -2.49201287e-02, -1.21592581e-03
    1444, -1.07258749e-02, -2.49372372e-02, -1.33240726e-03
    1445, -1.07104460e-02, -2.49543458e-02, -1.44888872e-03
    1446, -1.09704476e-02, -2.46660394e-02, -8.75000000e-04
    1447, -1.09704476e-02, -2.46660394e-02, -1.00000000e-03
    1448, -1.09704476e-02, -2.46660394e-02, -1.12500000e-03
    1449, -1.09704476e-02, -2.46660394e-02, -1.25000000e-03
    1450, -1.09704476e-02, -2.46660394e-02, -1.37500000e-03
    1451, -1.09704476e-02, -2.46660394e-02, -1.50000000e-03
    1452, -1.11533048e-02, -2.44632759e-02, -8.66481453e-04
    1453, -1.11687337e-02, -2.44461673e-02, -9.82962906e-04
    1454, -1.11841626e-02, -2.44290588e-02, -1.09944436e-03
    1455, -1.11995915e-02, -2.44119502e-02, -1.21592581e-03
    1456, -1.12150204e-02, -2.43948417e-02, -1.33240726e-03
    1457, -1.12304493e-02, -2.43777331e-02, -1.44888872e-03
    1458, -1.13332088e-02, -2.42637869e-02, -8.41506337e-04
    1459, -1.13611135e-02, -2.42328444e-02, -9.33012674e-04
    1460, -1.13890182e-02, -2.42019019e-02, -1.02451901e-03
    1461, -1.14169229e-02, -2.41709594e-02, -1.11602535e-03
    1462, -1.14448275e-02, -2.41400169e-02, -1.20753168e-03
    1463, -1.14727322e-02, -2.41090744e-02, -1.29903802e-03
    1464, -1.15074078e-02, -2.40706239e-02, -8.01776667e-04
    1465, -1.15420833e-02, -2.40321735e-02, -8.53553333e-04
    1466, -1.15767588e-02, -2.39937231e-02, -9.05330000e-04
    1467, -1.16114343e-02, -2.39552728e-02, -9.57106667e-04
    1468, -1.16461098e-02, -2.39168224e-02, -1.00888333e-03
    1469, -1.16807853e-02, -2.38783720e-02, -1.06066000e-03
    1470, -8.43872217e-03, -2.29269811e-02, -8.41506337e-04
    1471, -8.40814026e-03, -2.29552805e-02, -9.33012674e-04
    1472, -8.37755836e-03, -2.29835799e-02, -1.02451901e-03
    1473, -8.34697645e-03, -2.30118793e-02, -1.11602535e-03
    1474, -8.31639454e-03, -2.30401787e-02, -1.20753168e-03
    1475, -8.28581263e-03, -2.30684782e-02, -1.29903802e-03
    1476, -8.63588641e-03, -2.27445323e-02, -8.66481453e-04
    1477, -8.61897723e-03, -2.27601794e-02, -9.82962906e-04
    1478, -8.60206806e-03, -2.27758266e-02, -1.09944436e-03
    1479, -8.58515888e-03, -2.27914737e-02, -1.21592581e-03
    1480, -8.56824971e-03, -2.28071209e-02, -1.33240726e-03
    1481, -8.55134053e-03, -2.28227680e-02, -1.44888872e-03
    1482, -8.83628709e-03, -2.25590886e-02, -8.75000000e-04
    1483, -8.83628709e-03, -2.25590886e-02, -1.00000000e-03
    1484, -8.83628709e-03, -2.25590886e-02, -1.12500000e-03
    1485, -8.83628709e-03, -2.25590886e-02, -1.25000000e-03
    1486, -8.83628709e-03, -2.25590886e-02, -1.37500000e-03
    1487, -8.83628709e-03, -2.25590886e-02, -1.50000000e-03
    1488, -9.03668777e-03, -2.23736449e-02, -8.66481453e-04
    1489, -9.05359694e-03, -2.23579977e-02, -9.82962906e-04
    1490, -9.07050612e-03, -2.23423506e-02, -1.09944436e-03
    1491, -9.08741529e-03, -2.23267034e-02, -1.21592581e-03
    1492, -9.10432447e-03, -2.23110562e-02, -1.33240726e-03
    1493, -9.12123365e-03, -2.22954091e-02, -1.44888872e-03
    1494, -9.23385200e-03, -2.21911960e-02, -8.41506337e-04
    1495, -9.26443391e-03, -2.21628966e-02, -9.33012674e-04
    1496, -9.29501582e-03, -2.21345972e-02, -1.02451901e-03
    1497, -9.32559773e-03, -2.21062978e-02, -1.11602535e-03
    1498, -9.35617964e-03, -2.20779984e-02, -1.20753168e-03
    1499, -9.38676154e-03, -2.20496990e-02, -1.29903802e-03
    1500, -9.42476391e-03, -2.20145329e-02, -8.01776667e-04
    1501, -9.46276623e-03, -2.19793669e-02, -8.53553333e-04
    1502, -9.50076854e-03, -2.19442009e-02, -9.05330000e-04
    1503, -9.53877086e-03, -2.19090349e-02, -9.57106667e-04
    1504, -9.57677317e-03, -2.18738689e-02, -1.00888333e-03
    1505, -9.61477548e-03, -2.18387029e-02, -1.06066000e-03
    1506, -6.47174130e-03, -2.05987618e-02, -8.41506337e-04
    1507, -6.43873150e-03, -2.06241874e-02, -9.33012674e-04
    1508, -6.40572169e-03, -2.06496130e-02, -1.02451901e-03
    1509, -6.37271188e-03, -2.06750387e-02, -1.11602535e-03
    1510, -6.33970207e-03, -2.07004643e-02, -1.20753168e-03
    1511, -6.30669227e-03, -2.07258899e-02, -1.29903802e-03
    1512, -6.68455842e-03, -2.04348405e-02, -8.66481453e-04
    1513, -6.66630683e-03, -2.04488987e-02, -9.82962906e-04
    1514, -6.64805523e-03, -2.04629569e-02, -1.09944436e-03
    1515, -6.62980364e-03, -2.04770151e-02, -1.21592581e-03
    1516, -6.61155204e-03, -2.04910733e-02, -1.33240726e-03
    1517, -6.59330044e-03, -2.05051315e-02, -1.44888872e-03
    1518, -6.90086893e-03, -2.02682285e-02, -8.75000000e-04
    1519, -6.90086893e-03, -2.02682285e-02, -1.00000000e-03
    1520, -6.90086893e-03, -2.02682285e-02, -1.12500000e-03
    1521, -6.90086893e-03, -2.02682285e-02, -1.25000000e-03
    1522, -6.90086893e-03, -2.02682285e-02, -1.37500000e-03
    1523, -6.90086893e-03, -2.02682285e-02, -1.50000000e-03
    1524, -7.11717943e-03, -2.01016165e-02, -8.66481453e-04
    1525, -7.13543102e-03, -2.00875583e-02, -9.82962906e-04
    1526, -7.15368262e-03, -2.00735001e-02, -1.09944436e-03
    1527, -7.17193422e-03, -2.00594419e-02, -1.21592581e-03
    1528, -7.19018581e-03, -2.00453837e-02, -1.33240726e-03
    1529, -7.20843741e-03, -2.00313255e-02, -1.44888872e-03
    1530, -7.32999655e-03, -1.99376952e-02, -8.41506337e-04
    1531, -7.36300635e-03, -1.99122696e-02, -9.33012674e-04
    1532, -7.39601616e-03, -1.98868440e-02, -1.02451901e-03
    1533, -7.42902597e-03, -1.98614183e-02, -1.11602535e-03
    1534, -7.46203578e-03, -1.98359927e-02, -1.20753168e-03
    1535, -7.49504558e-03, -1.98105671e-02, -1.29903802e-03
    1536, -7.53606497e-03, -1.97789721e-02, -8.01776667e-04
    1537, -7.57708428e-03, -1.97473772e-02, -8.53553333e-04
    1538, -7.61810360e-03, -1.97157823e-02, -9.05330000e-04
    1539, -7.65912293e-03, -1.96841874e-02, -9.57106667e-04
    1540, -7.70014224e-03, -1.96525925e-02, -1.00888333e-03
    1541, -7.74116156e-03, -1.96209975e-02, -1.06066000e-03
    1542, -4.72277938e-03, -1.81026146e-02, -8.41506337e-04
    1543, -4.68761078e-03, -1.81249591e-02, -9.33012674e-04
    1544, -4.65244218e-03, -1.81473037e-02, -1.02451901e-03
    1545, -4.61727358e-03, -1.81696483e-02, -1.11602535e-03
    1546, -4.58210498e-03, -1.81919928e-02, -1.20753168e-03
    1547, -4.54693638e-03, -1.82143374e-02, -1.29903802e-03
    1548, -4.94951443e-03, -1.79585572e-02, -8.66481453e-04
    1549, -4.93006920e-03, -1.79709118e-02, -9.82962906e-04
    1550, -4.91062398e-03, -1.79832664e-02, -1.09944436e-03
    1551, -4.89117876e-03, -1.79956211e-02, -1.21592581e-03
    1552, -4.87173354e-03, -1.80079757e-02, -1.33240726e-03
    1553, -4.85228831e-03, -1.80203303e-02, -1.44888872e-03
    1554, -5.17997132e-03, -1.78121351e-02, -8.75000000e-04
    1555, -5.17997132e-03, -1.78121351e-02, -1.00000000e-03
    1556, -5.17997132e-03, -1.78121351e-02, -1.12500000e-03
    1557, -5.17997132e-03, -1.78121351e-02, -1.25000000e-03
    1558, -5.17997132e-03, -1.78121351e-02, -1.37500000e-03
    1559, -5.17997132e-03, -1.78121351e-02, -1.50000000e-03
    1560, -5.41042821e-03, -1.76657131e-02, -8.66481453e-04
    1561, -5.42987343e-03, -1.76533584e-02, -9.82962906e-04
    1562, -5.44931866e-03, -1.76410038e-02, -1.09944436e-03
    1563, -5.46876388e-03, -1.76286492e-02, -1.21592581e-03
    1564, -5.48820910e-03, -1.76162945e-02, -1.33240726e-03
    1565, -5.50765433e-03, -1.76039399e-02, -1.44888872e-03
    1566, -5.63716325e-03, -1.75216557e-02, -8.41506337e-04
    1567, -5.67233185e-03, -1.74993111e-02, -9.33012674e-04
    1568, -5.70750045e-03, -1.74769666e-02, -1.02451901e-03
    1569, -5.74266906e-03, -1.74546220e-02, -1.11602535e-03
    1570, -5.77783766e-03, -1.74322774e-02, -1.20753168e-03
    1571, -5.81300626e-03, -1.74099329e-02, -1.29903802e-03
    1572, -5.85670824e-03, -1.73821666e-02, -8.01776667e-04
    1573, -5.90041017e-03, -1.73544003e-02, -8.53553333e-04
    1574, -5.94411209e-03, -1.73266341e-02, -9.05330000e-04
    1575, -5.98781401e-03, -1.72988678e-02, -9.57106667e-04
    1576, -6.03151593e-03, -1.72711015e-02, -1.00888333e-03
    1577, -6.07521786e-03, -1.72433353e-02, -1.06066000e-03
    1578, -3.20609453e-03, -1.54588888e-02, -8.41506337e-04
    1579, -3.16905384e-03, -1.54779701e-02, -9.33012674e-04
    1580, -3.13201315e-03, -1.54970515e-02, -1.02451901e-03
    1581, -3.09497247e-03, -1.55161328e-02, -1.11602535e-03
    1582, -3.05793178e-03, -1.55352142e-02, -1.20753168e-03
    1583, -3.02089109e-03, -1.55542955e-02, -1.29903802e-03
    1584, -3.44489908e-03, -1.53358697e-02, -8.66481453e-04
    1585, -3.42441875e-03, -1.53464201e-02, -9.82962906e-04
    1586, -3.40393843e-03, -1.53569704e-02, -1.09944436e-03
    1587, -3.38345810e-03, -1.53675208e-02, -1.21592581e-03
    1588, -3.36297777e-03, -1.53780711e-02, -1.33240726e-03
    1589, -3.34249744e-03, -1.53886215e-02, -1.44888872e-03
    1590, -3.68762360e-03, -1.52108313e-02, -8.75000000e-04
    1591, -3.68762360e-03, -1.52108313e-02, -1.00000000e-03
    1592, -3.68762360e-03, -1.52108313e-02, -1.12500000e-03
    1593, -3.68762360e-03, -1.52108313e-02, -1.25000000e-03
    1594, -3.68762360e-03, -1.52108313e-02, -1.37500000e-03
    1595, -3.68762360e-03, -1.52108313e-02, -1.50000000e-03
    1596, -3.93034811e-03, -1.50857929e-02, -8.66481453e-04
    1597, -3.95082844e-03, -1.50752425e-02, -9.82962906e-04
    1598, -3.97130877e-03, -1.50646922e-02, -1.09944436e-03
    1599, -3.99178910e-03, -1.50541418e-02, -1.21592581e-03
    1600, -4.01226942e-03, -1.50435915e-02, -1.33240726e-03
    1601, -4.03274975e-03, -1.50330412e-02, -1.44888872e-03
    1602, -4.16915267e-03, -1.49627738e-02, -8.41506337e-04
    1603, -4.20619335e-03, -1.49436925e-02, -9.33012674e-04
    1604, -4.24323404e-03, -1.49246111e-02, -1.02451901e-03
    1605, -4.28027473e-03, -1.49055298e-02, -1.11602535e-03
    1606, -4.31731541e-03, -1.48864485e-02, -1.20753168e-03
    1607, -4.35435610e-03, -1.48673671e-02, -1.29903802e-03
    1608, -4.40038442e-03, -1.48436558e-02, -8.01776667e-04
    1609, -4.44641268e-03, -1.48199446e-02, -8.53553333e-04
    1610, -4.49244093e-03, -1.47962334e-02, -9.05330000e-04
    1611, -4.53846918e-03, -1.47725221e-02, -9.57106667e-04
    1612, -4.58449743e-03, -1.47488109e-02, -1.00888333e-03
    1613, -4.63052569e-03, -1.47250996e-02, -1.06066000e-03
    1614, -1.93405126e-03, -1.26891371e-02, -8.41506337e-04
    1615, -1.89544045e-03, -1.27047996e-02, -9.33012674e-04
    1616, -1.85682964e-03, -1.27204622e-02, -1.02451901e-03
    1617, -1.81821884e-03, -1.27361247e-02, -1.11602535e-03
    1618, -1.77960803e-03, -1.27517873e-02, -1.20753168e-03
    1619, -1.74099723e-03, -1.27674499e-02, -1.29903802e-03
    1620, -2.18297850e-03, -1.25881592e-02, -8.66481453e-04
    1621, -2.16163003e-03, -1.25968192e-02, -9.82962906e-04
    1622, -2.14028156e-03, -1.26054793e-02, -1.09944436e-03
    1623, -2.11893310e-03, -1.26141393e-02, -1.21592581e-03
    1624, -2.09758463e-03, -1.26227994e-02, -1.33240726e-03
    1625, -2.07623616e-03, -1.26314594e-02, -1.44888872e-03
    1626, -2.43599187e-03, -1.24855238e-02, -8.75000000e-04
    1627, -2.43599187e-03, -1.24855238e-02, -1.00000000e-03
    1628, -2.43599187e-03, -1.24855238e-02, -1.12500000e-03
    1629, -2.43599187e-03, -1.24855238e-02, -1.25000000e-03
    1630, -2.43599187e-03, -1.24855238e-02, -1.37500000e-03
    1631, -2.43599187e-03, -1.24855238e-02, -1.50000000e-03
    1632, -2.68900525e-03, -1.23828883e-02, -8.66481453e-04
    1633, -2.71035372e-03, -1.23742283e-02, -9.82962906e-04
    1634, -2.73170218e-03, -1.23655682e-02, -1.09944436e-03
    1635, -2.75305065e-03, -1.23569082e-02, -1.21592581e-03
    1636, -2.77439912e-03, -1.23482481e-02, -1.33240726e-03
    1637, -2.79574759e-03, -1.23395881e-02, -1.44888872e-03
    1638, -2.93793249e-03, -1.22819104e-02, -8.41506337e-04
    1639, -2.97654330e-03, -1.22662479e-02, -9.33012674e-04
    1640, -3.01515410e-03, -1.22505853e-02, -1.02451901e-03
    1641, -3.05376491e-03, -1.22349228e-02, -1.11602535e-03
    1642, -3.09237571e-03, -1.22192602e-02, -1.20753168e-03
    1643, -3.13098652e-03, -1.22035977e-02, -1.29903802e-03
    1644, -3.17896594e-03, -1.21841347e-02, -8.01776667e-04
    1645, -3.22694528e-03, -1.21646718e-02, -8.53553333e-04
    1646, -3.27492463e-03, -1.21452088e-02, -9.05330000e-04
    1647, -3.32290398e-03, -1.21257459e-02, -9.57106667e-04
    1648, -3.37088332e-03, -1.21062830e-02, -1.00888333e-03
    1649, -3.41886267e-03, -1.20868201e-02, -1.06066000e-03
    1650, -9.17019686e-04, -9.81593927e-03, -8.41506337e-04
    1651, -8.77153530e-04, -9.82805536e-03, -9.33012674e-04
    1652, -8.37287373e-04, -9.84017145e-03, -1.02451901e-03
    1653, -7.97421217e-04, -9.85228754e-03, -1.11602535e-03
    1654, -7.57555060e-04, -9.86440363e-03, -1.20753168e-03
    1655, -7.17688904e-04, -9.87651972e-03, -1.29903802e-03
    1656, -1.17404029e-03, -9.73782578e-03, -8.66481453e-04
    1657, -1.15199772e-03, -9.74452494e-03, -9.82962906e-04
    1658, -1.12995515e-03, -9.75122410e-03, -1.09944436e-03
    1659, -1.10791258e-03, -9.75792326e-03, -1.21592581e-03
    1660, -1.08587001e-03, -9.76462242e-03, -1.33240726e-03
    1661, -1.06382744e-03, -9.77132158e-03, -1.44888872e-03
    1662, -1.43527987e-03, -9.65843006e-03, -8.75000000e-04
    1663, -1.43527987e-03, -9.65843006e-03, -1.00000000e-03
    1664, -1.43527987e-03, -9.65843006e-03, -1.12500000e-03
    1665, -1.43527987e-03, -9.65843006e-03, -1.25000000e-03
    1666, -1.43527987e-03, -9.65843006e-03, -1.37500000e-03
    1667, -1.43527987e-03, -9.65843006e-03, -1.50000000e-03
    1668, -1.69651945e-03, -9.57903435e-03, -8.66481453e-04
    1669, -1.71856202e-03, -9.57233519e-03, -9.82962906e-04
    1670, -1.74060459e-03, -9.56563603e-03, -1.09944436e-03
    1671, -1.76264716e-03, -9.55893687e-03, -1.21592581e-03
    1672, -1.78468972e-03, -9.55223771e-03, -1.33240726e-03
    1673, -1.80673230e-03, -9.54553855e-03, -1.44888872e-03
    1674, -1.95354005e-03, -9.50092086e-03, -8.41506337e-04
    1675, -1.99340620e-03, -9.48880477e-03, -9.33012674e-04
    1676, -2.03327236e-03, -9.47668868e-03, -1.02451901e-03
    1677, -2.07313852e-03, -9.46457259e-03, -1.11602535e-03
    1678, -2.11300467e-03, -9.45245650e-03, -1.20753168e-03
    1679, -2.15287083e-03, -9.44034041e-03, -1.29903802e-03
    1680, -2.20241020e-03, -9.42528445e-03, -8.01776667e-04
    1681, -2.25194949e-03, -9.41022851e-03, -8.53553333e-04
    1682, -2.30148879e-03, -9.39517256e-03, -9.05330000e-04
    1683, -2.35102809e-03, -9.38011662e-03, -9.57106667e-04
    1684, -2.40056738e-03, -9.36506068e-03, -1.00888333e-03
    1685, -2.45010668e-03, -9.35000474e-03, -1.06066000e-03
    1686, -1.63290998e-04, -6.86271868e-03, -8.41506337e-04
    1687, -1.22494493e-04, -6.87118952e-03, -9.33012674e-04
    1688, -8.16979877e-05, -6.87966037e-03, -1.02451901e-03
    1689, -4.09014827e-05, -6.88813122e-03, -1.11602535e-03
    1690, -1.04977703e-07, -6.89660206e-03, -1.20753168e-03
    1691,  4.06915273e-05, -6.90507291e-03, -1.29903802e-03
    1692, -4.26309635e-04, -6.80810639e-03, -8.66481453e-04
    1693, -4.03752662e-04, -6.81279004e-03, -9.82962906e-04
    1694, -3.81195690e-04, -6.81747370e-03, -1.09944436e-03
    1695, -3.58638717e-04, -6.82215735e-03, -1.21592581e-03
    1696, -3.36081745e-04, -6.82684100e-03, -1.33240726e-03
    1697, -3.13524772e-04, -6.83152465e-03, -1.44888872e-03
    1698, -6.93645711e-04, -6.75259765e-03, -8.75000000e-04
    1699, -6.93645711e-04, -6.75259765e-03, -1.00000000e-03
    1700, -6.93645711e-04, -6.75259765e-03, -1.12500000e-03
    1701, -6.93645711e-04, -6.75259765e-03, -1.25000000e-03
    1702, -6.93645711e-04, -6.75259765e-03, -1.37500000e-03
    1703, -6.93645711e-04, -6.75259765e-03, -1.50000000e-03
    1704, -9.60981788e-04, -6.69708890e-03, -8.66481453e-04
    1705, -9.83538761e-04, -6.69240525e-03, -9.82962906e-04
    1706, -1.00609573e-03, -6.68772160e-03, -1.09944436e-03
    1707, -1.02865271e-03, -6.68303794e-03, -1.21592581e-03
    1708, -1.05120968e-03, -6.67835429e-03, -1.33240726e-03
    1709, -1.07376665e-03, -6.67367064e-03, -1.44888872e-03
    1710, -1.22400042e-03, -6.64247661e-03, -8.41506337e-04
    1711, -1.26479693e-03, -6.63400577e-03, -9.33012674e-04
    1712, -1.30559343e-03, -6.62553492e-03, -1.02451901e-03
    1713, -1.34638994e-03, -6.61706408e-03, -1.11602535e-03
    1714, -1.38718644e-03, -6.60859323e-03, -1.20753168e-03
    1715, -1.42798295e-03, -6.60012238e-03, -1.29903802e-03
    1716, -1.47867841e-03, -6.58959615e-03, -8.01776667e-04
    1717, -1.52937379e-03, -6.57906994e-03, -8.53553333e-04
    1718, -1.58006918e-03, -6.56854372e-03, -9.05330000e-04
    1719, -1.63076456e-03, -6.55801750e-03, -9.57106667e-04
    1720, -1.68145994e-03, -6.54749129e-03, -1.00888333e-03
    1721, -1.73215533e-03, -6.53696507e-03, -1.06066000e-03
    1722,  3.20990164e-04, -3.85355093e-03, -8.41506337e-04
    1723,  3.62384430e-04, -3.85830747e-03, -9.33012674e-04
    1724,  4.03778697e-04, -3.86306402e-03, -1.02451901e-03
    1725,  4.45172964e-04, -3.86782057e-03, -1.11602535e-03
    1726,  4.86567231e-04, -3.87257711e-03, -1.20753168e-03
    1727,  5.27961498e-04, -3.87733366e-03, -1.29903802e-03
    1728,  5.41177036e-05, -3.82288506e-03, -8.66481453e-04
    1729,  7.70051879e-05, -3.82551502e-03, -9.82962906e-04
    1730,  9.98926711e-05, -3.82814499e-03, -1.09944436e-03
    1731,  1.22780154e-04, -3.83077495e-03, -1.21592581e-03
    1732,  1.45667638e-04, -3.83340491e-03, -1.33240726e-03
    1733,  1.68555122e-04, -3.83603487e-03, -1.44888872e-03
    1734, -2.17135456e-04, -3.79171581e-03, -8.75000000e-04
    1735, -2.17135456e-04, -3.79171581e-03, -1.00000000e-03
    1736, -2.17135456e-04, -3.79171581e-03, -1.12500000e-03
    1737, -2.17135456e-04, -3.79171581e-03, -1.25000000e-03
    1738, -2.17135456e-04, -3.79171581e-03, -1.37500000e-03
    1739, -2.17135456e-04, -3.79171581e-03, -1.50000000e-03
    1740, -4.88388616e-04, -3.76054657e-03, -8.66481453e-04
    1741, -5.11276100e-04, -3.75791660e-03, -9.82962906e-04
    1742, -5.34163583e-04, -3.75528664e-03, -1.09944436e-03
    1743, -5.57051066e-04, -3.75265668e-03, -1.21592581e-03
    1744, -5.79938549e-04, -3.75002672e-03, -1.33240726e-03
    1745, -6.02826034e-04, -3.74739675e-03, -1.44888872e-03
    1746, -7.55261076e-04, -3.72988070e-03, -8.41506337e-04
    1747, -7.96655342e-04, -3.72512415e-03, -9.33012674e-04
    1748, -8.38049609e-04, -3.72036760e-03, -1.02451901e-03
    1749, -8.79443876e-04, -3.71561106e-03, -1.11602535e-03
    1750, -9.20838143e-04, -3.71085451e-03, -1.20753168e-03
    1751, -9.62232410e-04, -3.70609797e-03, -1.29903802e-03
    1752, -1.01367067e-03, -3.70018728e-03, -8.01776667e-04
    1753, -1.06510886e-03, -3.69427661e-03, -8.53553333e-04
    1754, -1.11654705e-03, -3.68836593e-03, -9.05330000e-04
    1755, -1.16798523e-03, -3.68245525e-03, -9.57106667e-04
    1756, -1.21942342e-03, -3.67654458e-03, -1.00888333e-03
    1757, -1.27086161e-03, -3.67063390e-03, -1.06066000e-03
    1758,  5.31875777e-04, -8.12967753e-04, -8.41506337e-04
    1759,  5.73530346e-04, -8.13971222e-04, -9.33012674e-04
    1760,  6.15184914e-04, -8.14974691e-04, -1.02451901e-03
    1761,  6.56839483e-04, -8.15978160e-04, -1.11602535e-03
    1762,  6.98494052e-04, -8.16981629e-04, -1.20753168e-03
    1763,  7.40148621e-04, -8.17985098e-04, -1.29903802e-03
    1764,  2.63325127e-04, -8.06498301e-04, -8.66481453e-04
    1765,  2.86356536e-04, -8.07053134e-04, -9.82962906e-04
    1766,  3.09387944e-04, -8.07607966e-04, -1.09944436e-03
    1767,  3.32419352e-04, -8.08162798e-04, -1.21592581e-03
    1768,  3.55450760e-04, -8.08717631e-04, -1.33240726e-03
    1769,  3.78482168e-04, -8.09272463e-04, -1.44888872e-03
    1770, -9.63377023e-06, -7.99922653e-04, -8.75000000e-04
    1771, -9.63377023e-06, -7.99922653e-04, -1.00000000e-03
    1772, -9.63377023e-06, -7.99922653e-04, -1.12500000e-03
    1773, -9.63377023e-06, -7.99922653e-04, -1.25000000e-03
    1774, -9.63377023e-06, -7.99922653e-04, -1.37500000e-03
    1775, -9.63377023e-06, -7.99922653e-04, -1.50000000e-03
    1776, -2.82592667e-04, -7.93347006e-04, -8.66481453e-04
    1777, -3.05624076e-04, -7.92792173e-04, -9.82962906e-04
    1778, -3.28655484e-04, -7.92237341e-04, -1.09944436e-03
    1779, -3.51686892e-04, -7.91682509e-04, -1.21592581e-03
    1780, -3.74718300e-04, -7.91127676e-04, -1.33240726e-03
    1781, -3.97749709e-04, -7.90572844e-04, -1.44888872e-03
    1782, -5.51143317e-04, -7.86877554e-04, -8.41506337e-04
    1783, -5.92797886e-04, -7.85874085e-04, -9.33012674e-04
    1784, -6.34452455e-04, -7.84870616e-04, -1.02451901e-03
    1785, -6.76107024e-04, -7.83867147e-04, -1.11602535e-03
    1786, -7.17761593e-04, -7.82863678e-04, -1.20753168e-03
    1787, -7.59416161e-04, -7.81860209e-04, -1.29903802e-03
    1788, -8.11177887e-04, -7.80613257e-04, -8.01776667e-04
    1789, -8.62939535e-04, -7.79366306e-04, -8.53553333e-04
    1790, -9.14701185e-04, -7.78119355e-04, -9.05330000e-04
    1791, -9.66462834e-04, -7.76872404e-04, -9.57106667e-04
    1792, -1.01822448e-03, -7.75625453e-04, -1.00888333e-03
    1793, -1.06998613e-03, -7.74378502e-04, -1.06066000e-03
    1794, -1.37908560e-02, -2.58986995e-02, -5.41666654e-04
    1795, -1.38457598e-02, -2.58254944e-02, -5.83333308e-04
    1796, -1.39006636e-02, -2.57522894e-02, -6.24999962e-04
    1797, -1.39555674e-02, -2.56790843e-02, -6.66666616e-04
    1798, -1.40104712e-02, -2.56058792e-02, -7.08333270e-04
    1799, -1.40653750e-02, -2.55326742e-02, -7.49999924e-04
    1800, -1.38058411e-02, -2.58787194e-02, -2.73038090e-04
    1801, -1.38757299e-02, -2.57855343e-02, -2.96076181e-04
    1802, -1.39456188e-02, -2.56923491e-02, -3.19114271e-04
    1803, -1.40155077e-02, -2.55991639e-02, -3.42152361e-04
    1804, -1.40853965e-02, -2.55059788e-02, -3.65190451e-04
    1805, -1.41552854e-02, -2.54127936e-02, -3.88228542e-04
    1806, -1.38109522e-02, -2.58719046e-02, -1.85037171e-20
    1807, -1.38859522e-02, -2.57719046e-02, -3.70074342e-20
    1808, -1.39609522e-02, -2.56719046e-02, -5.55111512e-20
    1809, -1.40359522e-02, -2.55719046e-02, -7.40148683e-20
    1810, -1.41109522e-02, -2.54719046e-02, -9.71445147e-20
    1811, -1.41859522e-02, -2.53719046e-02, -1.11022303e-19
    1812, -1.38058411e-02, -2.58787194e-02,  2.73038090e-04
    1813, -1.38757299e-02, -2.57855343e-02,  2.96076181e-04
    1814, -1.39456188e-02, -2.56923491e-02,  3.19114271e-04
    1815, -1.40155077e-02, -2.55991639e-02,  3.42152361e-04
    1816, -1.40853965e-02, -2.55059788e-02,  3.65190451e-04
    1817, -1.41552854e-02, -2.54127936e-02,  3.88228542e-04
    1818, -1.37908560e-02, -2.58986995e-02,  5.41666654e-04
    1819, -1.38457598e-02, -2.58254944e-02,  5.83333308e-04
    1820, -1.39006636e-02, -2.57522894e-02,  6.24999962e-04
    1821, -1.39555674e-02, -2.56790843e-02,  6.66666616e-04
    1822, -1.40104712e-02, -2.56058792e-02,  7.08333270e-04
    1823, -1.40653750e-02, -2.55326742e-02,  7.49999924e-04
    1824, -1.15340153e-02, -2.40411199e-02, -5.41666654e-04
    1825, -1.15952982e-02, -2.39731654e-02, -5.83333308e-04
    1826, -1.16565812e-02, -2.39052110e-02, -6.24999962e-04
    1827, -1.17178642e-02, -2.38372565e-02, -6.66666616e-04
    1828, -1.17791471e-02, -2.37693021e-02, -7.08333270e-04
    1829, -1.18404301e-02, -2.37013476e-02, -7.49999924e-04
    1830, -1.15507414e-02, -2.40225729e-02, -2.73038090e-04
    1831, -1.16287505e-02, -2.39360714e-02, -2.96076181e-04
    1832, -1.17067597e-02, -2.38495699e-02, -3.19114271e-04
    1833, -1.17847688e-02, -2.37630684e-02, -3.42152361e-04
    1834, -1.18627779e-02, -2.36765670e-02, -3.65190451e-04
    1835, -1.19407871e-02, -2.35900655e-02, -3.88228542e-04
    1836, -1.15564464e-02, -2.40162468e-02, -1.85037171e-20
    1837, -1.16401605e-02, -2.39234193e-02, -3.70074342e-20
    1838, -1.17238746e-02, -2.38305918e-02, -5.55111512e-20
    1839, -1.18075887e-02, -2.37377643e-02, -7.40148683e-20
    1840, -1.18913028e-02, -2.36449367e-02, -9.71445147e-20
    1841, -1.19750169e-02, -2.35521092e-02, -1.11022303e-19
    1842, -1.15507414e-02, -2.40225729e-02,  2.73038090e-04
    1843, -1.16287505e-02, -2.39360714e-02,  2.96076181e-04
    1844, -1.17067597e-02, -2.38495699e-02,  3.19114271e-04
    1845, -1.17847688e-02, -2.37630684e-02,  3.42152361e-04
    1846, -1.18627779e-02, -2.36765670e-02,  3.65190451e-04
    1847, -1.19407871e-02, -2.35900655e-02,  3.88228542e-04
    1848, -1.15340153e-02, -2.40411199e-02,  5.41666654e-04
    1849, -1.15952982e-02, -2.39731654e-02,  5.83333308e-04
    1850, -1.16565812e-02, -2.39052110e-02,  6.24999962e-04
    1851, -1.17178642e-02, -2.38372565e-02,  6.66666616e-04
    1852, -1.17791471e-02, -2.37693021e-02,  7.08333270e-04
    1853, -1.18404301e-02, -2.37013476e-02,  7.49999924e-04
    1854, -9.45392414e-03, -2.19875491e-02, -5.41666654e-04
    1855, -9.52108668e-03, -2.19253992e-02, -5.83333308e-04
    1856, -9.58824922e-03, -2.18632494e-02, -6.24999962e-04
    1857, -9.65541177e-03, -2.18010995e-02, -6.66666616e-04
    1858, -9.72257431e-03, -2.17389497e-02, -7.08333270e-04
    1859, -9.78973685e-03, -2.16767999e-02, -7.49999924e-04
    1860, -9.47225503e-03, -2.19705863e-02, -2.73038090e-04
    1861, -9.55774846e-03, -2.18914737e-02, -2.96076181e-04
    1862, -9.64324189e-03, -2.18123611e-02, -3.19114271e-04
    1863, -9.72873531e-03, -2.17332485e-02, -3.42152361e-04
    1864, -9.81422874e-03, -2.16541359e-02, -3.65190451e-04
    1865, -9.89972217e-03, -2.15750233e-02, -3.88228542e-04
    1866, -9.47850735e-03, -2.19648006e-02, -1.85037171e-20
    1867, -9.57025310e-03, -2.18799024e-02, -3.70074342e-20
    1868, -9.66199886e-03, -2.17950041e-02, -5.55111512e-20
    1869, -9.75374461e-03, -2.17101058e-02, -7.40148683e-20
    1870, -9.84549036e-03, -2.16252075e-02, -7.86407976e-20
    1871, -9.93723611e-03, -2.15403093e-02, -1.11022303e-19
    1872, -9.47225503e-03, -2.19705863e-02,  2.73038090e-04
    1873, -9.55774846e-03, -2.18914737e-02,  2.96076181e-04
    1874, -9.64324189e-03, -2.18123611e-02,  3.19114271e-04
    1875, -9.72873531e-03, -2.17332485e-02,  3.42152361e-04
    1876, -9.81422874e-03, -2.16541359e-02,  3.65190451e-04
    1877, -9.89972217e-03, -2.15750233e-02,  3.88228542e-04
    1878, -9.45392414e-03, -2.19875491e-02,  5.41666654e-04
    1879, -9.52108668e-03, -2.19253992e-02,  5.83333308e-04
    1880, -9.58824922e-03, -2.18632494e-02,  6.24999962e-04
    1881, -9.65541177e-03, -2.18010995e-02,  6.66666616e-04
    1882, -9.72257431e-03, -2.17389497e-02,  7.08333270e-04
    1883, -9.78973685e-03, -2.16767999e-02,  7.49999924e-04
    1884, -7.56754023e-03, -1.97547285e-02, -5.41666654e-04
    1885, -7.64003481e-03, -1.96988899e-02, -5.83333308e-04
    1886, -7.71252938e-03, -1.96430513e-02, -6.24999962e-04
    1887, -7.78502397e-03, -1.95872128e-02, -6.66666616e-04
    1888, -7.85751854e-03, -1.95313742e-02, -7.08333270e-04
    1889, -7.93001312e-03, -1.94755356e-02, -7.49999924e-04
    1890, -7.58732640e-03, -1.97394883e-02, -2.73038090e-04
    1891, -7.67960716e-03, -1.96684095e-02, -2.96076181e-04
    1892, -7.77188792e-03, -1.95973307e-02, -3.19114271e-04
    1893, -7.86416867e-03, -1.95262520e-02, -3.42152361e-04
    1894, -7.95644943e-03, -1.94551732e-02, -3.65190451e-04
    1895, -8.04873019e-03, -1.93840944e-02, -3.88228542e-04
    1896, -7.59407510e-03, -1.97342901e-02, -1.85037171e-20
    1897, -7.69310455e-03, -1.96580132e-02, -3.70074342e-20
    1898, -7.79213400e-03, -1.95817363e-02, -5.55111512e-20
    1899, -7.89116346e-03, -1.95054594e-02, -7.40148683e-20
    1900, -7.99019291e-03, -1.94291825e-02, -9.71445147e-20
    1901, -8.08922236e-03, -1.93529056e-02, -1.11022303e-19
    1902, -7.58732640e-03, -1.97394883e-02,  2.73038090e-04
    1903, -7.67960716e-03, -1.96684095e-02,  2.96076181e-04
    1904, -7.77188792e-03, -1.95973307e-02,  3.19114271e-04
    1905, -7.86416867e-03, -1.95262520e-02,  3.42152361e-04
    1906, -7.95644943e-03, -1.94551732e-02,  3.65190451e-04
    1907, -8.04873019e-03, -1.93840944e-02,  3.88228542e-04
    1908, -7.56754023e-03, -1.97547285e-02,  5.41666654e-04
    1909, -7.64003481e-03, -1.96988899e-02,  5.83333308e-04
    1910, -7.71252938e-03, -1.96430513e-02,  6.24999962e-04
    1911, -7.78502397e-03, -1.95872128e-02,  6.66666616e-04
    1912, -7.85751854e-03, -1.95313742e-02,  7.08333270e-04
    1913, -7.93001312e-03, -1.94755356e-02,  7.49999924e-04
    1914, -5.89024194e-03, -1.73608608e-02, -5.41666654e-04
    1915, -5.96747756e-03, -1.73117887e-02, -5.83333308e-04
    1916, -6.04471318e-03, -1.72627166e-02, -6.24999962e-04
    1917, -6.12194880e-03, -1.72136445e-02, -6.66666616e-04
    1918, -6.19918441e-03, -1.71645724e-02, -7.08333270e-04
    1919, -6.27642003e-03, -1.71155004e-02, -7.49999924e-04
    1920, -5.91132210e-03, -1.73474674e-02, -2.73038090e-04
    1921, -6.00963789e-03, -1.72850019e-02, -2.96076181e-04
    1922, -6.10795367e-03, -1.72225364e-02, -3.19114271e-04
    1923, -6.20626945e-03, -1.71600709e-02, -3.42152361e-04
    1924, -6.30458523e-03, -1.70976054e-02, -3.65190451e-04
    1925, -6.40290102e-03, -1.70351400e-02, -3.88228542e-04
    1926, -5.91851215e-03, -1.73428991e-02, -1.85037171e-20
    1927, -6.02401799e-03, -1.72758654e-02, -3.70074342e-20
    1928, -6.12952382e-03, -1.72088317e-02, -5.55111512e-20
    1929, -6.23502965e-03, -1.71417980e-02, -7.40148683e-20
    1930, -6.34053549e-03, -1.70747643e-02, -9.71445147e-20
    1931, -6.44604132e-03, -1.70077305e-02, -1.11022303e-19
    1932, -5.91132210e-03, -1.73474674e-02,  2.73038090e-04
    1933, -6.00963789e-03, -1.72850019e-02,  2.96076181e-04
    1934, -6.10795367e-03, -1.72225364e-02,  3.19114271e-04
    1935, -6.20626945e-03, -1.71600709e-02,  3.42152361e-04
    1936, -6.30458523e-03, -1.70976054e-02,  3.65190451e-04
    1937, -6.40290102e-03, -1.70351400e-02,  3.88228542e-04
    1938, -5.89024194e-03, -1.73608608e-02,  5.41666654e-04
    1939, -5.96747756e-03, -1.73117887e-02,  5.83333308e-04
    1940, -6.04471318e-03, -1.72627166e-02,  6.24999962e-04
    1941, -6.12194880e-03, -1.72136445e-02,  6.66666616e-04
    1942, -6.19918441e-03, -1.71645724e-02,  7.08333270e-04
    1943, -6.27642003e-03, -1.71155004e-02,  7.49999924e-04
    1944, -4.43570318e-03, -1.48254615e-02, -5.41666654e-04
    1945, -4.51705018e-03, -1.47835560e-02, -5.83333308e-04
    1946, -4.59839719e-03, -1.47416505e-02, -6.24999962e-04
    1947, -4.67974420e-03, -1.46997449e-02, -6.66666616e-04
    1948, -4.76109120e-03, -1.46578394e-02, -7.08333270e-04
    1949, -4.84243821e-03, -1.46159339e-02, -7.49999924e-04
    1950, -4.45790547e-03, -1.48140241e-02, -2.73038090e-04
    1951, -4.56145478e-03, -1.47606812e-02, -2.96076181e-04
    1952, -4.66500408e-03, -1.47073382e-02, -3.19114271e-04
    1953, -4.76855339e-03, -1.46539953e-02, -3.42152361e-04
    1954, -4.87210269e-03, -1.46006523e-02, -3.65190451e-04
    1955, -4.97565200e-03, -1.45473094e-02, -3.88228542e-04
    1956, -4.46547826e-03, -1.48101230e-02, -1.85037171e-20
    1957, -4.57660036e-03, -1.47528790e-02, -3.70074342e-20
    1958, -4.68772246e-03, -1.46956350e-02, -5.55111512e-20
    1959, -4.79884455e-03, -1.46383909e-02, -7.40148683e-20
    1960, -4.90996665e-03, -1.45811469e-02, -9.71445147e-20
    1961, -5.02108874e-03, -1.45239029e-02, -1.11022303e-19
    1962, -4.45790547e-03, -1.48140241e-02,  2.73038090e-04
    1963, -4.56145478e-03, -1.47606812e-02,  2.96076181e-04
    1964, -4.66500408e-03, -1.47073382e-02,  3.19114271e-04
    1965, -4.76855339e-03, -1.46539953e-02,  3.42152361e-04
    1966, -4.87210269e-03, -1.46006523e-02,  3.65190451e-04
    1967, -4.97565200e-03, -1.45473094e-02,  3.88228542e-04
    1968, -4.43570318e-03, -1.48254615e-02,  5.41666654e-04
    1969, -4.51705018e-03, -1.47835560e-02,  5.83333308e-04
    1970, -4.59839719e-03, -1.47416505e-02,  6.24999962e-04
    1971, -4.67974420e-03, -1.46997449e-02,  6.66666616e-04
    1972, -4.76109120e-03, -1.46578394e-02,  7.08333270e-04
    1973, -4.84243821e-03, -1.46159339e-02,  7.49999924e-04
    1974, -3.21578182e-03, -1.21692003e-02, -5.41666654e-04
    1975, -3.30057705e-03, -1.21348029e-02, -5.83333308e-04
    1976, -3.38537227e-03, -1.21004055e-02, -6.24999962e-04
    1977, -3.47016750e-03, -1.20660081e-02, -6.66666616e-04
    1978, -3.55496273e-03, -1.20316108e-02, -7.08333270e-04
    1979, -3.63975796e-03, -1.19972134e-02, -7.49999924e-04
    1980, -3.23892525e-03, -1.21598121e-02, -2.73038090e-04
    1981, -3.34686391e-03, -1.21160265e-02, -2.96076181e-04
    1982, -3.45480257e-03, -1.20722410e-02, -3.19114271e-04
    1983, -3.56274123e-03, -1.20284554e-02, -3.42152361e-04
    1984, -3.67067988e-03, -1.19846699e-02, -3.65190451e-04
    1985, -3.77861855e-03, -1.19408843e-02, -3.88228542e-04
    1986, -3.24681904e-03, -1.21566099e-02, -1.85037171e-20
    1987, -3.36265150e-03, -1.21096222e-02, -3.70074342e-20
    1988, -3.47848395e-03, -1.20626346e-02, -5.55111512e-20
    1989, -3.59431640e-03, -1.20156469e-02, -7.40148683e-20
    1990, -3.71014886e-03, -1.19686592e-02, -9.71445147e-20
    1991, -3.82598131e-03, -1.19216715e-02, -1.11022303e-19
    1992, -3.23892525e-03, -1.21598121e-02,  2.73038090e-04
    1993, -3.34686391e-03, -1.21160265e-02,  2.96076181e-04
    1994, -3.45480257e-03, -1.20722410e-02,  3.19114271e-04
    1995, -3.56274123e-03, -1.20284554e-02,  3.42152361e-04
    1996, -3.67067988e-03, -1.19846699e-02,  3.65190451e-04
    1997, -3.77861855e-03, -1.19408843e-02,  3.88228542e-04
    1998, -3.21578182e-03, -1.21692003e-02,  5.41666654e-04
    1999, -3.30057705e-03, -1.21348029e-02,  5.83333308e-04
    2000, -3.38537227e-03, -1.21004055e-02,  6.24999962e-04
    2001, -3.47016750e-03, -1.20660081e-02,  6.66666616e-04
    2002, -3.55496273e-03, -1.20316108e-02,  7.08333270e-04
    2003, -3.63975796e-03, -1.19972134e-02,  7.49999924e-04
    2004, -2.24042307e-03, -9.41373161e-03, -5.41666654e-04
    2005, -2.32797524e-03, -9.38712282e-03, -5.83333308e-04
    2006, -2.41552741e-03, -9.36051404e-03, -6.24999962e-04
    2007, -2.50307958e-03, -9.33390526e-03, -6.66666616e-04
    2008, -2.59063174e-03, -9.30729648e-03, -7.08333270e-04
    2009, -2.67818392e-03, -9.28068769e-03, -7.49999924e-04
    2010, -2.26431896e-03, -9.40646919e-03, -2.73038090e-04
    2011, -2.37576703e-03, -9.37259798e-03, -2.96076181e-04
    2012, -2.48721509e-03, -9.33872678e-03, -3.19114271e-04
    2013, -2.59866315e-03, -9.30485558e-03, -3.42152361e-04
    2014, -2.71011121e-03, -9.27098438e-03, -3.65190451e-04
    2015, -2.82155928e-03, -9.23711317e-03, -3.88228542e-04
    2016, -2.27246941e-03, -9.40399211e-03, -1.85037171e-20
    2017, -2.39206791e-03, -9.36764383e-03, -3.70074342e-20
    2018, -2.51166642e-03, -9.33129555e-03, -5.55111512e-20
    2019, -2.63126493e-03, -9.29494727e-03, -7.40148683e-20
    2020, -2.75086343e-03, -9.25859899e-03, -7.86407976e-20
    2021, -2.87046194e-03, -9.22225072e-03, -1.11022303e-19
    2022, -2.26431896e-03, -9.40646919e-03,  2.73038090e-04
    2023, -2.37576703e-03, -9.37259798e-03,  2.96076181e-04
    2024, -2.48721509e-03, -9.33872678e-03,  3.19114271e-04
    2025, -2.59866315e-03, -9.30485558e-03,  3.42152361e-04
    2026, -2.71011121e-03, -9.27098438e-03,  3.65190451e-04
    2027, -2.82155928e-03, -9.23711317e-03,  3.88228542e-04
    2028, -2.24042307e-03, -9.41373161e-03,  5.41666654e-04
    2029, -2.32797524e-03, -9.38712282e-03,  5.83333308e-04
    2030, -2.41552741e-03, -9.36051404e-03,  6.24999962e-04
    2031, -2.50307958e-03, -9.33390526e-03,  6.66666616e-04
    2032, -2.59063174e-03, -9.30729648e-03,  7.08333270e-04
    2033, -2.67818392e-03, -9.28068769e-03,  7.49999924e-04
    2034, -1.51757838e-03, -6.58151909e-03, -5.41666654e-04
    2035, -1.60717374e-03, -6.56291582e-03, -5.83333308e-04
    2036, -1.69676909e-03, -6.54431255e-03, -6.24999962e-04
    2037, -1.78636445e-03, -6.52570928e-03, -6.66666616e-04
    2038, -1.87595980e-03, -6.50710601e-03, -7.08333270e-04
    2039, -1.96555516e-03, -6.48850273e-03, -7.49999924e-04
    2040, -1.54203193e-03, -6.57644164e-03, -2.73038090e-04
    2041, -1.65608083e-03, -6.55276092e-03, -2.96076181e-04
    2042, -1.77012973e-03, -6.52908020e-03, -3.19114271e-04
    2043, -1.88417863e-03, -6.50539948e-03, -3.42152361e-04
    2044, -1.99822753e-03, -6.48171875e-03, -3.65190451e-04
    2045, -2.11227644e-03, -6.45803803e-03, -3.88228542e-04
    2046, -1.55037258e-03, -6.57470982e-03, -1.85037171e-20
    2047, -1.67276213e-03, -6.54929727e-03, -3.70074342e-20
    2048, -1.79515168e-03, -6.52388473e-03, -5.55111512e-20
    2049, -1.91754123e-03, -6.49847218e-03, -7.40148683e-20
    2050, -2.03993079e-03, -6.47305963e-03, -9.71445147e-20
    2051, -2.16232034e-03, -6.44764709e-03, -1.11022303e-19
    2052, -1.54203193e-03, -6.57644164e-03,  2.73038090e-04
    2053, -1.65608083e-03, -6.55276092e-03,  2.96076181e-04
    2054, -1.77012973e-03, -6.52908020e-03,  3.19114271e-04
    2055, -1.88417863e-03, -6.50539948e-03,  3.42152361e-04
    2056, -1.99822753e-03, -6.48171875e-03,  3.65190451e-04
    2057, -2.11227644e-03, -6.45803803e-03,  3.88228542e-04
    2058, -1.51757838e-03, -6.58151909e-03,  5.41666654e-04
    2059, -1.60717374e-03, -6.56291582e-03,  5.83333308e-04
    2060, -1.69676909e-03, -6.54431255e-03,  6.24999962e-04
    2061, -1.78636445e-03, -6.52570928e-03,  6.66666616e-04
    2062, -1.87595980e-03, -6.50710601e-03,  7.08333270e-04
    2063, -1.96555516e-03, -6.48850273e-03,  7.49999924e-04
    2064, -1.05314062e-03, -3.69565186e-03, -5.41666654e-04
    2065, -1.14404875e-03, -3.68520575e-03, -5.83333308e-04
    2066, -1.23495688e-03, -3.67475965e-03, -6.24999962e-04
    2067, -1.32586502e-03, -3.66431355e-03, -6.66666616e-04
    2068, -1.41677315e-03, -3.65386745e-03, -7.08333270e-04
    2069, -1.50768128e-03, -3.64342135e-03, -7.49999924e-04
    2070, -1.07795246e-03, -3.69280077e-03, -2.73038090e-04
    2071, -1.19367244e-03, -3.67950358e-03, -2.96076181e-04
    2072, -1.30939242e-03, -3.66620639e-03, -3.19114271e-04
    2073, -1.42511240e-03, -3.65290920e-03, -3.42152361e-04
    2074, -1.54083238e-03, -3.63961201e-03, -3.65190451e-04
    2075, -1.65655236e-03, -3.62631482e-03, -3.88228542e-04
    2076, -1.08641532e-03, -3.69182831e-03, -1.85037171e-20
    2077, -1.21059816e-03, -3.67755867e-03, -3.70074342e-20
    2078, -1.33478100e-03, -3.66328903e-03, -5.55111512e-20
    2079, -1.45896384e-03, -3.64901939e-03, -7.40148683e-20
    2080, -1.58314668e-03, -3.63474974e-03, -7.40148683e-20
    2081, -1.70732951e-03, -3.62048010e-03, -1.11022303e-19
    2082, -1.07795246e-03, -3.69280077e-03,  2.73038090e-04
    2083, -1.19367244e-03, -3.67950358e-03,  2.96076181e-04
    2084, -1.30939242e-03, -3.66620639e-03,  3.19114271e-04
    2085, -1.42511240e-03, -3.65290920e-03,  3.42152361e-04
    2086, -1.54083238e-03, -3.63961201e-03,  3.65190451e-04
    2087, -1.65655236e-03, -3.62631482e-03,  3.88228542e-04
    2088, -1.05314062e-03, -3.69565186e-03,  5.41666654e-04
    2089, -1.14404875e-03, -3.68520575e-03,  5.83333308e-04
    2090, -1.23495688e-03, -3.67475965e-03,  6.24999962e-04
    2091, -1.32586502e-03, -3.66431355e-03,  6.66666616e-04
    2092, -1.41677315e-03, -3.65386745e-03,  7.08333270e-04
    2093, -1.50768128e-03, -3.64342135e-03,  7.49999924e-04
    2094, -8.50896034e-04, -7.79656437e-04, -5.41666654e-04
    2095, -9.42375830e-04, -7.77452666e-04, -5.83333308e-04
    2096, -1.03385562e-03, -7.75248895e-04, -6.24999962e-04
    2097, -1.12533542e-03, -7.73045123e-04, -6.66666616e-04
    2098, -1.21681521e-03, -7.70841353e-04, -7.08333270e-04
    2099, -1.30829501e-03, -7.68637581e-04, -7.49999924e-04
    2100, -8.75863906e-04, -7.79054954e-04, -2.73038090e-04
    2101, -9.92311574e-04, -7.76249701e-04, -2.96076181e-04
    2102, -1.10875924e-03, -7.73444448e-04, -3.19114271e-04
    2103, -1.22520691e-03, -7.70639195e-04, -3.42152361e-04
    2104, -1.34165457e-03, -7.67833941e-04, -3.65190451e-04
    2105, -1.45810225e-03, -7.65028688e-04, -3.88228542e-04
    2106, -8.84379982e-04, -7.78849800e-04, -1.85037171e-20
    2107, -1.00934373e-03, -7.75839392e-04, -3.70074342e-20
    2108, -1.13430747e-03, -7.72828985e-04, -5.55111512e-20
    2109, -1.25927122e-03, -7.69818577e-04, -7.40148683e-20
    2110, -1.38423496e-03, -7.66808169e-04, -9.71445147e-20
    2111, -1.50919870e-03, -7.63797762e-04, -1.11022303e-19
    2112, -8.75863906e-04, -7.79054954e-04,  2.73038090e-04
    2113, -9.92311574e-04, -7.76249701e-04,  2.96076181e-04
    2114, -1.10875924e-03, -7.73444448e-04,  3.19114271e-04
    2115, -1.22520691e-03, -7.70639195e-04,  3.42152361e-04
    2116, -1.34165457e-03, -7.67833941e-04,  3.65190451e-04
    2117, -1.45810225e-03, -7.65028688e-04,  3.88228542e-04
    2118, -8.50896034e-04, -7.79656437e-04,  5.41666654e-04
    2119, -9.42375830e-04, -7.77452666e-04,  5.83333308e-04
    2120, -1.03385562e-03, -7.75248895e-04,  6.24999962e-04
    2121, -1.12533542e-03, -7.73045123e-04,  6.66666616e-04
    2122, -1.21681521e-03, -7.70841353e-04,  7.08333270e-04
    2123, -1.30829501e-03, -7.68637581e-04,  7.49999924e-04
    2124, -1.39329550e-02, -2.57092342e-02,  1.07833800e-03
    2125, -1.39435618e-02, -2.56950918e-02,  1.09601600e-03
    2126, -1.37434522e-02, -2.59619045e-02,  1.32068882e-03
    2127, -1.37509523e-02, -2.59519044e-02,  1.34233962e-03
    2128, -1.35227716e-02, -2.62561453e-02,  1.47303691e-03
    2129, -1.35266539e-02, -2.62509689e-02,  1.49718509e-03
    2130, -1.32859522e-02, -2.65719046e-02,  1.52500000e-03
    2131, -1.32859522e-02, -2.65719046e-02,  1.55000000e-03
    2132, -1.30491327e-02, -2.68876638e-02,  1.47303691e-03
    2133, -1.30452504e-02, -2.68928403e-02,  1.49718509e-03
    2134, -1.28284521e-02, -2.71819046e-02,  1.32068882e-03
    2135, -1.28209521e-02, -2.71919048e-02,  1.34233962e-03
    2136, -1.26389494e-02, -2.74345750e-02,  1.07833800e-03
    2137, -1.26283426e-02, -2.74487174e-02,  1.09601600e-03
    2138, -1.16926245e-02, -2.38652439e-02,  1.07833800e-03
    2139, -1.17044637e-02, -2.38521159e-02,  1.09601600e-03
    2140, -1.14811037e-02, -2.40997915e-02,  1.32068882e-03
    2141, -1.14894753e-02, -2.40905087e-02,  1.34233962e-03
    2142, -1.12347827e-02, -2.43729280e-02,  1.47303691e-03
    2143, -1.12391161e-02, -2.43681228e-02,  1.49718509e-03
    2144, -1.09704476e-02, -2.46660394e-02,  1.52500000e-03
    2145, -1.09704476e-02, -2.46660394e-02,  1.55000000e-03
    2146, -1.07061126e-02, -2.49591509e-02,  1.47303691e-03
    2147, -1.07017792e-02, -2.49639561e-02,  1.49718509e-03
    2148, -1.04597915e-02, -2.52322873e-02,  1.32068882e-03
    2149, -1.04514200e-02, -2.52415702e-02,  1.34233962e-03
    2150, -1.02482708e-02, -2.54668350e-02,  1.07833800e-03
    2151, -1.02364316e-02, -2.54799630e-02,  1.09601600e-03
    2152, -9.62775053e-03, -2.18266963e-02,  1.07833800e-03
    2153, -9.64072559e-03, -2.18146896e-02,  1.09601600e-03
    2154, -9.39593623e-03, -2.20412090e-02,  1.32068882e-03
    2155, -9.40511091e-03, -2.20327191e-02,  1.34233962e-03
    2156, -9.12598279e-03, -2.22910144e-02,  1.47303691e-03
    2157, -9.13073194e-03, -2.22866197e-02,  1.49718509e-03
    2158, -8.83628709e-03, -2.25590886e-02,  1.52500000e-03
    2159, -8.83628709e-03, -2.25590886e-02,  1.55000000e-03
    2160, -8.54659139e-03, -2.28271627e-02,  1.47303691e-03
    2161, -8.54184224e-03, -2.28315574e-02,  1.49718509e-03
    2162, -8.27663795e-03, -2.30769681e-02,  1.32068882e-03
    2163, -8.26746327e-03, -2.30854580e-02,  1.34233962e-03
    2164, -8.04482364e-03, -2.32914808e-02,  1.07833800e-03
    2165, -8.03184859e-03, -2.33034875e-02,  1.09601600e-03
    2166, -7.75516671e-03, -1.96102102e-02,  1.07833800e-03
    2167, -7.76917185e-03, -1.95994228e-02,  1.09601600e-03
    2168, -7.50494865e-03, -1.98029393e-02,  1.32068882e-03
    2169, -7.51485171e-03, -1.97953115e-02,  1.34233962e-03
    2170, -7.21356359e-03, -2.00273771e-02,  1.47303691e-03
    2171, -7.21868977e-03, -2.00234287e-02,  1.49718509e-03
    2172, -6.90086893e-03, -2.02682285e-02,  1.52500000e-03
    2173, -6.90086893e-03, -2.02682285e-02,  1.55000000e-03
    2174, -6.58817426e-03, -2.05090799e-02,  1.47303691e-03
    2175, -6.58304808e-03, -2.05130283e-02,  1.49718509e-03
    2176, -6.29678920e-03, -2.07335177e-02,  1.32068882e-03
    2177, -6.28688614e-03, -2.07411455e-02,  1.34233962e-03
    2178, -6.04657114e-03, -2.09262469e-02,  1.07833800e-03
    2179, -6.03256600e-03, -2.09370342e-02,  1.09601600e-03
    2180, -6.09013892e-03, -1.72338551e-02,  1.07833800e-03
    2181, -6.10505997e-03, -1.72243749e-02,  1.09601600e-03
    2182, -5.82355696e-03, -1.74032294e-02,  1.32068882e-03
    2183, -5.83410767e-03, -1.73965260e-02,  1.34233962e-03
    2184, -5.51311575e-03, -1.76004700e-02,  1.47303691e-03
    2185, -5.51857718e-03, -1.75970000e-02,  1.49718509e-03
    2186, -5.17997132e-03, -1.78121351e-02,  1.52500000e-03
    2187, -5.17997132e-03, -1.78121351e-02,  1.55000000e-03
    2188, -4.84682689e-03, -1.80238003e-02,  1.47303691e-03
    2189, -4.84136546e-03, -1.80272702e-02,  1.49718509e-03
    2190, -4.53638567e-03, -1.82210408e-02,  1.32068882e-03
    2191, -4.52583497e-03, -1.82277443e-02,  1.34233962e-03
    2192, -4.26980372e-03, -1.83904152e-02,  1.07833800e-03
    2193, -4.25488266e-03, -1.83998953e-02,  1.09601600e-03
    2194, -4.64624102e-03, -1.47170039e-02,  1.07833800e-03
    2195, -4.66195635e-03, -1.47089083e-02,  1.09601600e-03
    2196, -4.36546844e-03, -1.48616426e-02,  1.32068882e-03
    2197, -4.37658078e-03, -1.48559182e-02,  1.34233962e-03
    2198, -4.03850190e-03, -1.50300780e-02,  1.47303691e-03
    2199, -4.04425404e-03, -1.50271148e-02,  1.49718509e-03
    2200, -3.68762360e-03, -1.52108313e-02,  1.52500000e-03
    2201, -3.68762360e-03, -1.52108313e-02,  1.55000000e-03
    2202, -3.33674530e-03, -1.53915847e-02,  1.47303691e-03
    2203, -3.33099315e-03, -1.53945479e-02,  1.49718509e-03
    2204, -3.00977875e-03, -1.55600200e-02,  1.32068882e-03
    2205, -2.99866641e-03, -1.55657444e-02,  1.34233962e-03
    2206, -2.72900617e-03, -1.57046587e-02,  1.07833800e-03
    2207, -2.71329084e-03, -1.57127544e-02,  1.09601600e-03
    2208, -3.43524416e-03, -1.20801749e-02,  1.07833800e-03
    2209, -3.45162565e-03, -1.20735297e-02,  1.09601600e-03
    2210, -3.14256990e-03, -1.21988988e-02,  1.32068882e-03
    2211, -3.15415328e-03, -1.21942000e-02,  1.34233962e-03
    2212, -2.80174356e-03, -1.23371558e-02,  1.47303691e-03
    2213, -2.80773954e-03, -1.23347235e-02,  1.49718509e-03
    2214, -2.43599187e-03, -1.24855238e-02,  1.52500000e-03
    2215, -2.43599187e-03, -1.24855238e-02,  1.55000000e-03
    2216, -2.07024018e-03, -1.26338917e-02,  1.47303691e-03
    2217, -2.06424421e-03, -1.26363240e-02,  1.49718509e-03
    2218, -1.72941385e-03, -1.27721487e-02,  1.32068882e-03
    2219, -1.71783046e-03, -1.27768475e-02,  1.34233962e-03
    2220, -1.43673959e-03, -1.28908726e-02,  1.07833800e-03
    2221, -1.42035810e-03, -1.28975178e-02,  1.09601600e-03
    2222, -2.46702078e-03, -9.34486422e-03,  1.07833800e-03
    2223, -2.48393487e-03, -9.33972370e-03,  1.09601600e-03
    2224, -2.16483082e-03, -9.43670554e-03,  1.32068882e-03
    2225, -2.17679081e-03, -9.43307067e-03,  1.34233962e-03
    2226, -1.81292322e-03, -9.54365701e-03,  1.47303691e-03
    2227, -1.81911414e-03, -9.54177547e-03,  1.49718509e-03
    2228, -1.43527987e-03, -9.65843006e-03,  1.52500000e-03
    2229, -1.43527987e-03, -9.65843006e-03,  1.55000000e-03
    2230, -1.05763652e-03, -9.77320312e-03,  1.47303691e-03
    2231, -1.05144559e-03, -9.77508466e-03,  1.49718509e-03
    2232, -7.05728914e-04, -9.88015459e-03,  1.32068882e-03
    2233, -6.93768922e-04, -9.88378946e-03,  1.34233962e-03
    2234, -4.03538957e-04, -9.97199591e-03,  1.07833800e-03
    2235, -3.86624858e-04, -9.97713643e-03,  1.09601600e-03
    2236, -1.74946415e-03, -6.53337113e-03,  1.07833800e-03
    2237, -1.76677297e-03, -6.52977719e-03,  1.09601600e-03
    2238, -1.44022205e-03, -6.59758110e-03,  1.32068882e-03
    2239, -1.45246115e-03, -6.59503981e-03,  1.34233962e-03
    2240, -1.08010205e-03, -6.67235518e-03,  1.47303691e-03
    2241, -1.08643745e-03, -6.67103972e-03,  1.49718509e-03
    2242, -6.93645711e-04, -6.75259765e-03,  1.52500000e-03
    2243, -6.93645711e-04, -6.75259765e-03,  1.55000000e-03
    2244, -3.07189374e-04, -6.83284011e-03,  1.47303691e-03
    2245, -3.00853976e-04, -6.83415557e-03,  1.49718509e-03
    2246,  5.29306254e-05, -6.90761419e-03,  1.32068882e-03
    2247,  6.51697246e-05, -6.91015548e-03,  1.34233962e-03
    2248,  3.62172728e-04, -6.97182416e-03,  1.07833800e-03
    2249,  3.79481548e-04, -6.97541811e-03,  1.09601600e-03
    2250, -1.28842404e-03, -3.66861583e-03,  1.07833800e-03
    2251, -1.30598648e-03, -3.66659776e-03,  1.09601600e-03
    2252, -9.74650839e-04, -3.70467099e-03,  1.32068882e-03
    2253, -9.87069268e-04, -3.70324400e-03,  1.34233962e-03
    2254, -6.09254260e-04, -3.74665810e-03,  1.47303691e-03
    2255, -6.15682486e-04, -3.74591944e-03,  1.49718509e-03
    2256, -2.17135456e-04, -3.79171581e-03,  1.52500000e-03
    2257, -2.17135456e-04, -3.79171581e-03,  1.55000000e-03
    2258,  1.74983348e-04, -3.83677353e-03,  1.47303691e-03
    2259,  1.81411574e-04, -3.83751219e-03,  1.49718509e-03
    2260,  5.40379927e-04, -3.87876064e-03,  1.32068882e-03
    2261,  5.52798356e-04, -3.88018762e-03,  1.34233962e-03
    2262,  8.54153131e-04, -3.91481579e-03,  1.07833800e-03
    2263,  8.71715565e-04, -3.91683386e-03,  1.09601600e-03
    2264, -1.08765900e-03, -7.73952758e-04,  1.07833800e-03
    2265, -1.10533188e-03, -7.73527014e-04,  1.09601600e-03
    2266, -7.71912682e-04, -7.81559165e-04,  1.32068882e-03
    2267, -7.84409203e-04, -7.81258121e-04,  1.34233962e-03
    2268, -4.04218358e-04, -7.90417013e-04,  1.47303691e-03
    2269, -4.10687007e-04, -7.90261181e-04,  1.49718509e-03
    2270, -9.63377023e-06, -7.99922653e-04,  1.52500000e-03
    2271, -9.63377023e-06, -7.99922653e-04,  1.55000000e-03
    2272,  3.84950818e-04, -8.09428294e-04,  1.47303691e-03
    2273,  3.91419467e-04, -8.09584126e-04,  1.49718509e-03
    2274,  7.52645141e-04, -8.18286142e-04,  1.32068882e-03
    2275,  7.65141663e-04, -8.18587186e-04,  1.34233962e-03
    2276,  1.06839146e-03, -8.25892549e-04,  1.07833800e-03
    2277,  1.08606434e-03, -8.26318293e-04,  1.09601600e-03
    2278, -1.24935389e-02, -2.76284556e-02,  7.62500070e-04
    2279, -1.24805484e-02, -2.76457763e-02,  7.75000217e-04
    2280, -1.24021300e-02, -2.77503341e-02,  3.94699068e-04
    2281, -1.23876411e-02, -2.77696526e-02,  4.01169594e-04
    2282, -1.23709522e-02, -2.77919046e-02,  5.55111512e-20
    2283, -1.23559522e-02, -2.78119046e-02,  0.00000000e+00
    2284, -1.24021300e-02, -2.77503341e-02, -3.94699068e-04
    2285, -1.23876411e-02, -2.77696526e-02, -4.01169594e-04
    2286, -1.24935389e-02, -2.76284556e-02, -7.62500070e-04
    2287, -1.24805484e-02, -2.76457763e-02, -7.75000217e-04
    2288, -1.26389494e-02, -2.74345750e-02, -1.07833800e-03
    2289, -1.26283426e-02, -2.74487174e-02, -1.09601600e-03
    2290, -1.00859653e-02, -2.56468096e-02,  7.62500070e-04
    2291, -1.00714655e-02, -2.56628879e-02,  7.75000217e-04
    2292, -9.98393586e-03, -2.57599463e-02,  3.94699068e-04
    2293, -9.96776351e-03, -2.57778792e-02,  4.01169594e-04
    2294, -9.94913551e-03, -2.57985351e-02,  5.55111512e-20
    2295, -9.93239269e-03, -2.58171007e-02,  0.00000000e+00
    2296, -9.98393586e-03, -2.57599463e-02, -3.94699068e-04
    2297, -9.96776351e-03, -2.57778792e-02, -4.01169594e-04
    2298, -1.00859653e-02, -2.56468096e-02, -7.62500070e-04
    2299, -1.00714655e-02, -2.56628879e-02, -7.75000217e-04
    2300, -1.02482708e-02, -2.54668350e-02, -1.07833800e-03
    2301, -1.02364316e-02, -2.54799630e-02, -1.09601600e-03
    2302, -7.86694638e-03, -2.34560822e-02,  7.62500070e-04
    2303, -7.85105543e-03, -2.34707871e-02,  7.75000217e-04
    2304, -7.75512806e-03, -2.35595549e-02,  3.94699068e-04
    2305, -7.73740411e-03, -2.35759560e-02,  4.01169594e-04
    2306, -7.71698891e-03, -2.35948475e-02,  5.55111512e-20
    2307, -7.69863976e-03, -2.36118272e-02,  0.00000000e+00
    2308, -7.75512806e-03, -2.35595549e-02, -3.94699068e-04
    2309, -7.73740411e-03, -2.35759560e-02, -4.01169594e-04
    2310, -7.86694638e-03, -2.34560822e-02, -7.62500070e-04
    2311, -7.85105543e-03, -2.34707871e-02, -7.75000217e-04
    2312, -8.04482364e-03, -2.32914808e-02, -1.07833800e-03
    2313, -8.03184859e-03, -2.33034875e-02, -1.09601600e-03
    2314, -5.85457219e-03, -2.10741330e-02,  7.62500070e-04
    2315, -5.83741966e-03, -2.10873447e-02,  7.75000217e-04
    2316, -5.73387661e-03, -2.11670982e-02,  3.94699068e-04
    2317, -5.71474556e-03, -2.11818338e-02,  4.01169594e-04
    2318, -5.69270960e-03, -2.11988068e-02,  5.55111512e-20
    2319, -5.67290370e-03, -2.12140622e-02,  0.00000000e+00
    2320, -5.73387661e-03, -2.11670982e-02, -3.94699068e-04
    2321, -5.71474556e-03, -2.11818338e-02, -4.01169594e-04
    2322, -5.85457219e-03, -2.10741330e-02, -7.62500070e-04
    2323, -5.83741966e-03, -2.10873447e-02, -7.75000217e-04
    2324, -6.04657114e-03, -2.09262469e-02, -1.07833800e-03
    2325, -6.03256600e-03, -2.09370342e-02, -1.09601600e-03
    2326, -4.06524832e-03, -1.85203806e-02,  7.62500070e-04
    2327, -4.04697403e-03, -1.85319912e-02,  7.75000217e-04
    2328, -3.93665942e-03, -1.86020802e-02,  3.94699068e-04
    2329, -3.91627723e-03, -1.86150302e-02,  4.01169594e-04
    2330, -3.89280015e-03, -1.86299465e-02,  5.55111512e-20
    2331, -3.87169898e-03, -1.86433532e-02,  0.00000000e+00
    2332, -3.93665942e-03, -1.86020802e-02, -3.94699068e-04
    2333, -3.91627723e-03, -1.86150302e-02, -4.01169594e-04
    2334, -4.06524832e-03, -1.85203806e-02, -7.62500070e-04
    2335, -4.04697403e-03, -1.85319912e-02, -7.75000217e-04
    2336, -4.26980372e-03, -1.83904152e-02, -1.07833800e-03
    2337, -4.25488266e-03, -1.83998953e-02, -1.09601600e-03
    2338, -2.51356192e-03, -1.58156438e-02,  7.62500070e-04
    2339, -2.49431487e-03, -1.58255588e-02,  7.75000217e-04
    2340, -2.37812801e-03, -1.58854120e-02,  3.94699068e-04
    2341, -2.35666084e-03, -1.58964707e-02,  4.01169594e-04
    2342, -2.33193403e-03, -1.59092086e-02,  5.55111512e-20
    2343, -2.30970961e-03, -1.59206574e-02,  0.00000000e+00
    2344, -2.37812801e-03, -1.58854120e-02, -3.94699068e-04
    2345, -2.35666084e-03, -1.58964707e-02, -4.01169594e-04
    2346, -2.51356192e-03, -1.58156438e-02, -7.62500070e-04
    2347, -2.49431487e-03, -1.58255588e-02, -7.75000217e-04
    2348, -2.72900617e-03, -1.57046587e-02, -1.07833800e-03
    2349, -2.71329084e-03, -1.57127544e-02, -1.09601600e-03
    2350, -1.21216287e-03, -1.29819727e-02,  7.62500070e-04
    2351, -1.19209995e-03, -1.29901112e-02,  7.75000217e-04
    2352, -1.07098805e-03, -1.30392405e-02,  3.94699068e-04
    2353, -1.04861090e-03, -1.30483179e-02,  4.01169594e-04
    2354, -1.02283595e-03, -1.30587736e-02,  5.55111512e-20
    2355, -9.99669458e-04, -1.30681711e-02,  0.00000000e+00
    2356, -1.07098805e-03, -1.30392405e-02, -3.94699068e-04
    2357, -1.04861090e-03, -1.30483179e-02, -4.01169594e-04
    2358, -1.21216287e-03, -1.29819727e-02, -7.62500070e-04
    2359, -1.19209995e-03, -1.29901112e-02, -7.75000217e-04
    2360, -1.43673959e-03, -1.28908726e-02, -1.07833800e-03
    2361, -1.42035810e-03, -1.28975178e-02, -1.09601600e-03
    2362, -1.71660589e-04, -1.00424682e-02,  7.62500070e-04
    2363, -1.50945363e-04, -1.00487639e-02,  7.75000217e-04
    2364, -2.58957580e-05, -1.00867689e-02,  3.94699068e-04
    2365, -2.79106797e-06, -1.00937909e-02,  4.01169594e-04
    2366,  2.38219054e-05, -1.01018791e-02,  5.55111512e-20
    2367,  4.77416066e-05, -1.01091487e-02,  0.00000000e+00
    2368, -2.58957580e-05, -1.00867689e-02, -3.94699068e-04
    2369, -2.79106797e-06, -1.00937909e-02, -4.01169594e-04
    2370, -1.71660589e-04, -1.00424682e-02, -7.62500070e-04
    2371, -1.50945363e-04, -1.00487639e-02, -7.75000217e-04
    2372, -4.03538957e-04, -9.97199591e-03, -1.07833800e-03
    2373, -3.86624858e-04, -9.97713643e-03, -1.09601600e-03
    2374,  5.99462395e-04, -7.02109417e-03,  7.62500070e-04
    2375,  6.20661048e-04, -7.02549579e-03,  7.75000217e-04
    2376,  7.48628911e-04, -7.05206660e-03,  3.94699068e-04
    2377,  7.72272790e-04, -7.05697593e-03,  4.01169594e-04
    2378,  7.99506825e-04, -7.06263071e-03,  5.55111512e-20
    2379,  8.23984736e-04, -7.06771322e-03,  0.00000000e+00
    2380,  7.48628911e-04, -7.05206660e-03, -3.94699068e-04
    2381,  7.72272790e-04, -7.05697593e-03, -4.01169594e-04
    2382,  5.99462395e-04, -7.02109417e-03, -7.62500070e-04
    2383,  6.20661048e-04, -7.02549579e-03, -7.75000217e-04
    2384,  3.62172728e-04, -6.97182416e-03, -1.07833800e-03
    2385,  3.79481548e-04, -6.97541811e-03, -1.09601600e-03
    2386,  1.09491963e-03, -3.94248187e-03,  7.62500070e-04
    2387,  1.11642889e-03, -3.94495346e-03,  7.75000217e-04
    2388,  1.24627178e-03, -3.95987349e-03,  3.94699068e-04
    2389,  1.27026209e-03, -3.96263018e-03,  4.01169594e-04
    2390,  1.29789517e-03, -3.96580545e-03,  5.55111512e-20
    2391,  1.32273174e-03, -3.96865938e-03,  0.00000000e+00
    2392,  1.24627178e-03, -3.95987349e-03, -3.94699068e-04
    2393,  1.27026209e-03, -3.96263018e-03, -4.01169594e-04
    2394,  1.09491963e-03, -3.94248187e-03, -7.62500070e-04
    2395,  1.11642889e-03, -3.94495346e-03, -7.75000217e-04
    2396,  8.54153131e-04, -3.91481579e-03, -1.07833800e-03
    2397,  8.71715565e-04, -3.91683386e-03, -1.09601600e-03
    2398,  1.31067199e-03, -8.31729147e-04,  7.62500070e-04
    2399,  1.33231651e-03, -8.32250569e-04,  7.75000217e-04
    2400,  1.46297589e-03, -8.35398186e-04,  3.94699068e-04
    2401,  1.48711707e-03, -8.35979753e-04,  4.01169594e-04
    2402,  1.51492391e-03, -8.36649627e-04,  5.55111512e-20
    2403,  1.53991666e-03, -8.37251708e-04,  0.00000000e+00
    2404,  1.46297589e-03, -8.35398186e-04, -3.94699068e-04
    2405,  1.48711707e-03, -8.35979753e-04, -4.01169594e-04
    2406,  1.31067199e-03, -8.31729147e-04, -7.62500070e-04
    2407,  1.33231651e-03, -8.32250569e-04, -7.75000217e-04
    2408,  1.06839146e-03, -8.25892549e-04, -1.07833800e-03
    2409,  1.08606434e-03, -8.26318293e-04, -1.09601600e-03
    2410, -1.28284521e-02, -2.71819046e-02, -1.32068882e-03
    2411, -1.28209521e-02, -2.71919048e-02, -1.34233962e-03
    2412, -1.30491327e-02, -2.68876638e-02, -1.47303691e-03
    2413, -1.30452504e-02, -2.68928403e-02, -1.49718509e-03
    2414, -1.32859522e-02, -2.65719046e-02, -1.52500000e-03
    2415, -1.32859522e-02, -2.65719046e-02, -1.55000000e-03
    2416, -1.35227716e-02, -2.62561453e-02, -1.47303691e-03
    2417, -1.35266539e-02, -2.62509689e-02, -1.49718509e-03
    2418, -1.37434522e-02, -2.59619045e-02, -1.32068882e-03
    2419, -1.37509523e-02, -2.59519044e-02, -1.34233962e-03
    2420, -1.39329550e-02, -2.57092342e-02, -1.07833800e-03
    2421, -1.39435618e-02, -2.56950918e-02, -1.09601600e-03
    2422, -1.04597915e-02, -2.52322873e-02, -1.32068882e-03
    2423, -1.04514200e-02, -2.52415702e-02, -1.34233962e-03
    2424, -1.07061126e-02, -2.49591509e-02, -1.47303691e-03
    2425, -1.07017792e-02, -2.49639561e-02, -1.49718509e-03
    2426, -1.09704476e-02, -2.46660394e-02, -1.52500000e-03
    2427, -1.09704476e-02, -2.46660394e-02, -1.55000000e-03
    2428, -1.12347827e-02, -2.43729280e-02, -1.47303691e-03
    2429, -1.12391161e-02, -2.43681228e-02, -1.49718509e-03
    2430, -1.14811037e-02, -2.40997915e-02, -1.32068882e-03
    2431, -1.14894753e-02, -2.40905087e-02, -1.34233962e-03
    2432, -1.16926245e-02, -2.38652439e-02, -1.07833800e-03
    2433, -1.17044637e-02, -2.38521159e-02, -1.09601600e-03
    2434, -8.27663795e-03, -2.30769681e-02, -1.32068882e-03
    2435, -8.26746327e-03, -2.30854580e-02, -1.34233962e-03
    2436, -8.54659139e-03, -2.28271627e-02, -1.47303691e-03
    2437, -8.54184224e-03, -2.28315574e-02, -1.49718509e-03
    2438, -8.83628709e-03, -2.25590886e-02, -1.52500000e-03
    2439, -8.83628709e-03, -2.25590886e-02, -1.55000000e-03
    2440, -9.12598279e-03, -2.22910144e-02, -1.47303691e-03
    2441, -9.13073194e-03, -2.22866197e-02, -1.49718509e-03
    2442, -9.39593623e-03, -2.20412090e-02, -1.32068882e-03
    2443, -9.40511091e-03, -2.20327191e-02, -1.34233962e-03
    2444, -9.62775053e-03, -2.18266963e-02, -1.07833800e-03
    2445, -9.64072559e-03, -2.18146896e-02, -1.09601600e-03
    2446, -6.29678920e-03, -2.07335177e-02, -1.32068882e-03
    2447, -6.28688614e-03, -2.07411455e-02, -1.34233962e-03
    2448, -6.58817426e-03, -2.05090799e-02, -1.47303691e-03
    2449, -6.58304808e-03, -2.05130283e-02, -1.49718509e-03
    2450, -6.90086893e-03, -2.02682285e-02, -1.52500000e-03
    2451, -6.90086893e-03, -2.02682285e-02, -1.55000000e-03
    2452, -7.21356359e-03, -2.00273771e-02, -1.47303691e-03
    2453, -7.21868977e-03, -2.00234287e-02, -1.49718509e-03
    2454, -7.50494865e-03, -1.98029393e-02, -1.32068882e-03
    2455, -7.51485171e-03, -1.97953115e-02, -1.34233962e-03
    2456, -7.75516671e-03, -1.96102102e-02, -1.07833800e-03
    2457, -7.76917185e-03, -1.95994228e-02, -1.09601600e-03
    2458, -4.53638567e-03, -1.82210408e-02, -1.32068882e-03
    2459, -4.52583497e-03, -1.82277443e-02, -1.34233962e-03
    2460, -4.84682689e-03, -1.80238003e-02, -1.47303691e-03
    2461, -4.84136546e-03, -1.80272702e-02, -1.49718509e-03
    2462, -5.17997132e-03, -1.78121351e-02, -1.52500000e-03
    2463, -5.17997132e-03, -1.78121351e-02, -1.55000000e-03
    2464, -5.51311575e-03, -1.76004700e-02, -1.47303691e-03
    2465, -5.51857718e-03, -1.75970000e-02, -1.49718509e-03
    2466, -5.82355696e-03, -1.74032294e-02, -1.32068882e-03
    2467, -5.83410767e-03, -1.73965260e-02, -1.34233962e-03
    2468, -6.09013892e-03, -1.72338551e-02, -1.07833800e-03
    2469, -6.10505997e-03, -1.72243749e-02, -1.09601600e-03
    2470, -3.00977875e-03, -1.55600200e-02, -1.32068882e-03
    2471, -2.99866641e-03, -1.55657444e-02, -1.34233962e-03
    2472, -3.33674530e-03, -1.53915847e-02, -1.47303691e-03
    2473, -3.33099315e-03, -1.53945479e-02, -1.49718509e-03
    2474, -3.68762360e-03, -1.52108313e-02, -1.52500000e-03
    2475, -3.68762360e-03, -1.52108313e-02, -1.55000000e-03
    2476, -4.03850190e-03, -1.50300780e-02, -1.47303691e-03
    2477, -4.04425404e-03, -1.50271148e-02, -1.49718509e-03
    2478, -4.36546844e-03, -1.48616426e-02, -1.32068882e-03
    2479, -4.37658078e-03, -1.48559182e-02, -1.34233962e-03
    2480, -4.64624102e-03, -1.47170039e-02, -1.07833800e-03
    2481, -4.66195635e-03, -1.47089083e-02, -1.09601600e-03
    2482, -1.72941385e-03, -1.27721487e-02, -1.32068882e-03
    2483, -1.71783046e-03, -1.27768475e-02, -1.34233962e-03
    2484, -2.07024018e-03, -1.26338917e-02, -1.47303691e-03
    2485, -2.06424421e-03, -1.26363240e-02, -1.49718509e-03
    2486, -2.43599187e-03, -1.24855238e-02, -1.52500000e-03
    2487, -2.43599187e-03, -1.24855238e-02, -1.55000000e-03
    2488, -2.80174356e-03, -1.23371558e-02, -1.47303691e-03
    2489, -2.80773954e-03, -1.23347235e-02, -1.49718509e-03
    2490, -3.14256990e-03, -1.21988988e-02, -1.32068882e-03
    2491, -3.15415328e-03, -1.21942000e-02, -1.34233962e-03
    2492, -3.43524416e-03, -1.20801749e-02, -1.07833800e-03
    2493, -3.45162565e-03, -1.20735297e-02, -1.09601600e-03
    2494, -7.05728914e-04, -9.88015459e-03, -1.32068882e-03
    2495, -6.93768922e-04, -9.88378946e-03, -1.34233962e-03
    2496, -1.05763652e-03, -9.77320312e-03, -1.47303691e-03
    2497, -1.05144559e-03, -9.77508466e-03, -1.49718509e-03
    2498, -1.43527987e-03, -9.65843006e-03, -1.52500000e-03
    2499, -1.43527987e-03, -9.65843006e-03, -1.55000000e-03
    2500, -1.81292322e-03, -9.54365701e-03, -1.47303691e-03
    2501, -1.81911414e-03, -9.54177547e-03, -1.49718509e-03
    2502, -2.16483082e-03, -9.43670554e-03, -1.32068882e-03
    2503, -2.17679081e-03, -9.43307067e-03, -1.34233962e-03
    2504, -2.46702078e-03, -9.34486422e-03, -1.07833800e-03
    2505, -2.48393487e-03, -9.33972370e-03, -1.09601600e-03
    2506,  5.29306254e-05, -6.90761419e-03, -1.32068882e-03
    2507,  6.51697246e-05, -6.91015548e-03, -1.34233962e-03
    2508, -3.07189374e-04, -6.83284011e-03, -1.47303691e-03
    2509, -3.00853976e-04, -6.83415557e-03, -1.49718509e-03
    2510, -6.93645711e-04, -6.75259765e-03, -1.52500000e-03
    2511, -6.93645711e-04, -6.75259765e-03, -1.55000000e-03
    2512, -1.08010205e-03, -6.67235518e-03, -1.47303691e-03
    2513, -1.08643745e-03, -6.67103972e-03, -1.49718509e-03
    2514, -1.44022205e-03, -6.59758110e-03, -1.32068882e-03
    2515, -1.45246115e-03, -6.59503981e-03, -1.34233962e-03
    2516, -1.74946415e-03, -6.53337113e-03, -1.07833800e-03
    2517, -1.76677297e-03, -6.52977719e-03, -1.09601600e-03
    2518,  5.40379927e-04, -3.87876064e-03, -1.32068882e-03
    2519,  5.52798356e-04, -3.88018762e-03, -1.34233962e-03
    2520,  1.74983348e-04, -3.83677353e-03, -1.47303691e-03
    2521,  1.81411574e-04, -3.83751219e-03, -1.49718509e-03
    2522, -2.17135456e-04, -3.79171581e-03, -1.52500000e-03
    2523, -2.17135456e-04, -3.79171581e-03, -1.55000000e-03
    2524, -6.09254260e-04, -3.74665810e-03, -1.47303691e-03
    2525, -6.15682486e-04, -3.74591944e-03, -1.49718509e-03
    2526, -9.74650839e-04, -3.70467099e-03, -1.32068882e-03
    2527, -9.87069268e-04, -3.70324400e-03, -1.34233962e-03
    2528, -1.28842404e-03, -3.66861583e-03, -1.07833800e-03
    2529, -1.30598648e-03, -3.66659776e-03, -1.09601600e-03
    2530,  7.52645141e-04, -8.18286142e-04, -1.32068882e-03
    2531,  7.65141663e-04, -8.18587186e-04, -1.34233962e-03
    2532,  3.84950818e-04, -8.09428294e-04, -1.47303691e-03
    2533,  3.91419467e-04, -8.09584126e-04, -1.49718509e-03
    2534, -9.63377023e-06, -7.99922653e-04, -1.52500000e-03
    2535, -9.63377023e-06, -7.99922653e-04, -1.55000000e-03
    2536, -4.04218358e-04, -7.90417013e-04, -1.47303691e-03
    2537, -4.10687007e-04, -7.90261181e-04, -1.49718509e-03
    2538, -7.71912682e-04, -7.81559165e-04, -1.32068882e-03
    2539, -7.84409203e-04, -7.81258121e-04, -1.34233962e-03
    2540, -1.08765900e-03, -7.73952758e-04, -1.07833800e-03
    2541, -1.10533188e-03, -7.73527014e-04, -1.09601600e-03
    2542, -1.40783655e-02, -2.55153535e-02, -7.62500070e-04
    2543, -1.40913560e-02, -2.54980329e-02, -7.75000217e-04
    2544, -1.41697743e-02, -2.53934751e-02, -3.94699068e-04
    2545, -1.41842632e-02, -2.53741565e-02, -4.01169594e-04
    2546, -1.42009522e-02, -2.53519046e-02, -5.55111512e-20
    2547, -1.42159522e-02, -2.53319046e-02,  0.00000000e+00
    2548, -1.41697743e-02, -2.53934751e-02,  3.94699068e-04
    2549, -1.41842632e-02, -2.53741565e-02,  4.01169594e-04
    2550, -1.40783655e-02, -2.55153535e-02,  7.62500070e-04
    2551, -1.40913560e-02, -2.54980329e-02,  7.75000217e-04
    2552, -1.18549299e-02, -2.36852693e-02, -7.62500070e-04
    2553, -1.18694298e-02, -2.36691910e-02, -7.75000217e-04
    2554, -1.19569594e-02, -2.35721326e-02, -3.94699068e-04
    2555, -1.19731318e-02, -2.35541996e-02, -4.01169594e-04
    2556, -1.19917598e-02, -2.35335437e-02, -5.55111512e-20
    2557, -1.20085026e-02, -2.35149782e-02,  0.00000000e+00
    2558, -1.19569594e-02, -2.35721326e-02,  3.94699068e-04
    2559, -1.19731318e-02, -2.35541996e-02,  4.01169594e-04
    2560, -1.18549299e-02, -2.36852693e-02,  7.62500070e-04
    2561, -1.18694298e-02, -2.36691910e-02,  7.75000217e-04
    2562, -9.80562780e-03, -2.16620949e-02, -7.62500070e-04
    2563, -9.82151875e-03, -2.16473900e-02, -7.75000217e-04
    2564, -9.91744612e-03, -2.15586222e-02, -3.94699068e-04
    2565, -9.93517006e-03, -2.15422211e-02, -4.01169594e-04
    2566, -9.95558526e-03, -2.15233296e-02, -5.55111512e-20
    2567, -9.97393441e-03, -2.15063500e-02,  0.00000000e+00
    2568, -9.91744612e-03, -2.15586222e-02,  3.94699068e-04
    2569, -9.93517006e-03, -2.15422211e-02,  4.01169594e-04
    2570, -9.80562780e-03, -2.16620949e-02,  7.62500070e-04
    2571, -9.82151875e-03, -2.16473900e-02,  7.75000217e-04
    2572, -7.94716566e-03, -1.94623240e-02, -7.62500070e-04
    2573, -7.96431819e-03, -1.94491123e-02, -7.75000217e-04
    2574, -8.06786124e-03, -1.93693588e-02, -3.94699068e-04
    2575, -8.08699229e-03, -1.93546233e-02, -4.01169594e-04
    2576, -8.10902826e-03, -1.93376502e-02, -5.55111512e-20
    2577, -8.12883415e-03, -1.93223948e-02,  0.00000000e+00
    2578, -8.06786124e-03, -1.93693588e-02,  3.94699068e-04
    2579, -8.08699229e-03, -1.93546233e-02,  4.01169594e-04
    2580, -7.94716566e-03, -1.94623240e-02,  7.62500070e-04
    2581, -7.96431819e-03, -1.94491123e-02,  7.75000217e-04
    2582, -6.29469432e-03, -1.71038897e-02, -7.62500070e-04
    2583, -6.31296860e-03, -1.70922790e-02, -7.75000217e-04
    2584, -6.42328322e-03, -1.70221900e-02, -3.94699068e-04
    2585, -6.44366541e-03, -1.70092401e-02, -4.01169594e-04
    2586, -6.46714249e-03, -1.69943238e-02, -5.55111512e-20
    2587, -6.48824366e-03, -1.69809170e-02,  0.00000000e+00
    2588, -6.42328322e-03, -1.70221900e-02,  3.94699068e-04
    2589, -6.44366541e-03, -1.70092401e-02,  4.01169594e-04
    2590, -6.29469432e-03, -1.71038897e-02,  7.62500070e-04
    2591, -6.31296860e-03, -1.70922790e-02,  7.75000217e-04
    2592, -4.86168527e-03, -1.46060188e-02, -7.62500070e-04
    2593, -4.88093233e-03, -1.45961038e-02, -7.75000217e-04
    2594, -4.99711918e-03, -1.45362507e-02, -3.94699068e-04
    2595, -5.01858635e-03, -1.45251919e-02, -4.01169594e-04
    2596, -5.04331316e-03, -1.45124540e-02, -5.55111512e-20
    2597, -5.06553758e-03, -1.45010052e-02,  0.00000000e+00
    2598, -4.99711918e-03, -1.45362507e-02,  3.94699068e-04
    2599, -5.01858635e-03, -1.45251919e-02,  4.01169594e-04
    2600, -4.86168527e-03, -1.46060188e-02,  7.62500070e-04
    2601, -4.88093233e-03, -1.45961038e-02,  7.75000217e-04
    2602, -3.65982088e-03, -1.19890748e-02, -7.62500070e-04
    2603, -3.67988380e-03, -1.19809363e-02, -7.75000217e-04
    2604, -3.80099570e-03, -1.19318070e-02, -3.94699068e-04
    2605, -3.82337285e-03, -1.19227296e-02, -4.01169594e-04
    2606, -3.84914780e-03, -1.19122740e-02, -5.55111512e-20
    2607, -3.87231429e-03, -1.19028764e-02,  0.00000000e+00
    2608, -3.80099570e-03, -1.19318070e-02,  3.94699068e-04
    2609, -3.82337285e-03, -1.19227296e-02,  4.01169594e-04
    2610, -3.65982088e-03, -1.19890748e-02,  7.62500070e-04
    2611, -3.67988380e-03, -1.19809363e-02,  7.75000217e-04
    2612, -2.69889914e-03, -9.27439194e-03, -7.62500070e-04
    2613, -2.71961437e-03, -9.26809618e-03, -7.75000217e-04
    2614, -2.84466397e-03, -9.23009121e-03, -3.94699068e-04
    2615, -2.86776866e-03, -9.22306925e-03, -4.01169594e-04
    2616, -2.89438164e-03, -9.21498106e-03, -5.55111512e-20
    2617, -2.91830134e-03, -9.20771140e-03,  0.00000000e+00
    2618, -2.84466397e-03, -9.23009121e-03,  3.94699068e-04
    2619, -2.86776866e-03, -9.22306925e-03,  4.01169594e-04
    2620, -2.69889914e-03, -9.27439194e-03,  7.62500070e-04
    2621, -2.71961437e-03, -9.26809618e-03,  7.75000217e-04
    2622, -1.98675382e-03, -6.48410112e-03, -7.62500070e-04
    2623, -2.00795247e-03, -6.47969950e-03, -7.75000217e-04
    2624, -2.13592033e-03, -6.45312869e-03, -3.94699068e-04
    2625, -2.15956421e-03, -6.44821936e-03, -4.01169594e-04
    2626, -2.18679825e-03, -6.44256458e-03, -5.55111512e-20
    2627, -2.21127616e-03, -6.43748207e-03,  0.00000000e+00
    2628, -2.13592033e-03, -6.45312869e-03,  3.94699068e-04
    2629, -2.15956421e-03, -6.44821936e-03,  4.01169594e-04
    2630, -1.98675382e-03, -6.48410112e-03,  7.62500070e-04
    2631, -2.00795247e-03, -6.47969950e-03,  7.75000217e-04
    2632, -1.52919054e-03, -3.64094975e-03, -7.62500070e-04
    2633, -1.55069981e-03, -3.63847816e-03, -7.75000217e-04
    2634, -1.68054269e-03, -3.62355813e-03, -3.94699068e-04
    2635, -1.70453301e-03, -3.62080144e-03, -4.01169594e-04
    2636, -1.73216608e-03, -3.61762617e-03, -5.55111512e-20
    2637, -1.75700265e-03, -3.61477225e-03,  0.00000000e+00
    2638, -1.68054269e-03, -3.62355813e-03,  3.94699068e-04
    2639, -1.70453301e-03, -3.62080144e-03,  4.01169594e-04
    2640, -1.52919054e-03, -3.64094975e-03,  7.62500070e-04
    2641, -1.55069981e-03, -3.63847816e-03,  7.75000217e-04
    2642, -1.32993953e-03, -7.68116160e-04, -7.62500070e-04
    2643, -1.35158405e-03, -7.67594738e-04, -7.75000217e-04
    2644, -1.48224344e-03, -7.64447121e-04, -3.94699068e-04
    2645, -1.50638461e-03, -7.63865554e-04, -4.01169594e-04
    2646, -1.53419145e-03, -7.63195680e-04, -5.55111512e-20
    2647, -1.55918420e-03, -7.62593599e-04,  0.00000000e+00
    2648, -1.48224344e-03, -7.64447121e-04,  3.94699068e-04
    2649, -1.50638461e-03, -7.63865554e-04,  4.01169594e-04
    2650, -1.32993953e-03, -7.68116160e-04,  7.62500070e-04
    2651, -1.35158405e-03, -7.67594738e-04,  7.75000217e-04
    2652, -1.40072014e-02, -2.56102390e-02,  1.20208200e-03
    2653, -1.40708410e-02, -2.55253862e-02,  1.30814800e-03
    2654, -1.41344806e-02, -2.54405334e-02,  1.41421400e-03
    2655, -1.37959523e-02, -2.58919044e-02,  1.47224342e-03
    2656, -1.38409523e-02, -2.58319044e-02,  1.60214722e-03
    2657, -1.38859523e-02, -2.57719044e-02,  1.73205102e-03
    2658, -1.35499477e-02, -2.62199106e-02,  1.64207397e-03
    2659, -1.35732414e-02, -2.61888523e-02,  1.78696284e-03
    2660, -1.35965351e-02, -2.61577941e-02,  1.93185171e-03
    2661, -1.32859522e-02, -2.65719046e-02,  1.70000000e-03
    2662, -1.32859522e-02, -2.65719046e-02,  1.85000000e-03
    2663, -1.32859522e-02, -2.65719046e-02,  2.00000000e-03
    2664, -1.30219567e-02, -2.69238985e-02,  1.64207397e-03
    2665, -1.29986630e-02, -2.69549568e-02,  1.78696284e-03
    2666, -1.29753693e-02, -2.69860151e-02,  1.93185171e-03
    2667, -1.27759521e-02, -2.72519047e-02,  1.47224342e-03
    2668, -1.27309521e-02, -2.73119047e-02,  1.60214722e-03
    2669, -1.26859521e-02, -2.73719047e-02,  1.73205102e-03
    2670, -1.25647030e-02, -2.75335702e-02,  1.20208200e-03
    2671, -1.25010634e-02, -2.76184230e-02,  1.30814800e-03
    2672, -1.24374238e-02, -2.77032758e-02,  1.41421400e-03
    2673, -1.17754974e-02, -2.37733491e-02,  1.20208200e-03
    2674, -1.18465312e-02, -2.36945824e-02,  1.30814800e-03
    2675, -1.19175650e-02, -2.36158156e-02,  1.41421400e-03
    2676, -1.15397037e-02, -2.40348122e-02,  1.47224342e-03
    2677, -1.15899322e-02, -2.39791157e-02,  1.60214722e-03
    2678, -1.16401606e-02, -2.39234192e-02,  1.73205102e-03
    2679, -1.12651162e-02, -2.43392922e-02,  1.64207397e-03
    2680, -1.12911164e-02, -2.43104616e-02,  1.78696284e-03
    2681, -1.13171166e-02, -2.42816309e-02,  1.93185171e-03
    2682, -1.09704476e-02, -2.46660394e-02,  1.70000000e-03
    2683, -1.09704476e-02, -2.46660394e-02,  1.85000000e-03
    2684, -1.09704476e-02, -2.46660394e-02,  2.00000000e-03
    2685, -1.06757790e-02, -2.49927867e-02,  1.64207397e-03
    2686, -1.06497789e-02, -2.50216173e-02,  1.78696284e-03
    2687, -1.06237787e-02, -2.50504480e-02,  1.93185171e-03
    2688, -1.04011916e-02, -2.52972667e-02,  1.47224342e-03
    2689, -1.03509631e-02, -2.53529632e-02,  1.60214722e-03
    2690, -1.03007346e-02, -2.54086597e-02,  1.73205102e-03
    2691, -1.01653979e-02, -2.55587297e-02,  1.20208200e-03
    2692, -1.00943641e-02, -2.56374965e-02,  1.30814800e-03
    2693, -1.00233303e-02, -2.57162632e-02,  1.41421400e-03
    2694, -9.71857443e-03, -2.17426511e-02,  1.20208200e-03
    2695, -9.79642326e-03, -2.16706125e-02,  1.30814800e-03
    2696, -9.87427210e-03, -2.15985739e-02,  1.41421400e-03
    2697, -9.46015836e-03, -2.19817802e-02,  1.47224342e-03
    2698, -9.51520580e-03, -2.19308412e-02,  1.60214722e-03
    2699, -9.57025324e-03, -2.18799022e-02,  1.73205102e-03
    2700, -9.15922659e-03, -2.22602518e-02,  1.64207397e-03
    2701, -9.18772125e-03, -2.22338838e-02,  1.78696284e-03
    2702, -9.21621590e-03, -2.22075159e-02,  1.93185171e-03
    2703, -8.83628709e-03, -2.25590886e-02,  1.70000000e-03
    2704, -8.83628709e-03, -2.25590886e-02,  1.85000000e-03
    2705, -8.83628709e-03, -2.25590886e-02,  2.00000000e-03
    2706, -8.51334758e-03, -2.28579254e-02,  1.64207397e-03
    2707, -8.48485293e-03, -2.28842933e-02,  1.78696284e-03
    2708, -8.45635827e-03, -2.29106612e-02,  1.93185171e-03
    2709, -8.21241582e-03, -2.31363970e-02,  1.47224342e-03
    2710, -8.15736838e-03, -2.31873359e-02,  1.60214722e-03
    2711, -8.10232093e-03, -2.32382749e-02,  1.73205102e-03
    2712, -7.95399975e-03, -2.33755261e-02,  1.20208200e-03
    2713, -7.87615091e-03, -2.34475646e-02,  1.30814800e-03
    2714, -7.79830207e-03, -2.35196032e-02,  1.41421400e-03
    2715, -7.85320111e-03, -1.95346997e-02,  1.20208200e-03
    2716, -7.93723038e-03, -1.94699766e-02,  1.30814800e-03
    2717, -8.02125964e-03, -1.94052535e-02,  1.41421400e-03
    2718, -7.57426937e-03, -1.97495454e-02,  1.47224342e-03
    2719, -7.63368704e-03, -1.97037792e-02,  1.60214722e-03
    2720, -7.69310470e-03, -1.96580131e-02,  1.73205102e-03
    2721, -7.24944662e-03, -1.99997384e-02,  1.64207397e-03
    2722, -7.28020347e-03, -1.99760481e-02,  1.78696284e-03
    2723, -7.31096031e-03, -1.99523578e-02,  1.93185171e-03
    2724, -6.90086893e-03, -2.02682285e-02,  1.70000000e-03
    2725, -6.90086893e-03, -2.02682285e-02,  1.85000000e-03
    2726, -6.90086893e-03, -2.02682285e-02,  2.00000000e-03
    2727, -6.55229123e-03, -2.05367186e-02,  1.64207397e-03
    2728, -6.52153438e-03, -2.05604089e-02,  1.78696284e-03
    2729, -6.49077754e-03, -2.05840992e-02,  1.93185171e-03
    2730, -6.22746848e-03, -2.07869116e-02,  1.47224342e-03
    2731, -6.16805081e-03, -2.08326778e-02,  1.60214722e-03
    2732, -6.10863315e-03, -2.08784439e-02,  1.73205102e-03
    2733, -5.94853674e-03, -2.10017573e-02,  1.20208200e-03
    2734, -5.86450748e-03, -2.10664804e-02,  1.30814800e-03
    2735, -5.78047821e-03, -2.11312035e-02,  1.41421400e-03
    2736, -6.19458463e-03, -1.71674949e-02,  1.20208200e-03
    2737, -6.28410928e-03, -1.71106150e-02,  1.30814800e-03
    2738, -6.37363393e-03, -1.70537350e-02,  1.41421400e-03
    2739, -5.89741116e-03, -1.73563057e-02,  1.47224342e-03
    2740, -5.96071466e-03, -1.73160855e-02,  1.60214722e-03
    2741, -6.02401815e-03, -1.72758653e-02,  1.73205102e-03
    2742, -5.55134548e-03, -1.75761805e-02,  1.64207397e-03
    2743, -5.58411378e-03, -1.75553610e-02,  1.78696284e-03
    2744, -5.61688208e-03, -1.75345415e-02,  1.93185171e-03
    2745, -5.17997132e-03, -1.78121351e-02,  1.70000000e-03
    2746, -5.17997132e-03, -1.78121351e-02,  1.85000000e-03
    2747, -5.17997132e-03, -1.78121351e-02,  2.00000000e-03
    2748, -4.80859716e-03, -1.80480898e-02,  1.64207397e-03
    2749, -4.77582886e-03, -1.80689093e-02,  1.78696284e-03
    2750, -4.74306056e-03, -1.80897288e-02,  1.93185171e-03
    2751, -4.46253147e-03, -1.82679645e-02,  1.47224342e-03
    2752, -4.39922798e-03, -1.83081847e-02,  1.60214722e-03
    2753, -4.33592449e-03, -1.83484050e-02,  1.73205102e-03
    2754, -4.16535801e-03, -1.84567753e-02,  1.20208200e-03
    2755, -4.07583336e-03, -1.85136553e-02,  1.30814800e-03
    2756, -3.98630870e-03, -1.85705353e-02,  1.41421400e-03
    2757, -4.75624656e-03, -1.46603351e-02,  1.20208200e-03
    2758, -4.85053677e-03, -1.46117619e-02,  1.30814800e-03
    2759, -4.94482698e-03, -1.45631887e-02,  1.41421400e-03
    2760, -4.44325403e-03, -1.48215718e-02,  1.47224342e-03
    2761, -4.50992728e-03, -1.47872253e-02,  1.60214722e-03
    2762, -4.57660053e-03, -1.47528789e-02,  1.73205102e-03
    2763, -4.07876666e-03, -1.50093358e-02,  1.64207397e-03
    2764, -4.11327927e-03, -1.49915567e-02,  1.78696284e-03
    2765, -4.14779189e-03, -1.49737777e-02,  1.93185171e-03
    2766, -3.68762360e-03, -1.52108313e-02,  1.70000000e-03
    2767, -3.68762360e-03, -1.52108313e-02,  1.85000000e-03
    2768, -3.68762360e-03, -1.52108313e-02,  2.00000000e-03
    2769, -3.29648053e-03, -1.54123269e-02,  1.64207397e-03
    2770, -3.26196792e-03, -1.54301059e-02,  1.78696284e-03
    2771, -3.22745530e-03, -1.54478849e-02,  1.93185171e-03
    2772, -2.93199316e-03, -1.56000909e-02,  1.47224342e-03
    2773, -2.86531991e-03, -1.56344373e-02,  1.60214722e-03
    2774, -2.79864667e-03, -1.56687837e-02,  1.73205102e-03
    2775, -2.61900063e-03, -1.57613275e-02,  1.20208200e-03
    2776, -2.52471042e-03, -1.58099007e-02,  1.30814800e-03
    2777, -2.43042021e-03, -1.58584739e-02,  1.41421400e-03
    2778, -3.54991273e-03, -1.20336593e-02,  1.20208200e-03
    2779, -3.64819981e-03, -1.19937890e-02,  1.30814800e-03
    2780, -3.74648689e-03, -1.19539186e-02,  1.41421400e-03
    2781, -3.22365275e-03, -1.21660074e-02,  1.47224342e-03
    2782, -3.29315221e-03, -1.21378148e-02,  1.60214722e-03
    2783, -3.36265167e-03, -1.21096222e-02,  1.73205102e-03
    2784, -2.84371511e-03, -1.23201299e-02,  1.64207397e-03
    2785, -2.87969068e-03, -1.23055364e-02,  1.78696284e-03
    2786, -2.91566625e-03, -1.22909428e-02,  1.93185171e-03
    2787, -2.43599187e-03, -1.24855238e-02,  1.70000000e-03
    2788, -2.43599187e-03, -1.24855238e-02,  1.85000000e-03
    2789, -2.43599187e-03, -1.24855238e-02,  2.00000000e-03
    2790, -2.02826864e-03, -1.26509176e-02,  1.64207397e-03
    2791, -1.99229307e-03, -1.26655111e-02,  1.78696284e-03
    2792, -1.95631750e-03, -1.26801047e-02,  1.93185171e-03
    2793, -1.64833100e-03, -1.28050401e-02,  1.47224342e-03
    2794, -1.57883154e-03, -1.28332327e-02,  1.60214722e-03
    2795, -1.50933207e-03, -1.28614253e-02,  1.73205102e-03
    2796, -1.32207102e-03, -1.29373882e-02,  1.20208200e-03
    2797, -1.22378394e-03, -1.29772586e-02,  1.30814800e-03
    2798, -1.12549686e-03, -1.30171289e-02,  1.41421400e-03
    2799, -2.58541756e-03, -9.30888117e-03,  1.20208200e-03
    2800, -2.68690024e-03, -9.27803864e-03,  1.30814800e-03
    2801, -2.78838292e-03, -9.24719610e-03,  1.41421400e-03
    2802, -2.24854991e-03, -9.41126171e-03,  1.47224342e-03
    2803, -2.32030900e-03, -9.38945274e-03,  1.60214722e-03
    2804, -2.39206810e-03, -9.36764378e-03,  1.73205102e-03
    2805, -1.85625938e-03, -9.53048632e-03,  1.64207397e-03
    2806, -1.89340462e-03, -9.51919717e-03,  1.78696284e-03
    2807, -1.93054987e-03, -9.50790801e-03,  1.93185171e-03
    2808, -1.43527987e-03, -9.65843006e-03,  1.70000000e-03
    2809, -1.43527987e-03, -9.65843006e-03,  1.85000000e-03
    2810, -1.43527987e-03, -9.65843006e-03,  2.00000000e-03
    2811, -1.01430035e-03, -9.78637381e-03,  1.64207397e-03
    2812, -9.77155109e-04, -9.79766296e-03,  1.78696284e-03
    2813, -9.40009866e-04, -9.80895211e-03,  1.93185171e-03
    2814, -6.22009826e-04, -9.90559842e-03,  1.47224342e-03
    2815, -5.50250731e-04, -9.92740739e-03,  1.60214722e-03
    2816, -4.78491638e-04, -9.94921635e-03,  1.73205102e-03
    2817, -2.85142177e-04, -1.00079790e-02,  1.20208200e-03
    2818, -1.83659496e-04, -1.00388215e-02,  1.30814800e-03
    2819, -8.21768151e-05, -1.00696640e-02,  1.41421400e-03
    2820, -1.87062393e-03, -6.50821393e-03,  1.20208200e-03
    2821, -1.97447489e-03, -6.48665067e-03,  1.30814800e-03
    2822, -2.07832586e-03, -6.46508741e-03,  1.41421400e-03
    2823, -1.52589487e-03, -6.57979229e-03,  1.47224342e-03
    2824, -1.59932859e-03, -6.56454476e-03,  1.60214722e-03
    2825, -1.67276231e-03, -6.54929724e-03,  1.73205102e-03
    2826, -1.12444954e-03, -6.66314702e-03,  1.64207397e-03
    2827, -1.16246163e-03, -6.65525432e-03,  1.78696284e-03
    2828, -1.20047373e-03, -6.64736162e-03,  1.93185171e-03
    2829, -6.93645711e-04, -6.75259765e-03,  1.70000000e-03
    2830, -6.93645711e-04, -6.75259765e-03,  1.85000000e-03
    2831, -6.93645711e-04, -6.75259765e-03,  2.00000000e-03
    2832, -2.62841882e-04, -6.84204827e-03,  1.64207397e-03
    2833, -2.24829788e-04, -6.84994098e-03,  1.78696284e-03
    2834, -1.86817695e-04, -6.85783368e-03,  1.93185171e-03
    2835,  1.38603448e-04, -6.92540301e-03,  1.47224342e-03
    2836,  2.12037172e-04, -6.94065053e-03,  1.60214722e-03
    2837,  2.85470892e-04, -6.95589806e-03,  1.73205102e-03
    2838,  4.83332510e-04, -6.99698136e-03,  1.20208200e-03
    2839,  5.87183472e-04, -7.01854462e-03,  1.30814800e-03
    2840,  6.91034434e-04, -7.04010788e-03,  1.41421400e-03
    2841, -1.41135909e-03, -3.65448957e-03,  1.20208200e-03
    2842, -1.51673171e-03, -3.64238138e-03,  1.30814800e-03
    2843, -1.62210432e-03, -3.63027319e-03,  1.41421400e-03
    2844, -1.06157896e-03, -3.69468222e-03,  1.47224342e-03
    2845, -1.13608866e-03, -3.68612043e-03,  1.60214722e-03
    2846, -1.21059835e-03, -3.67755865e-03,  1.73205102e-03
    2847, -6.54251544e-04, -3.74148753e-03,  1.64207397e-03
    2848, -6.92820601e-04, -3.73705563e-03,  1.78696284e-03
    2849, -7.31389659e-04, -3.73262372e-03,  1.93185171e-03
    2850, -2.17135456e-04, -3.79171581e-03,  1.70000000e-03
    2851, -2.17135456e-04, -3.79171581e-03,  1.85000000e-03
    2852, -2.17135456e-04, -3.79171581e-03,  2.00000000e-03
    2853,  2.19980632e-04, -3.84194409e-03,  1.64207397e-03
    2854,  2.58549689e-04, -3.84637600e-03,  1.78696284e-03
    2855,  2.97118747e-04, -3.85080790e-03,  1.93185171e-03
    2856,  6.27308051e-04, -3.88874941e-03,  1.47224342e-03
    2857,  7.01817746e-04, -3.89731119e-03,  1.60214722e-03
    2858,  7.76327438e-04, -3.90587297e-03,  1.73205102e-03
    2859,  9.77088180e-04, -3.92894206e-03,  1.20208200e-03
    2860,  1.08246080e-03, -3.94105025e-03,  1.30814800e-03
    2861,  1.18783341e-03, -3.95315844e-03,  1.41421400e-03
    2862, -1.21136711e-03, -7.70972599e-04,  1.20208200e-03
    2863, -1.31740235e-03, -7.68418183e-04,  1.30814800e-03
    2864, -1.42343759e-03, -7.65863768e-04,  1.41421400e-03
    2865, -8.59387442e-04, -7.79451876e-04,  1.47224342e-03
    2866, -9.34365681e-04, -7.77645632e-04,  1.60214722e-03
    2867, -1.00934392e-03, -7.75839388e-04,  1.73205102e-03
    2868, -4.49498601e-04, -7.89326200e-04,  1.64207397e-03
    2869, -4.88310195e-04, -7.88391219e-04,  1.78696284e-03
    2870, -5.27121788e-04, -7.87456239e-04,  1.93185171e-03
    2871, -9.63377023e-06, -7.99922653e-04,  1.70000000e-03
    2872, -9.63377023e-06, -7.99922653e-04,  1.85000000e-03
    2873, -9.63377023e-06, -7.99922653e-04,  2.00000000e-03
    2874,  4.30231061e-04, -8.10519107e-04,  1.64207397e-03
    2875,  4.69042654e-04, -8.11454087e-04,  1.78696284e-03
    2876,  5.07854248e-04, -8.12389068e-04,  1.93185171e-03
    2877,  8.40119901e-04, -8.20393431e-04,  1.47224342e-03
    2878,  9.15098140e-04, -8.22199675e-04,  1.60214722e-03
    2879,  9.90076376e-04, -8.24005919e-04,  1.73205102e-03
    2880,  1.19209957e-03, -8.28872708e-04,  1.20208200e-03
    2881,  1.29813481e-03, -8.31427124e-04,  1.30814800e-03
    2882,  1.40417005e-03, -8.33981539e-04,  1.41421400e-03
    2883, -1.24026061e-02, -2.77496993e-02,  8.50000209e-04
    2884, -1.23246638e-02, -2.78536223e-02,  9.25000201e-04
    2885, -1.22467216e-02, -2.79575454e-02,  1.00000019e-03
    2886, -1.23007078e-02, -2.78855637e-02,  4.39992448e-04
    2887, -1.22137745e-02, -2.80014748e-02,  4.78815302e-04
    2888, -1.21268412e-02, -2.81173859e-02,  5.17638156e-04
    2889, -1.22659522e-02, -2.79319046e-02,  9.25185854e-20
    2890, -1.21759522e-02, -2.80519046e-02,  1.38777878e-19
    2891, -1.20859522e-02, -2.81719046e-02,  2.22044605e-19
    2892, -1.23007078e-02, -2.78855637e-02, -4.39992448e-04
    2893, -1.22137745e-02, -2.80014748e-02, -4.78815302e-04
    2894, -1.21268412e-02, -2.81173859e-02, -5.17638156e-04
    2895, -1.24026061e-02, -2.77496993e-02, -8.50000209e-04
    2896, -1.23246638e-02, -2.78536223e-02, -9.25000201e-04
    2897, -1.22467216e-02, -2.79575454e-02, -1.00000019e-03
    2898, -1.25647030e-02, -2.75335702e-02, -1.20208200e-03
    2899, -1.25010634e-02, -2.76184230e-02, -1.30814800e-03
    2900, -1.24374238e-02, -2.77032758e-02, -1.41421400e-03
    2901, -9.98446727e-03, -2.57593571e-02,  8.50000209e-04
    2902, -9.89746902e-03, -2.58558262e-02,  9.25000201e-04
    2903, -9.81047078e-03, -2.59522954e-02,  1.00000019e-03
    2904, -9.87072956e-03, -2.58854766e-02,  4.39992448e-04
    2905, -9.77369562e-03, -2.59930740e-02,  4.78815302e-04
    2906, -9.67666168e-03, -2.61006714e-02,  5.17638156e-04
    2907, -9.83193576e-03, -2.59284937e-02,  9.25185854e-20
    2908, -9.73147883e-03, -2.60398867e-02,  1.38777878e-19
    2909, -9.63102190e-03, -2.61512797e-02,  2.22044605e-19
    2910, -9.87072956e-03, -2.58854766e-02, -4.39992448e-04
    2911, -9.77369562e-03, -2.59930740e-02, -4.78815302e-04
    2912, -9.67666168e-03, -2.61006714e-02, -5.17638156e-04
    2913, -9.98446727e-03, -2.57593571e-02, -8.50000209e-04
    2914, -9.89746902e-03, -2.58558262e-02, -9.25000201e-04
    2915, -9.81047078e-03, -2.59522954e-02, -1.00000019e-03
    2916, -1.01653979e-02, -2.55587297e-02, -1.20208200e-03
    2917, -1.00943641e-02, -2.56374965e-02, -1.30814800e-03
    2918, -1.00233303e-02, -2.57162632e-02, -1.41421400e-03
    2919, -7.75571045e-03, -2.35590160e-02,  8.50000209e-04
    2920, -7.66036548e-03, -2.36472448e-02,  9.25000201e-04
    2921, -7.56502050e-03, -2.37354737e-02,  1.00000019e-03
    2922, -7.63106060e-03, -2.36743625e-02,  4.39992448e-04
    2923, -7.52471709e-03, -2.37727691e-02,  4.78815302e-04
    2924, -7.41837359e-03, -2.38711756e-02,  5.17638156e-04
    2925, -7.58854486e-03, -2.37137051e-02,  9.25185854e-20
    2926, -7.47844996e-03, -2.38155830e-02,  1.38777878e-19
    2927, -7.36835506e-03, -2.39174609e-02,  2.22044605e-19
    2928, -7.63106060e-03, -2.36743625e-02, -4.39992448e-04
    2929, -7.52471709e-03, -2.37727691e-02, -4.78815302e-04
    2930, -7.41837359e-03, -2.38711756e-02, -5.17638156e-04
    2931, -7.75571045e-03, -2.35590160e-02, -8.50000209e-04
    2932, -7.66036548e-03, -2.36472448e-02, -9.25000201e-04
    2933, -7.56502050e-03, -2.37354737e-02, -1.00000019e-03
    2934, -7.95399975e-03, -2.33755261e-02, -1.20208200e-03
    2935, -7.87615091e-03, -2.34475646e-02, -1.30814800e-03
    2936, -7.79830207e-03, -2.35196032e-02, -1.41421400e-03
    2937, -5.73450524e-03, -2.11666140e-02,  8.50000209e-04
    2938, -5.63159082e-03, -2.12458833e-02,  9.25000201e-04
    2939, -5.52867640e-03, -2.13251525e-02,  1.00000019e-03
    2940, -5.59995943e-03, -2.12702472e-02,  4.39992448e-04
    2941, -5.48517330e-03, -2.13586606e-02,  4.78815302e-04
    2942, -5.37038718e-03, -2.14470740e-02,  5.17638156e-04
    2943, -5.55406836e-03, -2.13055945e-02,  9.25185854e-20
    2944, -5.43523302e-03, -2.13971268e-02,  1.38777878e-19
    2945, -5.31639767e-03, -2.14886591e-02,  2.22044605e-19
    2946, -5.59995943e-03, -2.12702472e-02, -4.39992448e-04
    2947, -5.48517330e-03, -2.13586606e-02, -4.78815302e-04
    2948, -5.37038718e-03, -2.14470740e-02, -5.17638156e-04
    2949, -5.73450524e-03, -2.11666140e-02, -8.50000209e-04
    2950, -5.63159082e-03, -2.12458833e-02, -9.25000201e-04
    2951, -5.52867640e-03, -2.13251525e-02, -1.00000019e-03
    2952, -5.94853674e-03, -2.10017573e-02, -1.20208200e-03
    2953, -5.86450748e-03, -2.10664804e-02, -1.30814800e-03
    2954, -5.78047821e-03, -2.11312035e-02, -1.41421400e-03
    2955, -3.93732916e-03, -1.86016547e-02,  8.50000209e-04
    2956, -3.82768429e-03, -1.86713182e-02,  9.25000201e-04
    2957, -3.71803943e-03, -1.87409817e-02,  1.00000019e-03
    2958, -3.79398425e-03, -1.86927297e-02,  4.39992448e-04
    2959, -3.67169129e-03, -1.87704292e-02,  4.78815302e-04
    2960, -3.54939832e-03, -1.88481287e-02,  5.17638156e-04
    2961, -3.74509198e-03, -1.87237937e-02,  9.25185854e-20
    2962, -3.61848498e-03, -1.88042341e-02,  1.38777878e-19
    2963, -3.49187798e-03, -1.88846746e-02,  2.22044605e-19
    2964, -3.79398425e-03, -1.86927297e-02, -4.39992448e-04
    2965, -3.67169129e-03, -1.87704292e-02, -4.78815302e-04
    2966, -3.54939832e-03, -1.88481287e-02, -5.17638156e-04
    2967, -3.93732916e-03, -1.86016547e-02, -8.50000209e-04
    2968, -3.82768429e-03, -1.86713182e-02, -9.25000201e-04
    2969, -3.71803943e-03, -1.87409817e-02, -1.00000019e-03
    2970, -4.16535801e-03, -1.84567753e-02, -1.20208200e-03
    2971, -4.07583336e-03, -1.85136553e-02, -1.30814800e-03
    2972, -3.98630870e-03, -1.85705353e-02, -1.41421400e-03
    2973, -2.37883341e-03, -1.58850486e-02,  8.50000209e-04
    2974, -2.26335195e-03, -1.59445383e-02,  9.25000201e-04
    2975, -2.14787049e-03, -1.60040281e-02,  1.00000019e-03
    2976, -2.22785799e-03, -1.59628229e-02,  4.39992448e-04
    2977, -2.09905516e-03, -1.60291751e-02,  4.78815302e-04
    2978, -1.97025232e-03, -1.60955273e-02,  5.17638156e-04
    2979, -2.17636310e-03, -1.59893502e-02,  9.25185854e-20
    2980, -2.04301659e-03, -1.60580431e-02,  1.38777878e-19
    2981, -1.90967007e-03, -1.61267359e-02,  2.22044605e-19
    2982, -2.22785799e-03, -1.59628229e-02, -4.39992448e-04
    2983, -2.09905516e-03, -1.60291751e-02, -4.78815302e-04
    2984, -1.97025232e-03, -1.60955273e-02, -5.17638156e-04
    2985, -2.37883341e-03, -1.58850486e-02, -8.50000209e-04
    2986, -2.26335195e-03, -1.59445383e-02, -9.25000201e-04
    2987, -2.14787049e-03, -1.60040281e-02, -1.00000019e-03
    2988, -2.61900063e-03, -1.57613275e-02, -1.20208200e-03
    2989, -2.52471042e-03, -1.58099007e-02, -1.30814800e-03
    2990, -2.43042021e-03, -1.58584739e-02, -1.41421400e-03
    2991, -1.07172334e-03, -1.30389423e-02,  8.50000209e-04
    2992, -9.51346734e-04, -1.30877733e-02,  9.25000201e-04
    2993, -8.30970128e-04, -1.31366043e-02,  1.00000019e-03
    2994, -9.14348227e-04, -1.31027818e-02,  4.39992448e-04
    2995, -7.80085561e-04, -1.31572458e-02,  4.78815302e-04
    2996, -6.45822896e-04, -1.32117097e-02,  5.17638156e-04
    2997, -8.60670514e-04, -1.31245563e-02,  9.25185854e-20
    2998, -7.21671571e-04, -1.31809415e-02,  1.38777878e-19
    2999, -5.82672627e-04, -1.32373268e-02,  2.22044605e-19
    3000, -9.14348227e-04, -1.31027818e-02, -4.39992448e-04
    3001, -7.80085561e-04, -1.31572458e-02, -4.78815302e-04
    3002, -6.45822896e-04, -1.32117097e-02, -5.17638156e-04
    3003, -1.07172334e-03, -1.30389423e-02, -8.50000209e-04
    3004, -9.51346734e-04, -1.30877733e-02, -9.25000201e-04
    3005, -8.30970128e-04, -1.31366043e-02, -1.00000019e-03
    3006, -1.32207102e-03, -1.29373882e-02, -1.20208200e-03
    3007, -1.22378394e-03, -1.29772586e-02, -1.30814800e-03
    3008, -1.12549686e-03, -1.30171289e-02, -1.41421400e-03
    3009, -2.66549597e-05, -1.00865382e-02,  8.50000209e-04
    3010,  9.76354434e-05, -1.01243124e-02,  9.25000201e-04
    3011,  2.21925847e-04, -1.01620867e-02,  1.00000019e-03
    3012,  1.35836881e-04, -1.01359226e-02,  4.39992448e-04
    3013,  2.74464820e-04, -1.01780543e-02,  4.78815302e-04
    3014,  4.13092759e-04, -1.02201859e-02,  5.17638156e-04
    3015,  1.91259814e-04, -1.01527667e-02,  9.25185854e-20
    3016,  3.34778021e-04, -1.01963846e-02,  1.38777878e-19
    3017,  4.78296228e-04, -1.02400025e-02,  2.22044605e-19
    3018,  1.35836881e-04, -1.01359226e-02, -4.39992448e-04
    3019,  2.74464820e-04, -1.01780543e-02, -4.78815302e-04
    3020,  4.13092759e-04, -1.02201859e-02, -5.17638156e-04
    3021, -2.66549597e-05, -1.00865382e-02, -8.50000209e-04
    3022,  9.76354434e-05, -1.01243124e-02, -9.25000201e-04
    3023,  2.21925847e-04, -1.01620867e-02, -1.00000019e-03
    3024, -2.85142177e-04, -1.00079790e-02, -1.20208200e-03
    3025, -1.83659496e-04, -1.00388215e-02, -1.30814800e-03
    3026, -8.21768151e-05, -1.00696640e-02, -1.41421400e-03
    3027,  7.47851992e-04, -7.05190528e-03,  8.50000209e-04
    3028,  8.75042935e-04, -7.07831477e-03,  9.25000201e-04
    3029,  1.00223388e-03, -7.10472426e-03,  1.00000019e-03
    3030,  9.14135871e-04, -7.08643190e-03,  4.39992448e-04
    3031,  1.05599894e-03, -7.11588786e-03,  4.78815302e-04
    3032,  1.19786201e-03, -7.14534382e-03,  5.17638156e-04
    3033,  9.70852198e-04, -7.09820828e-03,  9.25185854e-20
    3034,  1.11771966e-03, -7.12870333e-03,  1.38777878e-19
    3035,  1.26458712e-03, -7.15919839e-03,  2.22044605e-19
    3036,  9.14135871e-04, -7.08643190e-03, -4.39992448e-04
    3037,  1.05599894e-03, -7.11588786e-03, -4.78815302e-04
    3038,  1.19786201e-03, -7.14534382e-03, -5.17638156e-04
    3039,  7.47851992e-04, -7.05190528e-03, -8.50000209e-04
    3040,  8.75042935e-04, -7.07831477e-03, -9.25000201e-04
    3041,  1.00223388e-03, -7.10472426e-03, -1.00000019e-03
    3042,  4.83332510e-04, -6.99698136e-03, -1.20208200e-03
    3043,  5.87183472e-04, -7.01854462e-03, -1.30814800e-03
    3044,  6.91034434e-04, -7.04010788e-03, -1.41421400e-03
    3045,  1.24548348e-03, -3.95978291e-03,  8.50000209e-04
    3046,  1.37453806e-03, -3.97461236e-03,  9.25000201e-04
    3047,  1.50359264e-03, -3.98944180e-03,  1.00000019e-03
    3048,  1.41420379e-03, -3.97917028e-03,  4.39992448e-04
    3049,  1.55814548e-03, -3.99571038e-03,  4.78815302e-04
    3050,  1.70208717e-03, -4.01225048e-03,  5.17638156e-04
    3051,  1.47175114e-03, -3.98578295e-03,  9.25185854e-20
    3052,  1.62077055e-03, -4.00290652e-03,  1.38777878e-19
    3053,  1.76978996e-03, -4.02003009e-03,  2.22044605e-19
    3054,  1.41420379e-03, -3.97917028e-03, -4.39992448e-04
    3055,  1.55814548e-03, -3.99571038e-03, -4.78815302e-04
    3056,  1.70208717e-03, -4.01225048e-03, -5.17638156e-04
    3057,  1.24548348e-03, -3.95978291e-03, -8.50000209e-04
    3058,  1.37453806e-03, -3.97461236e-03, -9.25000201e-04
    3059,  1.50359264e-03, -3.98944180e-03, -1.00000019e-03
    3060,  9.77088180e-04, -3.92894206e-03, -1.20208200e-03
    3061,  1.08246080e-03, -3.94105025e-03, -1.30814800e-03
    3062,  1.18783341e-03, -3.95315844e-03, -1.41421400e-03
    3063,  1.46218263e-03, -8.35379076e-04,  8.50000209e-04
    3064,  1.59204876e-03, -8.38507584e-04,  9.25000201e-04
    3065,  1.72191488e-03, -8.41636091e-04,  1.00000019e-03
    3066,  1.63196393e-03, -8.39469150e-04,  4.39992448e-04
    3067,  1.77681077e-03, -8.42958546e-04,  4.78815302e-04
    3068,  1.92165762e-03, -8.46447943e-04,  5.17638156e-04
    3069,  1.68987316e-03, -8.40864198e-04,  9.25185854e-20
    3070,  1.83982965e-03, -8.44476687e-04,  1.38777878e-19
    3071,  1.98978614e-03, -8.48089176e-04,  2.22044605e-19
    3072,  1.63196393e-03, -8.39469150e-04, -4.39992448e-04
    3073,  1.77681077e-03, -8.42958546e-04, -4.78815302e-04
    3074,  1.92165762e-03, -8.46447943e-04, -5.17638156e-04
    3075,  1.46218263e-03, -8.35379076e-04, -8.50000209e-04
    3076,  1.59204876e-03, -8.38507584e-04, -9.25000201e-04
    3077,  1.72191488e-03, -8.41636091e-04, -1.00000019e-03
    3078,  1.19209957e-03, -8.28872708e-04, -1.20208200e-03
    3079,  1.29813481e-03, -8.31427124e-04, -1.30814800e-03
    3080,  1.40417005e-03, -8.33981539e-04, -1.41421400e-03
    3081, -1.27759521e-02, -2.72519047e-02, -1.47224342e-03
    3082, -1.27309521e-02, -2.73119047e-02, -1.60214722e-03
    3083, -1.26859521e-02, -2.73719047e-02, -1.73205102e-03
    3084, -1.30219567e-02, -2.69238985e-02, -1.64207397e-03
    3085, -1.29986630e-02, -2.69549568e-02, -1.78696284e-03
    3086, -1.29753693e-02, -2.69860151e-02, -1.93185171e-03
    3087, -1.32859522e-02, -2.65719046e-02, -1.70000000e-03
    3088, -1.32859522e-02, -2.65719046e-02, -1.85000000e-03
    3089, -1.32859522e-02, -2.65719046e-02, -2.00000000e-03
    3090, -1.35499477e-02, -2.62199106e-02, -1.64207397e-03
    3091, -1.35732414e-02, -2.61888523e-02, -1.78696284e-03
    3092, -1.35965351e-02, -2.61577941e-02, -1.93185171e-03
    3093, -1.37959523e-02, -2.58919044e-02, -1.47224342e-03
    3094, -1.38409523e-02, -2.58319044e-02, -1.60214722e-03
    3095, -1.38859523e-02, -2.57719044e-02, -1.73205102e-03
    3096, -1.40072014e-02, -2.56102390e-02, -1.20208200e-03
    3097, -1.40708410e-02, -2.55253862e-02, -1.30814800e-03
    3098, -1.41344806e-02, -2.54405334e-02, -1.41421400e-03
    3099, -1.04011916e-02, -2.52972667e-02, -1.47224342e-03
    3100, -1.03509631e-02, -2.53529632e-02, -1.60214722e-03
    3101, -1.03007346e-02, -2.54086597e-02, -1.73205102e-03
    3102, -1.06757790e-02, -2.49927867e-02, -1.64207397e-03
    3103, -1.06497789e-02, -2.50216173e-02, -1.78696284e-03
    3104, -1.06237787e-02, -2.50504480e-02, -1.93185171e-03
    3105, -1.09704476e-02, -2.46660394e-02, -1.70000000e-03
    3106, -1.09704476e-02, -2.46660394e-02, -1.85000000e-03
    3107, -1.09704476e-02, -2.46660394e-02, -2.00000000e-03
    3108, -1.12651162e-02, -2.43392922e-02, -1.64207397e-03
    3109, -1.12911164e-02, -2.43104616e-02, -1.78696284e-03
    3110, -1.13171166e-02, -2.42816309e-02, -1.93185171e-03
    3111, -1.15397037e-02, -2.40348122e-02, -1.47224342e-03
    3112, -1.15899322e-02, -2.39791157e-02, -1.60214722e-03
    3113, -1.16401606e-02, -2.39234192e-02, -1.73205102e-03
    3114, -1.17754974e-02, -2.37733491e-02, -1.20208200e-03
    3115, -1.18465312e-02, -2.36945824e-02, -1.30814800e-03
    3116, -1.19175650e-02, -2.36158156e-02, -1.41421400e-03
    3117, -8.21241582e-03, -2.31363970e-02, -1.47224342e-03
    3118, -8.15736838e-03, -2.31873359e-02, -1.60214722e-03
    3119, -8.10232093e-03, -2.32382749e-02, -1.73205102e-03
    3120, -8.51334758e-03, -2.28579254e-02, -1.64207397e-03
    3121, -8.48485293e-03, -2.28842933e-02, -1.78696284e-03
    3122, -8.45635827e-03, -2.29106612e-02, -1.93185171e-03
    3123, -8.83628709e-03, -2.25590886e-02, -1.70000000e-03
    3124, -8.83628709e-03, -2.25590886e-02, -1.85000000e-03
    3125, -8.83628709e-03, -2.25590886e-02, -2.00000000e-03
    3126, -9.15922659e-03, -2.22602518e-02, -1.64207397e-03
    3127, -9.18772125e-03, -2.22338838e-02, -1.78696284e-03
    3128, -9.21621590e-03, -2.22075159e-02, -1.93185171e-03
    3129, -9.46015836e-03, -2.19817802e-02, -1.47224342e-03
    3130, -9.51520580e-03, -2.19308412e-02, -1.60214722e-03
    3131, -9.57025324e-03, -2.18799022e-02, -1.73205102e-03
    3132, -9.71857443e-03, -2.17426511e-02, -1.20208200e-03
    3133, -9.79642326e-03, -2.16706125e-02, -1.30814800e-03
    3134, -9.87427210e-03, -2.15985739e-02, -1.41421400e-03
    3135, -6.22746848e-03, -2.07869116e-02, -1.47224342e-03
    3136, -6.16805081e-03, -2.08326778e-02, -1.60214722e-03
    3137, -6.10863315e-03, -2.08784439e-02, -1.73205102e-03
    3138, -6.55229123e-03, -2.05367186e-02, -1.64207397e-03
    3139, -6.52153438e-03, -2.05604089e-02, -1.78696284e-03
    3140, -6.49077754e-03, -2.05840992e-02, -1.93185171e-03
    3141, -6.90086893e-03, -2.02682285e-02, -1.70000000e-03
    3142, -6.90086893e-03, -2.02682285e-02, -1.85000000e-03
    3143, -6.90086893e-03, -2.02682285e-02, -2.00000000e-03
    3144, -7.24944662e-03, -1.99997384e-02, -1.64207397e-03
    3145, -7.28020347e-03, -1.99760481e-02, -1.78696284e-03
    3146, -7.31096031e-03, -1.99523578e-02, -1.93185171e-03
    3147, -7.57426937e-03, -1.97495454e-02, -1.47224342e-03
    3148, -7.63368704e-03, -1.97037792e-02, -1.60214722e-03
    3149, -7.69310470e-03, -1.96580131e-02, -1.73205102e-03
    3150, -7.85320111e-03, -1.95346997e-02, -1.20208200e-03
    3151, -7.93723038e-03, -1.94699766e-02, -1.30814800e-03
    3152, -8.02125964e-03, -1.94052535e-02, -1.41421400e-03
    3153, -4.46253147e-03, -1.82679645e-02, -1.47224342e-03
    3154, -4.39922798e-03, -1.83081847e-02, -1.60214722e-03
    3155, -4.33592449e-03, -1.83484050e-02, -1.73205102e-03
    3156, -4.80859716e-03, -1.80480898e-02, -1.64207397e-03
    3157, -4.77582886e-03, -1.80689093e-02, -1.78696284e-03
    3158, -4.74306056e-03, -1.80897288e-02, -1.93185171e-03
    3159, -5.17997132e-03, -1.78121351e-02, -1.70000000e-03
    3160, -5.17997132e-03, -1.78121351e-02, -1.85000000e-03
    3161, -5.17997132e-03, -1.78121351e-02, -2.00000000e-03
    3162, -5.55134548e-03, -1.75761805e-02, -1.64207397e-03
    3163, -5.58411378e-03, -1.75553610e-02, -1.78696284e-03
    3164, -5.61688208e-03, -1.75345415e-02, -1.93185171e-03
    3165, -5.89741116e-03, -1.73563057e-02, -1.47224342e-03
    3166, -5.96071466e-03, -1.73160855e-02, -1.60214722e-03
    3167, -6.02401815e-03, -1.72758653e-02, -1.73205102e-03
    3168, -6.19458463e-03, -1.71674949e-02, -1.20208200e-03
    3169, -6.28410928e-03, -1.71106150e-02, -1.30814800e-03
    3170, -6.37363393e-03, -1.70537350e-02, -1.41421400e-03
    3171, -2.93199316e-03, -1.56000909e-02, -1.47224342e-03
    3172, -2.86531991e-03, -1.56344373e-02, -1.60214722e-03
    3173, -2.79864667e-03, -1.56687837e-02, -1.73205102e-03
    3174, -3.29648053e-03, -1.54123269e-02, -1.64207397e-03
    3175, -3.26196792e-03, -1.54301059e-02, -1.78696284e-03
    3176, -3.22745530e-03, -1.54478849e-02, -1.93185171e-03
    3177, -3.68762360e-03, -1.52108313e-02, -1.70000000e-03
    3178, -3.68762360e-03, -1.52108313e-02, -1.85000000e-03
    3179, -3.68762360e-03, -1.52108313e-02, -2.00000000e-03
    3180, -4.07876666e-03, -1.50093358e-02, -1.64207397e-03
    3181, -4.11327927e-03, -1.49915567e-02, -1.78696284e-03
    3182, -4.14779189e-03, -1.49737777e-02, -1.93185171e-03
    3183, -4.44325403e-03, -1.48215718e-02, -1.47224342e-03
    3184, -4.50992728e-03, -1.47872253e-02, -1.60214722e-03
    3185, -4.57660053e-03, -1.47528789e-02, -1.73205102e-03
    3186, -4.75624656e-03, -1.46603351e-02, -1.20208200e-03
    3187, -4.85053677e-03, -1.46117619e-02, -1.30814800e-03
    3188, -4.94482698e-03, -1.45631887e-02, -1.41421400e-03
    3189, -1.64833100e-03, -1.28050401e-02, -1.47224342e-03
    3190, -1.57883154e-03, -1.28332327e-02, -1.60214722e-03
    3191, -1.50933207e-03, -1.28614253e-02, -1.73205102e-03
    3192, -2.02826864e-03, -1.26509176e-02, -1.64207397e-03
    3193, -1.99229307e-03, -1.26655111e-02, -1.78696284e-03
    3194, -1.95631750e-03, -1.26801047e-02, -1.93185171e-03
    3195, -2.43599187e-03, -1.24855238e-02, -1.70000000e-03
    3196, -2.43599187e-03, -1.24855238e-02, -1.85000000e-03
    3197, -2.43599187e-03, -1.24855238e-02, -2.00000000e-03
    3198, -2.84371511e-03, -1.23201299e-02, -1.64207397e-03
    3199, -2.87969068e-03, -1.23055364e-02, -1.78696284e-03
    3200, -2.91566625e-03, -1.22909428e-02, -1.93185171e-03
    3201, -3.22365275e-03, -1.21660074e-02, -1.47224342e-03
    3202, -3.29315221e-03, -1.21378148e-02, -1.60214722e-03
    3203, -3.36265167e-03, -1.21096222e-02, -1.73205102e-03
    3204, -3.54991273e-03, -1.20336593e-02, -1.20208200e-03
    3205, -3.64819981e-03, -1.19937890e-02, -1.30814800e-03
    3206, -3.74648689e-03, -1.19539186e-02, -1.41421400e-03
    3207, -6.22009826e-04, -9.90559842e-03, -1.47224342e-03
    3208, -5.50250731e-04, -9.92740739e-03, -1.60214722e-03
    3209, -4.78491638e-04, -9.94921635e-03, -1.73205102e-03
    3210, -1.01430035e-03, -9.78637381e-03, -1.64207397e-03
    3211, -9.77155109e-04, -9.79766296e-03, -1.78696284e-03
    3212, -9.40009866e-04, -9.80895211e-03, -1.93185171e-03
    3213, -1.43527987e-03, -9.65843006e-03, -1.70000000e-03
    3214, -1.43527987e-03, -9.65843006e-03, -1.85000000e-03
    3215, -1.43527987e-03, -9.65843006e-03, -2.00000000e-03
    3216, -1.85625938e-03, -9.53048632e-03, -1.64207397e-03
    3217, -1.89340462e-03, -9.51919717e-03, -1.78696284e-03
    3218, -1.93054987e-03, -9.50790801e-03, -1.93185171e-03
    3219, -2.24854991e-03, -9.41126171e-03, -1.47224342e-03
    3220, -2.32030900e-03, -9.38945274e-03, -1.60214722e-03
    3221, -2.39206810e-03, -9.36764378e-03, -1.73205102e-03
    3222, -2.58541756e-03, -9.30888117e-03, -1.20208200e-03
    3223, -2.68690024e-03, -9.27803864e-03, -1.30814800e-03
    3224, -2.78838292e-03, -9.24719610e-03, -1.41421400e-03
    3225,  1.38603448e-04, -6.92540301e-03, -1.47224342e-03
    3226,  2.12037172e-04, -6.94065053e-03, -1.60214722e-03
    3227,  2.85470892e-04, -6.95589806e-03, -1.73205102e-03
    3228, -2.62841882e-04, -6.84204827e-03, -1.64207397e-03
    3229, -2.24829788e-04, -6.84994098e-03, -1.78696284e-03
    3230, -1.86817695e-04, -6.85783368e-03, -1.93185171e-03
    3231, -6.93645711e-04, -6.75259765e-03, -1.70000000e-03
    3232, -6.93645711e-04, -6.75259765e-03, -1.85000000e-03
    3233, -6.93645711e-04, -6.75259765e-03, -2.00000000e-03
    3234, -1.12444954e-03, -6.66314702e-03, -1.64207397e-03
    3235, -1.16246163e-03, -6.65525432e-03, -1.78696284e-03
    3236, -1.20047373e-03, -6.64736162e-03, -1.93185171e-03
    3237, -1.52589487e-03, -6.57979229e-03, -1.47224342e-03
    3238, -1.59932859e-03, -6.56454476e-03, -1.60214722e-03
    3239, -1.67276231e-03, -6.54929724e-03, -1.73205102e-03
    3240, -1.87062393e-03, -6.50821393e-03, -1.20208200e-03
    3241, -1.97447489e-03, -6.48665067e-03, -1.30814800e-03
    3242, -2.07832586e-03, -6.46508741e-03, -1.41421400e-03
    3243,  6.27308051e-04, -3.88874941e-03, -1.47224342e-03
    3244,  7.01817746e-04, -3.89731119e-03, -1.60214722e-03
    3245,  7.76327438e-04, -3.90587297e-03, -1.73205102e-03
    3246,  2.19980632e-04, -3.84194409e-03, -1.64207397e-03
    3247,  2.58549689e-04, -3.84637600e-03, -1.78696284e-03
    3248,  2.97118747e-04, -3.85080790e-03, -1.93185171e-03
    3249, -2.17135456e-04, -3.79171581e-03, -1.70000000e-03
    3250, -2.17135456e-04, -3.79171581e-03, -1.85000000e-03
    3251, -2.17135456e-04, -3.79171581e-03, -2.00000000e-03
    3252, -6.54251544e-04, -3.74148753e-03, -1.64207397e-03
    3253, -6.92820601e-04, -3.73705563e-03, -1.78696284e-03
    3254, -7.31389659e-04, -3.73262372e-03, -1.93185171e-03
    3255, -1.06157896e-03, -3.69468222e-03, -1.47224342e-03
    3256, -1.13608866e-03, -3.68612043e-03, -1.60214722e-03
    3257, -1.21059835e-03, -3.67755865e-03, -1.73205102e-03
    3258, -1.41135909e-03, -3.65448957e-03, -1.20208200e-03
    3259, -1.51673171e-03, -3.64238138e-03, -1.30814800e-03
    3260, -1.62210432e-03, -3.63027319e-03, -1.41421400e-03
    3261,  8.40119901e-04, -8.20393431e-04, -1.47224342e-03
    3262,  9.15098140e-04, -8.22199675e-04, -1.60214722e-03
    3263,  9.90076376e-04, -8.24005919e-04, -1.73205102e-03
    3264,  4.30231061e-04, -8.10519107e-04, -1.64207397e-03
    3265,  4.69042654e-04, -8.11454087e-04, -1.78696284e-03
    3266,  5.07854248e-04, -8.12389068e-04, -1.93185171e-03
    3267, -9.63377023e-06, -7.99922653e-04, -1.70000000e-03
    3268, -9.63377023e-06, -7.99922653e-04, -1.85000000e-03
    3269, -9.63377023e-06, -7.99922653e-04, -2.00000000e-03
    3270, -4.49498601e-04, -7.89326200e-04, -1.64207397e-03
    3271, -4.88310195e-04, -7.88391219e-04, -1.78696284e-03
    3272, -5.27121788e-04, -7.87456239e-04, -1.93185171e-03
    3273, -8.59387442e-04, -7.79451876e-04, -1.47224342e-03
    3274, -9.34365681e-04, -7.77645632e-04, -1.60214722e-03
    3275, -1.00934392e-03, -7.75839388e-04, -1.73205102e-03
    3276, -1.21136711e-03, -7.70972599e-04, -1.20208200e-03
    3277, -1.31740235e-03, -7.68418183e-04, -1.30814800e-03
    3278, -1.42343759e-03, -7.65863768e-04, -1.41421400e-03
    3279, -1.41692982e-02, -2.53941098e-02, -8.50000209e-04
    3280, -1.42472405e-02, -2.52901868e-02, -9.25000201e-04
    3281, -1.43251828e-02, -2.51862638e-02, -1.00000019e-03
    3282, -1.42711966e-02, -2.52582454e-02, -4.39992448e-04
    3283, -1.43581299e-02, -2.51423343e-02, -4.78815302e-04
    3284, -1.44450632e-02, -2.50264232e-02, -5.17638156e-04
    3285, -1.43059522e-02, -2.52119046e-02, -9.25185854e-20
    3286, -1.43959522e-02, -2.50919046e-02, -1.38777878e-19
    3287, -1.44859522e-02, -2.49719046e-02, -2.22044605e-19
    3288, -1.42711966e-02, -2.52582454e-02,  4.39992448e-04
    3289, -1.43581299e-02, -2.51423343e-02,  4.78815302e-04
    3290, -1.44450632e-02, -2.50264232e-02,  5.17638156e-04
    3291, -1.41692982e-02, -2.53941098e-02,  8.50000209e-04
    3292, -1.42472405e-02, -2.52901868e-02,  9.25000201e-04
    3293, -1.43251828e-02, -2.51862638e-02,  1.00000019e-03
    3294, -1.19564280e-02, -2.35727218e-02, -8.50000209e-04
    3295, -1.20434263e-02, -2.34762526e-02, -9.25000201e-04
    3296, -1.21304245e-02, -2.33797835e-02, -1.00000019e-03
    3297, -1.20701657e-02, -2.34466022e-02, -4.39992448e-04
    3298, -1.21671997e-02, -2.33390048e-02, -4.78815302e-04
    3299, -1.22642336e-02, -2.32314075e-02, -5.17638156e-04
    3300, -1.21089595e-02, -2.34035852e-02, -9.25185854e-20
    3301, -1.22094164e-02, -2.32921922e-02, -1.38777878e-19
    3302, -1.23098734e-02, -2.31807992e-02, -2.22044605e-19
    3303, -1.20701657e-02, -2.34466022e-02,  4.39992448e-04
    3304, -1.21671997e-02, -2.33390048e-02,  4.78815302e-04
    3305, -1.22642336e-02, -2.32314075e-02,  5.17638156e-04
    3306, -1.19564280e-02, -2.35727218e-02,  8.50000209e-04
    3307, -1.20434263e-02, -2.34762526e-02,  9.25000201e-04
    3308, -1.21304245e-02, -2.33797835e-02,  1.00000019e-03
    3309, -9.91686373e-03, -2.15591612e-02, -8.50000209e-04
    3310, -1.00122087e-02, -2.14709323e-02, -9.25000201e-04
    3311, -1.01075537e-02, -2.13827034e-02, -1.00000019e-03
    3312, -1.00415136e-02, -2.14438146e-02, -4.39992448e-04
    3313, -1.01478571e-02, -2.13454081e-02, -4.78815302e-04
    3314, -1.02542006e-02, -2.12470015e-02, -5.17638156e-04
    3315, -1.00840293e-02, -2.14044720e-02, -9.25185854e-20
    3316, -1.01941242e-02, -2.13025941e-02, -1.38777878e-19
    3317, -1.03042191e-02, -2.12007162e-02, -2.22044605e-19
    3318, -1.00415136e-02, -2.14438146e-02,  4.39992448e-04
    3319, -1.01478571e-02, -2.13454081e-02,  4.78815302e-04
    3320, -1.02542006e-02, -2.12470015e-02,  5.17638156e-04
    3321, -9.91686373e-03, -2.15591612e-02,  8.50000209e-04
    3322, -1.00122087e-02, -2.14709323e-02,  9.25000201e-04
    3323, -1.01075537e-02, -2.13827034e-02,  1.00000019e-03
    3324, -8.06723261e-03, -1.93698430e-02, -8.50000209e-04
    3325, -8.17014703e-03, -1.92905738e-02, -9.25000201e-04
    3326, -8.27306145e-03, -1.92113045e-02, -1.00000019e-03
    3327, -8.20177843e-03, -1.92662098e-02, -4.39992448e-04
    3328, -8.31656455e-03, -1.91777964e-02, -4.78815302e-04
    3329, -8.43135067e-03, -1.90893830e-02, -5.17638156e-04
    3330, -8.24766949e-03, -1.92308625e-02, -9.25185854e-20
    3331, -8.36650483e-03, -1.91393302e-02, -1.38777878e-19
    3332, -8.48534018e-03, -1.90477979e-02, -2.22044605e-19
    3333, -8.20177843e-03, -1.92662098e-02,  4.39992448e-04
    3334, -8.31656455e-03, -1.91777964e-02,  4.78815302e-04
    3335, -8.43135067e-03, -1.90893830e-02,  5.17638156e-04
    3336, -8.06723261e-03, -1.93698430e-02,  8.50000209e-04
    3337, -8.17014703e-03, -1.92905738e-02,  9.25000201e-04
    3338, -8.27306145e-03, -1.92113045e-02,  1.00000019e-03
    3339, -6.42261347e-03, -1.70226155e-02, -8.50000209e-04
    3340, -6.53225834e-03, -1.69529521e-02, -9.25000201e-04
    3341, -6.64190321e-03, -1.68832886e-02, -1.00000019e-03
    3342, -6.56595838e-03, -1.69315406e-02, -4.39992448e-04
    3343, -6.68825135e-03, -1.68538411e-02, -4.78815302e-04
    3344, -6.81054432e-03, -1.67761415e-02, -5.17638156e-04
    3345, -6.61485066e-03, -1.69004766e-02, -9.25185854e-20
    3346, -6.74145766e-03, -1.68200361e-02, -1.38777878e-19
    3347, -6.86806466e-03, -1.67395957e-02, -2.22044605e-19
    3348, -6.56595838e-03, -1.69315406e-02,  4.39992448e-04
    3349, -6.68825135e-03, -1.68538411e-02,  4.78815302e-04
    3350, -6.81054432e-03, -1.67761415e-02,  5.17638156e-04
    3351, -6.42261347e-03, -1.70226155e-02,  8.50000209e-04
    3352, -6.53225834e-03, -1.69529521e-02,  9.25000201e-04
    3353, -6.64190321e-03, -1.68832886e-02,  1.00000019e-03
    3354, -4.99641379e-03, -1.45366140e-02, -8.50000209e-04
    3355, -5.11189525e-03, -1.44771243e-02, -9.25000201e-04
    3356, -5.22737671e-03, -1.44176346e-02, -1.00000019e-03
    3357, -5.14738920e-03, -1.44588397e-02, -4.39992448e-04
    3358, -5.27619204e-03, -1.43924876e-02, -4.78815302e-04
    3359, -5.40499488e-03, -1.43261354e-02, -5.17638156e-04
    3360, -5.19888409e-03, -1.44323124e-02, -9.25185854e-20
    3361, -5.33223061e-03, -1.43636195e-02, -1.38777878e-19
    3362, -5.46557712e-03, -1.42949267e-02, -2.22044605e-19
    3363, -5.14738920e-03, -1.44588397e-02,  4.39992448e-04
    3364, -5.27619204e-03, -1.43924876e-02,  4.78815302e-04
    3365, -5.40499488e-03, -1.43261354e-02,  5.17638156e-04
    3366, -4.99641379e-03, -1.45366140e-02,  8.50000209e-04
    3367, -5.11189525e-03, -1.44771243e-02,  9.25000201e-04
    3368, -5.22737671e-03, -1.44176346e-02,  1.00000019e-03
    3369, -3.80026041e-03, -1.19321052e-02, -8.50000209e-04
    3370, -3.92063701e-03, -1.18832742e-02, -9.25000201e-04
    3371, -4.04101362e-03, -1.18344432e-02, -1.00000019e-03
    3372, -3.95763552e-03, -1.18682657e-02, -4.39992448e-04
    3373, -4.09189819e-03, -1.18138017e-02, -4.78815302e-04
    3374, -4.22616085e-03, -1.17593378e-02, -5.17638156e-04
    3375, -4.01131323e-03, -1.18464912e-02, -9.25185854e-20
    3376, -4.15031218e-03, -1.17901060e-02, -1.38777878e-19
    3377, -4.28931112e-03, -1.17337207e-02, -2.22044605e-19
    3378, -3.95763552e-03, -1.18682657e-02,  4.39992448e-04
    3379, -4.09189819e-03, -1.18138017e-02,  4.78815302e-04
    3380, -4.22616085e-03, -1.17593378e-02,  5.17638156e-04
    3381, -3.80026041e-03, -1.19321052e-02,  8.50000209e-04
    3382, -3.92063701e-03, -1.18832742e-02,  9.25000201e-04
    3383, -4.04101362e-03, -1.18344432e-02,  1.00000019e-03
    3384, -2.84390477e-03, -9.23032195e-03, -8.50000209e-04
    3385, -2.96819518e-03, -9.19254771e-03, -9.25000201e-04
    3386, -3.09248558e-03, -9.15477347e-03, -1.00000019e-03
    3387, -3.00639661e-03, -9.18093756e-03, -4.39992448e-04
    3388, -3.14502455e-03, -9.13880587e-03, -4.78815302e-04
    3389, -3.28365249e-03, -9.09667418e-03, -5.17638156e-04
    3390, -3.06181955e-03, -9.16409347e-03, -9.25185854e-20
    3391, -3.20533775e-03, -9.12047553e-03, -1.38777878e-19
    3392, -3.34885596e-03, -9.07685760e-03, -2.22044605e-19
    3393, -3.00639661e-03, -9.18093756e-03,  4.39992448e-04
    3394, -3.14502455e-03, -9.13880587e-03,  4.78815302e-04
    3395, -3.28365249e-03, -9.09667418e-03,  5.17638156e-04
    3396, -2.84390477e-03, -9.23032195e-03,  8.50000209e-04
    3397, -2.96819518e-03, -9.19254771e-03,  9.25000201e-04
    3398, -3.09248558e-03, -9.15477347e-03,  1.00000019e-03
    3399, -2.13514341e-03, -6.45329001e-03, -8.50000209e-04
    3400, -2.26233436e-03, -6.42688052e-03, -9.25000201e-04
    3401, -2.38952530e-03, -6.40047103e-03, -1.00000019e-03
    3402, -2.30142729e-03, -6.41876340e-03, -4.39992448e-04
    3403, -2.44329037e-03, -6.38930744e-03, -4.78815302e-04
    3404, -2.58515344e-03, -6.35985147e-03, -5.17638156e-04
    3405, -2.35814362e-03, -6.40698701e-03, -9.25185854e-20
    3406, -2.50501108e-03, -6.37649196e-03, -1.38777878e-19
    3407, -2.65187855e-03, -6.34599690e-03, -2.22044605e-19
    3408, -2.30142729e-03, -6.41876340e-03,  4.39992448e-04
    3409, -2.44329037e-03, -6.38930744e-03,  4.78815302e-04
    3410, -2.58515344e-03, -6.35985147e-03,  5.17638156e-04
    3411, -2.13514341e-03, -6.45329001e-03,  8.50000209e-04
    3412, -2.26233436e-03, -6.42688052e-03,  9.25000201e-04
    3413, -2.38952530e-03, -6.40047103e-03,  1.00000019e-03
    3414, -1.67975439e-03, -3.62364871e-03, -8.50000209e-04
    3415, -1.80880897e-03, -3.60881927e-03, -9.25000201e-04
    3416, -1.93786355e-03, -3.59398982e-03, -1.00000019e-03
    3417, -1.84847470e-03, -3.60426134e-03, -4.39992448e-04
    3418, -1.99241639e-03, -3.58772125e-03, -4.78815302e-04
    3419, -2.13635808e-03, -3.57118115e-03, -5.17638156e-04
    3420, -1.90602206e-03, -3.59764867e-03, -9.25185854e-20
    3421, -2.05504146e-03, -3.58052510e-03, -1.38777878e-19
    3422, -2.20406087e-03, -3.56340153e-03, -2.22044605e-19
    3423, -1.84847470e-03, -3.60426134e-03,  4.39992448e-04
    3424, -1.99241639e-03, -3.58772125e-03,  4.78815302e-04
    3425, -2.13635808e-03, -3.57118115e-03,  5.17638156e-04
    3426, -1.67975439e-03, -3.62364871e-03,  8.50000209e-04
    3427, -1.80880897e-03, -3.60881927e-03,  9.25000201e-04
    3428, -1.93786355e-03, -3.59398982e-03,  1.00000019e-03
    3429, -1.48145018e-03, -7.64466231e-04, -8.50000209e-04
    3430, -1.61131630e-03, -7.61337723e-04, -9.25000201e-04
    3431, -1.74118242e-03, -7.58209216e-04, -1.00000019e-03
    3432, -1.65123147e-03, -7.60376157e-04, -4.39992448e-04
    3433, -1.79607831e-03, -7.56886761e-04, -4.78815302e-04
    3434, -1.94092516e-03, -7.53397364e-04, -5.17638156e-04
    3435, -1.70914070e-03, -7.58981109e-04, -9.25185854e-20
    3436, -1.85909719e-03, -7.55368620e-04, -1.38777878e-19
    3437, -2.00905368e-03, -7.51756131e-04, -2.22044605e-19
    3438, -1.65123147e-03, -7.60376157e-04,  4.39992448e-04
    3439, -1.79607831e-03, -7.56886761e-04,  4.78815302e-04
    3440, -1.94092516e-03, -7.53397364e-04,  5.17638156e-04
    3441, -1.48145018e-03, -7.64466231e-04,  8.50000209e-04
    3442, -1.61131630e-03, -7.61337723e-04,  9.25000201e-04
    3443, -1.74118242e-03, -7.58209216e-04,  1.00000019e-03
    3444, -1.41839780e-02, -2.53745368e-02,  1.49670967e-03
    3445, -1.42334754e-02, -2.53085403e-02,  1.57920533e-03
    3446, -1.42829728e-02, -2.52425438e-02,  1.66170100e-03
    3447, -1.39209523e-02, -2.57252378e-02,  1.83308726e-03
    3448, -1.39559522e-02, -2.56785712e-02,  1.93412349e-03
    3449, -1.39909522e-02, -2.56319046e-02,  2.03515973e-03
    3450, -1.36146524e-02, -2.61336376e-02,  2.04454304e-03
    3451, -1.36327697e-02, -2.61094812e-02,  2.15723437e-03
    3452, -1.36508870e-02, -2.60853248e-02,  2.26992570e-03
    3453, -1.32859522e-02, -2.65719046e-02,  2.11666667e-03
    3454, -1.32859522e-02, -2.65719046e-02,  2.23333333e-03
    3455, -1.32859522e-02, -2.65719046e-02,  2.35000000e-03
    3456, -1.29572520e-02, -2.70101715e-02,  2.04454304e-03
    3457, -1.29391346e-02, -2.70343280e-02,  2.15723437e-03
    3458, -1.29210173e-02, -2.70584844e-02,  2.26992570e-03
    3459, -1.26509521e-02, -2.74185714e-02,  1.83308726e-03
    3460, -1.26159521e-02, -2.74652380e-02,  1.93412349e-03
    3461, -1.25809522e-02, -2.75119046e-02,  2.03515973e-03
    3462, -1.23879264e-02, -2.77692723e-02,  1.49670967e-03
    3463, -1.23384290e-02, -2.78352688e-02,  1.57920533e-03
    3464, -1.22889316e-02, -2.79012654e-02,  1.66170100e-03
    3465, -1.19728134e-02, -2.35545527e-02,  1.49670967e-03
    3466, -1.20280618e-02, -2.34932898e-02,  1.57920533e-03
    3467, -1.20833102e-02, -2.34320268e-02,  1.66170100e-03
    3468, -1.16792272e-02, -2.38800997e-02,  1.83308726e-03
    3469, -1.17182937e-02, -2.38367802e-02,  1.93412349e-03
    3470, -1.17573603e-02, -2.37934608e-02,  2.03515973e-03
    3471, -1.13373389e-02, -2.42592071e-02,  2.04454304e-03
    3472, -1.13575613e-02, -2.42367833e-02,  2.15723437e-03
    3473, -1.13777836e-02, -2.42143595e-02,  2.26992570e-03
    3474, -1.09704476e-02, -2.46660394e-02,  2.11666667e-03
    3475, -1.09704476e-02, -2.46660394e-02,  2.23333333e-03
    3476, -1.09704476e-02, -2.46660394e-02,  2.35000000e-03
    3477, -1.06035564e-02, -2.50728718e-02,  2.04454304e-03
    3478, -1.05833340e-02, -2.50952956e-02,  2.15723437e-03
    3479, -1.05631117e-02, -2.51177194e-02,  2.26992570e-03
    3480, -1.02616681e-02, -2.54519792e-02,  1.83308726e-03
    3481, -1.02226015e-02, -2.54952987e-02,  1.93412349e-03
    3482, -1.01835350e-02, -2.55386181e-02,  2.03515973e-03
    3483, -9.96808191e-03, -2.57775262e-02,  1.49670967e-03
    3484, -9.91283350e-03, -2.58387891e-02,  1.57920533e-03
    3485, -9.85758509e-03, -2.59000521e-02,  1.66170100e-03
    3486, -9.93482112e-03, -2.15425440e-02,  1.49670967e-03
    3487, -9.99537013e-03, -2.14865141e-02,  1.57920533e-03
    3488, -1.00559192e-02, -2.14304842e-02,  1.66170100e-03
    3489, -9.61306789e-03, -2.18402831e-02,  1.83308726e-03
    3490, -9.65588253e-03, -2.18006639e-02,  1.93412349e-03
    3491, -9.69869718e-03, -2.17610448e-02,  2.03515973e-03
    3492, -9.23837840e-03, -2.21870075e-02,  2.04454304e-03
    3493, -9.26054090e-03, -2.21664991e-02,  2.15723437e-03
    3494, -9.28270340e-03, -2.21459907e-02,  2.26992570e-03
    3495, -8.83628709e-03, -2.25590886e-02,  2.11666667e-03
    3496, -8.83628709e-03, -2.25590886e-02,  2.23333333e-03
    3497, -8.83628709e-03, -2.25590886e-02,  2.35000000e-03
    3498, -8.43419578e-03, -2.29311696e-02,  2.04454304e-03
    3499, -8.41203328e-03, -2.29516780e-02,  2.15723437e-03
    3500, -8.38987078e-03, -2.29721864e-02,  2.26992570e-03
    3501, -8.05950629e-03, -2.32778940e-02,  1.83308726e-03
    3502, -8.01669164e-03, -2.33175132e-02,  1.93412349e-03
    3503, -7.97387700e-03, -2.33571324e-02,  2.03515973e-03
    3504, -7.73775306e-03, -2.35756331e-02,  1.49670967e-03
    3505, -7.67720404e-03, -2.36316630e-02,  1.57920533e-03
    3506, -7.61665503e-03, -2.36876929e-02,  1.66170100e-03
    3507, -8.08661565e-03, -1.93549134e-02,  1.49670967e-03
    3508, -8.15197165e-03, -1.93045733e-02,  1.57920533e-03
    3509, -8.21732766e-03, -1.92542331e-02,  1.66170100e-03
    3510, -7.73931840e-03, -1.96224172e-02,  1.83308726e-03
    3511, -7.78553211e-03, -1.95868214e-02,  1.93412349e-03
    3512, -7.83174581e-03, -1.95512255e-02,  2.03515973e-03
    3513, -7.33488229e-03, -1.99339320e-02,  2.04454304e-03
    3514, -7.35880427e-03, -1.99155062e-02,  2.15723437e-03
    3515, -7.38272625e-03, -1.98970804e-02,  2.26992570e-03
    3516, -6.90086893e-03, -2.02682285e-02,  2.11666667e-03
    3517, -6.90086893e-03, -2.02682285e-02,  2.23333333e-03
    3518, -6.90086893e-03, -2.02682285e-02,  2.35000000e-03
    3519, -6.46685556e-03, -2.06025250e-02,  2.04454304e-03
    3520, -6.44293358e-03, -2.06209508e-02,  2.15723437e-03
    3521, -6.41901160e-03, -2.06393766e-02,  2.26992570e-03
    3522, -6.06241945e-03, -2.09140398e-02,  1.83308726e-03
    3523, -6.01620574e-03, -2.09496356e-02,  1.93412349e-03
    3524, -5.96999204e-03, -2.09852315e-02,  2.03515973e-03
    3525, -5.71512220e-03, -2.11815436e-02,  1.49670967e-03
    3526, -5.64976620e-03, -2.12318838e-02,  1.57920533e-03
    3527, -5.58441019e-03, -2.12822239e-02,  1.66170100e-03
    3528, -6.44326413e-03, -1.70094950e-02,  1.49670967e-03
    3529, -6.51289432e-03, -1.69652551e-02,  1.57920533e-03
    3530, -6.58252451e-03, -1.69210152e-02,  1.66170100e-03
    3531, -6.07325416e-03, -1.72445829e-02,  1.83308726e-03
    3532, -6.12249017e-03, -1.72133006e-02,  1.93412349e-03
    3533, -6.17172618e-03, -1.71820182e-02,  2.03515973e-03
    3534, -5.64236852e-03, -1.75183485e-02,  2.04454304e-03
    3535, -5.66785496e-03, -1.75021555e-02,  2.15723437e-03
    3536, -5.69334141e-03, -1.74859626e-02,  2.26992570e-03
    3537, -5.17997132e-03, -1.78121351e-02,  2.11666667e-03
    3538, -5.17997132e-03, -1.78121351e-02,  2.23333333e-03
    3539, -5.17997132e-03, -1.78121351e-02,  2.35000000e-03
    3540, -4.71757412e-03, -1.81059218e-02,  2.04454304e-03
    3541, -4.69208767e-03, -1.81221147e-02,  2.15723437e-03
    3542, -4.66660123e-03, -1.81383077e-02,  2.26992570e-03
    3543, -4.28668848e-03, -1.83796873e-02,  1.83308726e-03
    3544, -4.23745247e-03, -1.84109697e-02,  1.93412349e-03
    3545, -4.18821646e-03, -1.84422521e-02,  2.03515973e-03
    3546, -3.91667851e-03, -1.86147752e-02,  1.49670967e-03
    3547, -3.84704832e-03, -1.86590151e-02,  1.57920533e-03
    3548, -3.77741813e-03, -1.87032551e-02,  1.66170100e-03
    3549, -5.01816371e-03, -1.45254097e-02,  1.49670967e-03
    3550, -5.09150044e-03, -1.44876306e-02,  1.57920533e-03
    3551, -5.16483717e-03, -1.44498515e-02,  1.66170100e-03
    3552, -4.62845746e-03, -1.47261651e-02,  1.83308726e-03
    3553, -4.68031439e-03, -1.46994512e-02,  1.93412349e-03
    3554, -4.73217132e-03, -1.46727373e-02,  2.03515973e-03
    3555, -4.17463502e-03, -1.49599496e-02,  2.04454304e-03
    3556, -4.20147815e-03, -1.49461215e-02,  2.15723437e-03
    3557, -4.22832128e-03, -1.49322934e-02,  2.26992570e-03
    3558, -3.68762360e-03, -1.52108313e-02,  2.11666667e-03
    3559, -3.68762360e-03, -1.52108313e-02,  2.23333333e-03
    3560, -3.68762360e-03, -1.52108313e-02,  2.35000000e-03
    3561, -3.20061217e-03, -1.54617130e-02,  2.04454304e-03
    3562, -3.17376904e-03, -1.54755411e-02,  2.15723437e-03
    3563, -3.14692591e-03, -1.54893692e-02,  2.26992570e-03
    3564, -2.74678973e-03, -1.56954976e-02,  1.83308726e-03
    3565, -2.69493280e-03, -1.57222114e-02,  1.93412349e-03
    3566, -2.64307587e-03, -1.57489253e-02,  2.03515973e-03
    3567, -2.35708348e-03, -1.58962530e-02,  1.49670967e-03
    3568, -2.28374675e-03, -1.59340320e-02,  1.57920533e-03
    3569, -2.21041002e-03, -1.59718111e-02,  1.66170100e-03
    3570, -3.82293229e-03, -1.19229083e-02,  1.49670967e-03
    3571, -3.89937769e-03, -1.18918981e-02,  1.57920533e-03
    3572, -3.97582310e-03, -1.18608878e-02,  1.66170100e-03
    3573, -3.41670677e-03, -1.20876946e-02,  1.83308726e-03
    3574, -3.47076186e-03, -1.20657670e-02,  1.93412349e-03
    3575, -3.52481696e-03, -1.20438395e-02,  2.03515973e-03
    3576, -2.94364724e-03, -1.22795922e-02,  2.04454304e-03
    3577, -2.97162822e-03, -1.22682417e-02,  2.15723437e-03
    3578, -2.99960921e-03, -1.22568911e-02,  2.26992570e-03
    3579, -2.43599187e-03, -1.24855238e-02,  2.11666667e-03
    3580, -2.43599187e-03, -1.24855238e-02,  2.23333333e-03
    3581, -2.43599187e-03, -1.24855238e-02,  2.35000000e-03
    3582, -1.92833651e-03, -1.26914553e-02,  2.04454304e-03
    3583, -1.90035553e-03, -1.27028058e-02,  2.15723437e-03
    3584, -1.87237454e-03, -1.27141564e-02,  2.26992570e-03
    3585, -1.45527698e-03, -1.28833529e-02,  1.83308726e-03
    3586, -1.40122188e-03, -1.29052805e-02,  1.93412349e-03
    3587, -1.34716679e-03, -1.29272080e-02,  2.03515973e-03
    3588, -1.04905145e-03, -1.30481392e-02,  1.49670967e-03
    3589, -9.72606057e-04, -1.30791494e-02,  1.57920533e-03
    3590, -8.96160651e-04, -1.31101597e-02,  1.66170100e-03
    3591, -2.86731379e-03, -9.22320750e-03,  1.49670967e-03
    3592, -2.94624465e-03, -9.19921890e-03,  1.57920533e-03
    3593, -3.02517552e-03, -9.17523029e-03,  1.66170100e-03
    3594, -2.44788068e-03, -9.35068126e-03,  1.83308726e-03
    3595, -2.50369327e-03, -9.33371875e-03,  1.93412349e-03
    3596, -2.55950585e-03, -9.31675623e-03,  2.03515973e-03
    3597, -1.95944060e-03, -9.49912757e-03,  2.04454304e-03
    3598, -1.98833132e-03, -9.49034712e-03,  2.15723437e-03
    3599, -2.01722205e-03, -9.48156668e-03,  2.26992570e-03
    3600, -1.43527987e-03, -9.65843006e-03,  2.11666667e-03
    3601, -1.43527987e-03, -9.65843006e-03,  2.23333333e-03
    3602, -1.43527987e-03, -9.65843006e-03,  2.35000000e-03
    3603, -9.11119137e-04, -9.81773256e-03,  2.04454304e-03
    3604, -8.82228409e-04, -9.82651300e-03,  2.15723437e-03
    3605, -8.53337680e-04, -9.83529345e-03,  2.26992570e-03
    3606, -4.22679052e-04, -9.96617887e-03,  1.83308726e-03
    3607, -3.66866467e-04, -9.98314138e-03,  1.93412349e-03
    3608, -3.11053882e-04, -1.00001039e-02,  2.03515973e-03
    3609, -3.24594414e-06, -1.00936526e-02,  1.49670967e-03
    3610,  7.56849173e-05, -1.01176412e-02,  1.57920533e-03
    3611,  1.54615788e-04, -1.01416298e-02,  1.66170100e-03
    3612, -2.15909872e-03, -6.44831601e-03,  1.49670967e-03
    3613, -2.23987158e-03, -6.43154461e-03,  1.57920533e-03
    3614, -2.32064444e-03, -6.41477321e-03,  1.66170100e-03
    3615, -1.72987739e-03, -6.53743806e-03,  1.83308726e-03
    3616, -1.78699246e-03, -6.52557888e-03,  1.93412349e-03
    3617, -1.84410753e-03, -6.51371970e-03,  2.03515973e-03
    3618, -1.23003867e-03, -6.64122285e-03,  2.04454304e-03
    3619, -1.25960362e-03, -6.63508409e-03,  2.15723437e-03
    3620, -1.28916857e-03, -6.62894532e-03,  2.26992570e-03
    3621, -6.93645711e-04, -6.75259765e-03,  2.11666667e-03
    3622, -6.93645711e-04, -6.75259765e-03,  2.23333333e-03
    3623, -6.93645711e-04, -6.75259765e-03,  2.35000000e-03
    3624, -1.57252749e-04, -6.86397244e-03,  2.04454304e-03
    3625, -1.27687803e-04, -6.87011120e-03,  2.15723437e-03
    3626, -9.81228575e-05, -6.87624997e-03,  2.26992570e-03
    3627,  3.42585964e-04, -6.96775723e-03,  1.83308726e-03
    3628,  3.99701036e-04, -6.97961641e-03,  1.93412349e-03
    3629,  4.56816108e-04, -6.99147559e-03,  2.03515973e-03
    3630,  7.71807299e-04, -7.05687928e-03,  1.49670967e-03
    3631,  8.52580154e-04, -7.07365068e-03,  1.57920533e-03
    3632,  9.33353018e-04, -7.09042208e-03,  1.66170100e-03
    3633, -1.70406069e-03, -3.62085572e-03,  1.49670967e-03
    3634, -1.78601706e-03, -3.61143825e-03,  1.57920533e-03
    3635, -1.86797343e-03, -3.60202078e-03,  1.66170100e-03
    3636, -1.26855029e-03, -3.67089949e-03,  1.83308726e-03
    3637, -1.32650223e-03, -3.66424033e-03,  1.93412349e-03
    3638, -1.38445416e-03, -3.65758117e-03,  2.03515973e-03
    3639, -7.61387799e-04, -3.72917668e-03,  2.04454304e-03
    3640, -7.91385938e-04, -3.72572965e-03,  2.15723437e-03
    3641, -8.21384078e-04, -3.72228261e-03,  2.26992570e-03
    3642, -2.17135456e-04, -3.79171581e-03,  2.11666667e-03
    3643, -2.17135456e-04, -3.79171581e-03,  2.23333333e-03
    3644, -2.17135456e-04, -3.79171581e-03,  2.35000000e-03
    3645,  3.27116887e-04, -3.85425494e-03,  2.04454304e-03
    3646,  3.57115026e-04, -3.85770198e-03,  2.15723437e-03
    3647,  3.87113166e-04, -3.86114901e-03,  2.26992570e-03
    3648,  8.34279377e-04, -3.91253213e-03,  1.83308726e-03
    3649,  8.92231315e-04, -3.91919130e-03,  1.93412349e-03
    3650,  9.50183253e-04, -3.92585046e-03,  2.03515973e-03
    3651,  1.26978978e-03, -3.96257591e-03,  1.49670967e-03
    3652,  1.35174614e-03, -3.97199338e-03,  1.57920533e-03
    3653,  1.43370252e-03, -3.98141085e-03,  1.66170100e-03
    3654, -1.50590933e-03, -7.63877003e-04,  1.49670967e-03
    3655, -1.58838106e-03, -7.61890239e-04,  1.57920533e-03
    3656, -1.67085280e-03, -7.59903474e-04,  1.66170100e-03
    3657, -1.06766028e-03, -7.74434532e-04,  1.83308726e-03
    3658, -1.12597664e-03, -7.73029676e-04,  1.93412349e-03
    3659, -1.18429300e-03, -7.71624821e-04,  2.03515973e-03
    3660, -5.57308567e-04, -7.86729032e-04,  2.04454304e-03
    3661, -5.87495345e-04, -7.86001825e-04,  2.15723437e-03
    3662, -6.17682124e-04, -7.85274618e-04,  2.26992570e-03
    3663, -9.63377023e-06, -7.99922653e-04,  2.11666667e-03
    3664, -9.63377023e-06, -7.99922653e-04,  2.23333333e-03
    3665, -9.63377023e-06, -7.99922653e-04,  2.35000000e-03
    3666,  5.38041027e-04, -8.13116275e-04,  2.04454304e-03
    3667,  5.68227805e-04, -8.13843482e-04,  2.15723437e-03
    3668,  5.98414584e-04, -8.14570689e-04,  2.26992570e-03
    3669,  1.04839274e-03, -8.25410775e-04,  1.83308726e-03
    3670,  1.10670910e-03, -8.26815631e-04,  1.93412349e-03
    3671,  1.16502546e-03, -8.28220486e-04,  2.03515973e-03
    3672,  1.48664179e-03, -8.35968303e-04,  1.49670967e-03
    3673,  1.56911352e-03, -8.37955068e-04,  1.57920533e-03
    3674,  1.65158526e-03, -8.39941833e-04,  1.66170100e-03
    3675, -1.21860998e-02, -2.80383744e-02,  1.05833347e-03
    3676, -1.21254781e-02, -2.81192034e-02,  1.11666675e-03
    3677, -1.20648563e-02, -2.82000324e-02,  1.17500003e-03
    3678, -1.20592264e-02, -2.82075390e-02,  5.47833693e-04
    3679, -1.19916116e-02, -2.82976921e-02,  5.78029229e-04
    3680, -1.19239968e-02, -2.83878451e-02,  6.08224766e-04
    3681, -1.20159522e-02, -2.82652379e-02,  1.48029737e-19
    3682, -1.19459522e-02, -2.83585712e-02,  6.47630098e-20
    3683, -1.18759522e-02, -2.84519046e-02,  0.00000000e+00
    3684, -1.20592264e-02, -2.82075390e-02, -5.47833693e-04
    3685, -1.19916116e-02, -2.82976921e-02, -5.78029229e-04
    3686, -1.19239968e-02, -2.83878451e-02, -6.08224766e-04
    3687, -1.21860998e-02, -2.80383744e-02, -1.05833347e-03
    3688, -1.21254781e-02, -2.81192034e-02, -1.11666675e-03
    3689, -1.20648563e-02, -2.82000324e-02, -1.17500003e-03
    3690, -1.23879264e-02, -2.77692723e-02, -1.49670967e-03
    3691, -1.23384290e-02, -2.78352688e-02, -1.57920533e-03
    3692, -1.22889316e-02, -2.79012654e-02, -1.66170100e-03
    3693, -9.74280551e-03, -2.60273270e-02,  1.05833347e-03
    3694, -9.67514024e-03, -2.61023585e-02,  1.11666675e-03
    3695, -9.60747497e-03, -2.61773900e-02,  1.17500003e-03
    3696, -9.60119085e-03, -2.61843583e-02,  5.47833693e-04
    3697, -9.52572001e-03, -2.62680451e-02,  5.78029229e-04
    3698, -9.45024918e-03, -2.63517320e-02,  6.08224766e-04
    3699, -9.55288872e-03, -2.62379187e-02,  1.48029737e-19
    3700, -9.47475556e-03, -2.63245577e-02,  6.47630098e-20
    3701, -9.39662239e-03, -2.64111968e-02,  0.00000000e+00
    3702, -9.60119085e-03, -2.61843583e-02, -5.47833693e-04
    3703, -9.52572001e-03, -2.62680451e-02, -5.78029229e-04
    3704, -9.45024918e-03, -2.63517320e-02, -6.08224766e-04
    3705, -9.74280551e-03, -2.60273270e-02, -1.05833347e-03
    3706, -9.67514024e-03, -2.61023585e-02, -1.11666675e-03
    3707, -9.60747497e-03, -2.61773900e-02, -1.17500003e-03
    3708, -9.96808191e-03, -2.57775262e-02, -1.49670967e-03
    3709, -9.91283350e-03, -2.58387891e-02, -1.57920533e-03
    3710, -9.85758509e-03, -2.59000521e-02, -1.66170100e-03
    3711, -7.49086334e-03, -2.38040961e-02,  1.05833347e-03
    3712, -7.41670618e-03, -2.38727185e-02,  1.11666675e-03
    3713, -7.34254901e-03, -2.39413410e-02,  1.17500003e-03
    3714, -7.33566198e-03, -2.39477140e-02,  5.47833693e-04
    3715, -7.25295037e-03, -2.40242524e-02,  5.78029229e-04
    3716, -7.17023877e-03, -2.41007908e-02,  6.08224766e-04
    3717, -7.28272569e-03, -2.39966993e-02,  1.48029737e-19
    3718, -7.19709632e-03, -2.40759377e-02,  6.47630098e-20
    3719, -7.11146695e-03, -2.41551761e-02,  0.00000000e+00
    3720, -7.33566198e-03, -2.39477140e-02, -5.47833693e-04
    3721, -7.25295037e-03, -2.40242524e-02, -5.78029229e-04
    3722, -7.17023877e-03, -2.41007908e-02, -6.08224766e-04
    3723, -7.49086334e-03, -2.38040961e-02, -1.05833347e-03
    3724, -7.41670618e-03, -2.38727185e-02, -1.11666675e-03
    3725, -7.34254901e-03, -2.39413410e-02, -1.17500003e-03
    3726, -7.73775306e-03, -2.35756331e-02, -1.49670967e-03
    3727, -7.67720404e-03, -2.36316630e-02, -1.57920533e-03
    3728, -7.61665503e-03, -2.36876929e-02, -1.66170100e-03
    3729, -5.44863189e-03, -2.13868064e-02,  1.05833347e-03
    3730, -5.36858739e-03, -2.14484603e-02,  1.11666675e-03
    3731, -5.28854288e-03, -2.15101141e-02,  1.17500003e-03
    3732, -5.28110909e-03, -2.15158399e-02,  5.47833693e-04
    3733, -5.19183100e-03, -2.15846059e-02,  5.78029229e-04
    3734, -5.10255292e-03, -2.16533719e-02,  6.08224766e-04
    3735, -5.22397018e-03, -2.15598509e-02,  1.48029737e-19
    3736, -5.13154270e-03, -2.16310427e-02,  6.47630098e-20
    3737, -5.03911520e-03, -2.17022345e-02,  0.00000000e+00
    3738, -5.28110909e-03, -2.15158399e-02, -5.47833693e-04
    3739, -5.19183100e-03, -2.15846059e-02, -5.78029229e-04
    3740, -5.10255292e-03, -2.16533719e-02, -6.08224766e-04
    3741, -5.44863189e-03, -2.13868064e-02, -1.05833347e-03
    3742, -5.36858739e-03, -2.14484603e-02, -1.11666675e-03
    3743, -5.28854288e-03, -2.15101141e-02, -1.17500003e-03
    3744, -5.71512220e-03, -2.11815436e-02, -1.49670967e-03
    3745, -5.64976620e-03, -2.12318838e-02, -1.57920533e-03
    3746, -5.58441019e-03, -2.12822239e-02, -1.66170100e-03
    3747, -3.63276012e-03, -1.87951643e-02,  1.05833347e-03
    3748, -3.54748083e-03, -1.88493470e-02,  1.11666675e-03
    3749, -3.46220153e-03, -1.89035297e-02,  1.17500003e-03
    3750, -3.45428158e-03, -1.89085617e-02,  5.47833693e-04
    3751, -3.35916483e-03, -1.89689946e-02,  5.78029229e-04
    3752, -3.26404809e-03, -1.90294276e-02,  6.08224766e-04
    3753, -3.39340587e-03, -1.89472394e-02,  1.48029737e-19
    3754, -3.29493376e-03, -1.90098042e-02,  6.47630098e-20
    3755, -3.19646165e-03, -1.90723690e-02,  0.00000000e+00
    3756, -3.45428158e-03, -1.89085617e-02, -5.47833693e-04
    3757, -3.35916483e-03, -1.89689946e-02, -5.78029229e-04
    3758, -3.26404809e-03, -1.90294276e-02, -6.08224766e-04
    3759, -3.63276012e-03, -1.87951643e-02, -1.05833347e-03
    3760, -3.54748083e-03, -1.88493470e-02, -1.11666675e-03
    3761, -3.46220153e-03, -1.89035297e-02, -1.17500003e-03
    3762, -3.91667851e-03, -1.86147752e-02, -1.49670967e-03
    3763, -3.84704832e-03, -1.86590151e-02, -1.57920533e-03
    3764, -3.77741813e-03, -1.87032551e-02, -1.66170100e-03
    3765, -2.05805162e-03, -1.60502979e-02,  1.05833347e-03
    3766, -1.96823276e-03, -1.60965676e-02,  1.11666675e-03
    3767, -1.87841389e-03, -1.61428374e-02,  1.17500003e-03
    3768, -1.87007234e-03, -1.61471345e-02,  5.47833693e-04
    3769, -1.76989237e-03, -1.61987418e-02,  5.78029229e-04
    3770, -1.66971240e-03, -1.62503490e-02,  6.08224766e-04
    3771, -1.80595611e-03, -1.61801637e-02,  1.48029737e-19
    3772, -1.70224216e-03, -1.62335915e-02,  6.47630098e-20
    3773, -1.59852820e-03, -1.62870192e-02,  0.00000000e+00
    3774, -1.87007234e-03, -1.61471345e-02, -5.47833693e-04
    3775, -1.76989237e-03, -1.61987418e-02, -5.78029229e-04
    3776, -1.66971240e-03, -1.62503490e-02, -6.08224766e-04
    3777, -2.05805162e-03, -1.60502979e-02, -1.05833347e-03
    3778, -1.96823276e-03, -1.60965676e-02, -1.11666675e-03
    3779, -1.87841389e-03, -1.61428374e-02, -1.17500003e-03
    3780, -2.35708348e-03, -1.58962530e-02, -1.49670967e-03
    3781, -2.28374675e-03, -1.59340320e-02, -1.57920533e-03
    3782, -2.21041002e-03, -1.59718111e-02, -1.66170100e-03
    3783, -7.37343924e-04, -1.31745840e-02,  1.05833347e-03
    3784, -6.43717729e-04, -1.32125637e-02,  1.11666675e-03
    3785, -5.50091525e-04, -1.32505434e-02,  1.17500003e-03
    3786, -5.41396390e-04, -1.32540706e-02,  5.47833693e-04
    3787, -4.36969885e-04, -1.32964314e-02,  5.78029229e-04
    3788, -3.32543380e-04, -1.33387922e-02,  6.08224766e-04
    3789, -4.74562335e-04, -1.32811819e-02,  1.48029737e-19
    3790, -3.66452051e-04, -1.33250371e-02,  6.47630098e-20
    3791, -2.58341759e-04, -1.33688923e-02,  0.00000000e+00
    3792, -5.41396390e-04, -1.32540706e-02, -5.47833693e-04
    3793, -4.36969885e-04, -1.32964314e-02, -5.78029229e-04
    3794, -3.32543380e-04, -1.33387922e-02, -6.08224766e-04
    3795, -7.37343924e-04, -1.31745840e-02, -1.05833347e-03
    3796, -6.43717729e-04, -1.32125637e-02, -1.11666675e-03
    3797, -5.50091525e-04, -1.32505434e-02, -1.17500003e-03
    3798, -1.04905145e-03, -1.30481392e-02, -1.49670967e-03
    3799, -9.72606057e-04, -1.30791494e-02, -1.57920533e-03
    3800, -8.96160651e-04, -1.31101597e-02, -1.66170100e-03
    3801,  3.18596113e-04, -1.01914666e-02,  1.05833347e-03
    3802,  4.15266370e-04, -1.02208465e-02,  1.11666675e-03
    3803,  5.11936637e-04, -1.02502265e-02,  1.17500003e-03
    3804,  5.20914476e-04, -1.02529550e-02,  5.47833693e-04
    3805,  6.28736194e-04, -1.02857241e-02,  5.78029229e-04
    3806,  7.36557911e-04, -1.03184932e-02,  6.08224766e-04
    3807,  5.89921503e-04, -1.02739276e-02,  1.48029737e-19
    3808,  7.01546769e-04, -1.03078526e-02,  6.47630098e-20
    3809,  8.13172044e-04, -1.03417777e-02,  0.00000000e+00
    3810,  5.20914476e-04, -1.02529550e-02, -5.47833693e-04
    3811,  6.28736194e-04, -1.02857241e-02, -5.78029229e-04
    3812,  7.36557911e-04, -1.03184932e-02, -6.08224766e-04
    3813,  3.18596113e-04, -1.01914666e-02, -1.05833347e-03
    3814,  4.15266370e-04, -1.02208465e-02, -1.11666675e-03
    3815,  5.11936637e-04, -1.02502265e-02, -1.17500003e-03
    3816, -3.24594414e-06, -1.00936526e-02, -1.49670967e-03
    3817,  7.56849173e-05, -1.01176412e-02, -1.57920533e-03
    3818,  1.54615788e-04, -1.01416298e-02, -1.66170100e-03
    3819,  1.10116012e-03, -7.12526497e-03,  1.05833347e-03
    3820,  1.20008635e-03, -7.14580567e-03,  1.11666675e-03
    3821,  1.29901259e-03, -7.16634638e-03,  1.17500003e-03
    3822,  1.30819995e-03, -7.16825401e-03,  5.47833693e-04
    3823,  1.41853788e-03, -7.19116420e-03,  5.78029229e-04
    3824,  1.52887581e-03, -7.21407439e-03,  6.08224766e-04
    3825,  1.37881738e-03, -7.18291677e-03,  1.48029737e-19
    3826,  1.49304762e-03, -7.20663514e-03,  6.47630098e-20
    3827,  1.60727787e-03, -7.23035352e-03,  0.00000000e+00
    3828,  1.30819995e-03, -7.16825401e-03, -5.47833693e-04
    3829,  1.41853788e-03, -7.19116420e-03, -5.78029229e-04
    3830,  1.52887581e-03, -7.21407439e-03, -6.08224766e-04
    3831,  1.10116012e-03, -7.12526497e-03, -1.05833347e-03
    3832,  1.20008635e-03, -7.14580567e-03, -1.11666675e-03
    3833,  1.29901259e-03, -7.16634638e-03, -1.17500003e-03
    3834,  7.71807299e-04, -7.05687928e-03, -1.49670967e-03
    3835,  8.52580154e-04, -7.07365068e-03, -1.57920533e-03
    3836,  9.33353018e-04, -7.09042208e-03, -1.66170100e-03
    3837,  1.60396837e-03, -4.00097581e-03,  1.05833347e-03
    3838,  1.70434410e-03, -4.01250982e-03,  1.11666675e-03
    3839,  1.80471984e-03, -4.02404383e-03,  1.17500003e-03
    3840,  1.81404180e-03, -4.02511500e-03,  5.47833693e-04
    3841,  1.92599644e-03, -4.03797952e-03,  5.78029229e-04
    3842,  2.03795107e-03, -4.05084404e-03,  6.08224766e-04
    3843,  1.88569394e-03, -4.03334843e-03,  1.48029737e-19
    3844,  2.00159792e-03, -4.04666676e-03,  6.47630098e-20
    3845,  2.11750190e-03, -4.05998509e-03,  0.00000000e+00
    3846,  1.81404180e-03, -4.02511500e-03, -5.47833693e-04
    3847,  1.92599644e-03, -4.03797952e-03, -5.78029229e-04
    3848,  2.03795107e-03, -4.05084404e-03, -6.08224766e-04
    3849,  1.60396837e-03, -4.00097581e-03, -1.05833347e-03
    3850,  1.70434410e-03, -4.01250982e-03, -1.11666675e-03
    3851,  1.80471984e-03, -4.02404383e-03, -1.17500003e-03
    3852,  1.26978978e-03, -3.96257591e-03, -1.49670967e-03
    3853,  1.35174614e-03, -3.97199338e-03, -1.57920533e-03
    3854,  1.43370252e-03, -3.98141085e-03, -1.66170100e-03
    3855,  1.82292181e-03, -8.44069373e-04,  1.05833347e-03
    3856,  1.92392874e-03, -8.46502655e-04,  1.11666675e-03
    3857,  2.02493567e-03, -8.48935937e-04,  1.17500003e-03
    3858,  2.03431626e-03, -8.49161918e-04,  5.47833693e-04
    3859,  2.14697491e-03, -8.51875892e-04,  5.78029229e-04
    3860,  2.25963355e-03, -8.54589867e-04,  6.08224766e-04
    3861,  2.10641897e-03, -8.50898890e-04,  1.48029737e-19
    3862,  2.22305180e-03, -8.53708604e-04,  6.47630098e-20
    3863,  2.33968463e-03, -8.56518317e-04,  0.00000000e+00
    3864,  2.03431626e-03, -8.49161918e-04, -5.47833693e-04
    3865,  2.14697491e-03, -8.51875892e-04, -5.78029229e-04
    3866,  2.25963355e-03, -8.54589867e-04, -6.08224766e-04
    3867,  1.82292181e-03, -8.44069373e-04, -1.05833347e-03
    3868,  1.92392874e-03, -8.46502655e-04, -1.11666675e-03
    3869,  2.02493567e-03, -8.48935937e-04, -1.17500003e-03
    3870,  1.48664179e-03, -8.35968303e-04, -1.49670967e-03
    3871,  1.56911352e-03, -8.37955068e-04, -1.57920533e-03
    3872,  1.65158526e-03, -8.39941833e-04, -1.66170100e-03
    3873, -1.26509521e-02, -2.74185714e-02, -1.83308726e-03
    3874, -1.26159521e-02, -2.74652380e-02, -1.93412349e-03
    3875, -1.25809522e-02, -2.75119046e-02, -2.03515973e-03
    3876, -1.29572520e-02, -2.70101715e-02, -2.04454304e-03
    3877, -1.29391346e-02, -2.70343280e-02, -2.15723437e-03
    3878, -1.29210173e-02, -2.70584844e-02, -2.26992570e-03
    3879, -1.32859522e-02, -2.65719046e-02, -2.11666667e-03
    3880, -1.32859522e-02, -2.65719046e-02, -2.23333333e-03
    3881, -1.32859522e-02, -2.65719046e-02, -2.35000000e-03
    3882, -1.36146524e-02, -2.61336376e-02, -2.04454304e-03
    3883, -1.36327697e-02, -2.61094812e-02, -2.15723437e-03
    3884, -1.36508870e-02, -2.60853248e-02, -2.26992570e-03
    3885, -1.39209523e-02, -2.57252378e-02, -1.83308726e-03
    3886, -1.39559522e-02, -2.56785712e-02, -1.93412349e-03
    3887, -1.39909522e-02, -2.56319046e-02, -2.03515973e-03
    3888, -1.41839780e-02, -2.53745368e-02, -1.49670967e-03
    3889, -1.42334754e-02, -2.53085403e-02, -1.57920533e-03
    3890, -1.42829728e-02, -2.52425438e-02, -1.66170100e-03
    3891, -1.02616681e-02, -2.54519792e-02, -1.83308726e-03
    3892, -1.02226015e-02, -2.54952987e-02, -1.93412349e-03
    3893, -1.01835350e-02, -2.55386181e-02, -2.03515973e-03
    3894, -1.06035564e-02, -2.50728718e-02, -2.04454304e-03
    3895, -1.05833340e-02, -2.50952956e-02, -2.15723437e-03
    3896, -1.05631117e-02, -2.51177194e-02, -2.26992570e-03
    3897, -1.09704476e-02, -2.46660394e-02, -2.11666667e-03
    3898, -1.09704476e-02, -2.46660394e-02, -2.23333333e-03
    3899, -1.09704476e-02, -2.46660394e-02, -2.35000000e-03
    3900, -1.13373389e-02, -2.42592071e-02, -2.04454304e-03
    3901, -1.13575613e-02, -2.42367833e-02, -2.15723437e-03
    3902, -1.13777836e-02, -2.42143595e-02, -2.26992570e-03
    3903, -1.16792272e-02, -2.38800997e-02, -1.83308726e-03
    3904, -1.17182937e-02, -2.38367802e-02, -1.93412349e-03
    3905, -1.17573603e-02, -2.37934608e-02, -2.03515973e-03
    3906, -1.19728134e-02, -2.35545527e-02, -1.49670967e-03
    3907, -1.20280618e-02, -2.34932898e-02, -1.57920533e-03
    3908, -1.20833102e-02, -2.34320268e-02, -1.66170100e-03
    3909, -8.05950629e-03, -2.32778940e-02, -1.83308726e-03
    3910, -8.01669164e-03, -2.33175132e-02, -1.93412349e-03
    3911, -7.97387700e-03, -2.33571324e-02, -2.03515973e-03
    3912, -8.43419578e-03, -2.29311696e-02, -2.04454304e-03
    3913, -8.41203328e-03, -2.29516780e-02, -2.15723437e-03
    3914, -8.38987078e-03, -2.29721864e-02, -2.26992570e-03
    3915, -8.83628709e-03, -2.25590886e-02, -2.11666667e-03
    3916, -8.83628709e-03, -2.25590886e-02, -2.23333333e-03
    3917, -8.83628709e-03, -2.25590886e-02, -2.35000000e-03
    3918, -9.23837840e-03, -2.21870075e-02, -2.04454304e-03
    3919, -9.26054090e-03, -2.21664991e-02, -2.15723437e-03
    3920, -9.28270340e-03, -2.21459907e-02, -2.26992570e-03
    3921, -9.61306789e-03, -2.18402831e-02, -1.83308726e-03
    3922, -9.65588253e-03, -2.18006639e-02, -1.93412349e-03
    3923, -9.69869718e-03, -2.17610448e-02, -2.03515973e-03
    3924, -9.93482112e-03, -2.15425440e-02, -1.49670967e-03
    3925, -9.99537013e-03, -2.14865141e-02, -1.57920533e-03
    3926, -1.00559192e-02, -2.14304842e-02, -1.66170100e-03
    3927, -6.06241945e-03, -2.09140398e-02, -1.83308726e-03
    3928, -6.01620574e-03, -2.09496356e-02, -1.93412349e-03
    3929, -5.96999204e-03, -2.09852315e-02, -2.03515973e-03
    3930, -6.46685556e-03, -2.06025250e-02, -2.04454304e-03
    3931, -6.44293358e-03, -2.06209508e-02, -2.15723437e-03
    3932, -6.41901160e-03, -2.06393766e-02, -2.26992570e-03
    3933, -6.90086893e-03, -2.02682285e-02, -2.11666667e-03
    3934, -6.90086893e-03, -2.02682285e-02, -2.23333333e-03
    3935, -6.90086893e-03, -2.02682285e-02, -2.35000000e-03
    3936, -7.33488229e-03, -1.99339320e-02, -2.04454304e-03
    3937, -7.35880427e-03, -1.99155062e-02, -2.15723437e-03
    3938, -7.38272625e-03, -1.98970804e-02, -2.26992570e-03
    3939, -7.73931840e-03, -1.96224172e-02, -1.83308726e-03
    3940, -7.78553211e-03, -1.95868214e-02, -1.93412349e-03
    3941, -7.83174581e-03, -1.95512255e-02, -2.03515973e-03
    3942, -8.08661565e-03, -1.93549134e-02, -1.49670967e-03
    3943, -8.15197165e-03, -1.93045733e-02, -1.57920533e-03
    3944, -8.21732766e-03, -1.92542331e-02, -1.66170100e-03
    3945, -4.28668848e-03, -1.83796873e-02, -1.83308726e-03
    3946, -4.23745247e-03, -1.84109697e-02, -1.93412349e-03
    3947, -4.18821646e-03, -1.84422521e-02, -2.03515973e-03
    3948, -4.71757412e-03, -1.81059218e-02, -2.04454304e-03
    3949, -4.69208767e-03, -1.81221147e-02, -2.15723437e-03
    3950, -4.66660123e-03, -1.81383077e-02, -2.26992570e-03
    3951, -5.17997132e-03, -1.78121351e-02, -2.11666667e-03
    3952, -5.17997132e-03, -1.78121351e-02, -2.23333333e-03
    3953, -5.17997132e-03, -1.78121351e-02, -2.35000000e-03
    3954, -5.64236852e-03, -1.75183485e-02, -2.04454304e-03
    3955, -5.66785496e-03, -1.75021555e-02, -2.15723437e-03
    3956, -5.69334141e-03, -1.74859626e-02, -2.26992570e-03
    3957, -6.07325416e-03, -1.72445829e-02, -1.83308726e-03
    3958, -6.12249017e-03, -1.72133006e-02, -1.93412349e-03
    3959, -6.17172618e-03, -1.71820182e-02, -2.03515973e-03
    3960, -6.44326413e-03, -1.70094950e-02, -1.49670967e-03
    3961, -6.51289432e-03, -1.69652551e-02, -1.57920533e-03
    3962, -6.58252451e-03, -1.69210152e-02, -1.66170100e-03
    3963, -2.74678973e-03, -1.56954976e-02, -1.83308726e-03
    3964, -2.69493280e-03, -1.57222114e-02, -1.93412349e-03
    3965, -2.64307587e-03, -1.57489253e-02, -2.03515973e-03
    3966, -3.20061217e-03, -1.54617130e-02, -2.04454304e-03
    3967, -3.17376904e-03, -1.54755411e-02, -2.15723437e-03
    3968, -3.14692591e-03, -1.54893692e-02, -2.26992570e-03
    3969, -3.68762360e-03, -1.52108313e-02, -2.11666667e-03
    3970, -3.68762360e-03, -1.52108313e-02, -2.23333333e-03
    3971, -3.68762360e-03, -1.52108313e-02, -2.35000000e-03
    3972, -4.17463502e-03, -1.49599496e-02, -2.04454304e-03
    3973, -4.20147815e-03, -1.49461215e-02, -2.15723437e-03
    3974, -4.22832128e-03, -1.49322934e-02, -2.26992570e-03
    3975, -4.62845746e-03, -1.47261651e-02, -1.83308726e-03
    3976, -4.68031439e-03, -1.46994512e-02, -1.93412349e-03
    3977, -4.73217132e-03, -1.46727373e-02, -2.03515973e-03
    3978, -5.01816371e-03, -1.45254097e-02, -1.49670967e-03
    3979, -5.09150044e-03, -1.44876306e-02, -1.57920533e-03
    3980, -5.16483717e-03, -1.44498515e-02, -1.66170100e-03
    3981, -1.45527698e-03, -1.28833529e-02, -1.83308726e-03
    3982, -1.40122188e-03, -1.29052805e-02, -1.93412349e-03
    3983, -1.34716679e-03, -1.29272080e-02, -2.03515973e-03
    3984, -1.92833651e-03, -1.26914553e-02, -2.04454304e-03
    3985, -1.90035553e-03, -1.27028058e-02, -2.15723437e-03
    3986, -1.87237454e-03, -1.27141564e-02, -2.26992570e-03
    3987, -2.43599187e-03, -1.24855238e-02, -2.11666667e-03
    3988, -2.43599187e-03, -1.24855238e-02, -2.23333333e-03
    3989, -2.43599187e-03, -1.24855238e-02, -2.35000000e-03
    3990, -2.94364724e-03, -1.22795922e-02, -2.04454304e-03
    3991, -2.97162822e-03, -1.22682417e-02, -2.15723437e-03
    3992, -2.99960921e-03, -1.22568911e-02, -2.26992570e-03
    3993, -3.41670677e-03, -1.20876946e-02, -1.83308726e-03
    3994, -3.47076186e-03, -1.20657670e-02, -1.93412349e-03
    3995, -3.52481696e-03, -1.20438395e-02, -2.03515973e-03
    3996, -3.82293229e-03, -1.19229083e-02, -1.49670967e-03
    3997, -3.89937769e-03, -1.18918981e-02, -1.57920533e-03
    3998, -3.97582310e-03, -1.18608878e-02, -1.66170100e-03
    3999, -4.22679052e-04, -9.96617887e-03, -1.83308726e-03
    4000, -3.66866467e-04, -9.98314138e-03, -1.93412349e-03
    4001, -3.11053882e-04, -1.00001039e-02, -2.03515973e-03
    4002, -9.11119137e-04, -9.81773256e-03, -2.04454304e-03
    4003, -8.82228409e-04, -9.82651300e-03, -2.15723437e-03
    4004, -8.53337680e-04, -9.83529345e-03, -2.26992570e-03
    4005, -1.43527987e-03, -9.65843006e-03, -2.11666667e-03
    4006, -1.43527987e-03, -9.65843006e-03, -2.23333333e-03
    4007, -1.43527987e-03, -9.65843006e-03, -2.35000000e-03
    4008, -1.95944060e-03, -9.49912757e-03, -2.04454304e-03
    4009, -1.98833132e-03, -9.49034712e-03, -2.15723437e-03
    4010, -2.01722205e-03, -9.48156668e-03, -2.26992570e-03
    4011, -2.44788068e-03, -9.35068126e-03, -1.83308726e-03
    4012, -2.50369327e-03, -9.33371875e-03, -1.93412349e-03
    4013, -2.55950585e-03, -9.31675623e-03, -2.03515973e-03
    4014, -2.86731379e-03, -9.22320750e-03, -1.49670967e-03
    4015, -2.94624465e-03, -9.19921890e-03, -1.57920533e-03
    4016, -3.02517552e-03, -9.17523029e-03, -1.66170100e-03
    4017,  3.42585964e-04, -6.96775723e-03, -1.83308726e-03
    4018,  3.99701036e-04, -6.97961641e-03, -1.93412349e-03
    4019,  4.56816108e-04, -6.99147559e-03, -2.03515973e-03
    4020, -1.57252749e-04, -6.86397244e-03, -2.04454304e-03
    4021, -1.27687803e-04, -6.87011120e-03, -2.15723437e-03
    4022, -9.81228575e-05, -6.87624997e-03, -2.26992570e-03
    4023, -6.93645711e-04, -6.75259765e-03, -2.11666667e-03
    4024, -6.93645711e-04, -6.75259765e-03, -2.23333333e-03
    4025, -6.93645711e-04, -6.75259765e-03, -2.35000000e-03
    4026, -1.23003867e-03, -6.64122285e-03, -2.04454304e-03
    4027, -1.25960362e-03, -6.63508409e-03, -2.15723437e-03
    4028, -1.28916857e-03, -6.62894532e-03, -2.26992570e-03
    4029, -1.72987739e-03, -6.53743806e-03, -1.83308726e-03
    4030, -1.78699246e-03, -6.52557888e-03, -1.93412349e-03
    4031, -1.84410753e-03, -6.51371970e-03, -2.03515973e-03
    4032, -2.15909872e-03, -6.44831601e-03, -1.49670967e-03
    4033, -2.23987158e-03, -6.43154461e-03, -1.57920533e-03
    4034, -2.32064444e-03, -6.41477321e-03, -1.66170100e-03
    4035,  8.34279377e-04, -3.91253213e-03, -1.83308726e-03
    4036,  8.92231315e-04, -3.91919130e-03, -1.93412349e-03
    4037,  9.50183253e-04, -3.92585046e-03, -2.03515973e-03
    4038,  3.27116887e-04, -3.85425494e-03, -2.04454304e-03
    4039,  3.57115026e-04, -3.85770198e-03, -2.15723437e-03
    4040,  3.87113166e-04, -3.86114901e-03, -2.26992570e-03
    4041, -2.17135456e-04, -3.79171581e-03, -2.11666667e-03
    4042, -2.17135456e-04, -3.79171581e-03, -2.23333333e-03
    4043, -2.17135456e-04, -3.79171581e-03, -2.35000000e-03
    4044, -7.61387799e-04, -3.72917668e-03, -2.04454304e-03
    4045, -7.91385938e-04, -3.72572965e-03, -2.15723437e-03
    4046, -8.21384078e-04, -3.72228261e-03, -2.26992570e-03
    4047, -1.26855029e-03, -3.67089949e-03, -1.83308726e-03
    4048, -1.32650223e-03, -3.66424033e-03, -1.93412349e-03
    4049, -1.38445416e-03, -3.65758117e-03, -2.03515973e-03
    4050, -1.70406069e-03, -3.62085572e-03, -1.49670967e-03
    4051, -1.78601706e-03, -3.61143825e-03, -1.57920533e-03
    4052, -1.86797343e-03, -3.60202078e-03, -1.66170100e-03
    4053,  1.04839274e-03, -8.25410775e-04, -1.83308726e-03
    4054,  1.10670910e-03, -8.26815631e-04, -1.93412349e-03
    4055,  1.16502546e-03, -8.28220486e-04, -2.03515973e-03
    4056,  5.38041027e-04, -8.13116275e-04, -2.04454304e-03
    4057,  5.68227805e-04, -8.13843482e-04, -2.15723437e-03
    4058,  5.98414584e-04, -8.14570689e-04, -2.26992570e-03
    4059, -9.63377023e-06, -7.99922653e-04, -2.11666667e-03
    4060, -9.63377023e-06, -7.99922653e-04, -2.23333333e-03
    4061, -9.63377023e-06, -7.99922653e-04, -2.35000000e-03
    4062, -5.57308567e-04, -7.86729032e-04, -2.04454304e-03
    4063, -5.87495345e-04, -7.86001825e-04, -2.15723437e-03
    4064, -6.17682124e-04, -7.85274618e-04, -2.26992570e-03
    4065, -1.06766028e-03, -7.74434532e-04, -1.83308726e-03
    4066, -1.12597664e-03, -7.73029676e-04, -1.93412349e-03
    4067, -1.18429300e-03, -7.71624821e-04, -2.03515973e-03
    4068, -1.50590933e-03, -7.63877003e-04, -1.49670967e-03
    4069, -1.58838106e-03, -7.61890239e-04, -1.57920533e-03
    4070, -1.67085280e-03, -7.59903474e-04, -1.66170100e-03
    4071, -1.43858046e-02, -2.51054348e-02, -1.05833347e-03
    4072, -1.44464263e-02, -2.50246058e-02, -1.11666675e-03
    4073, -1.45070480e-02, -2.49437768e-02, -1.17500003e-03
    4074, -1.45126780e-02, -2.49362702e-02, -5.47833693e-04
    4075, -1.45802928e-02, -2.48461171e-02, -5.78029229e-04
    4076, -1.46479076e-02, -2.47559640e-02, -6.08224766e-04
    4077, -1.45559522e-02, -2.48785713e-02, -1.48029737e-19
    4078, -1.46259522e-02, -2.47852379e-02, -6.47630098e-20
    4079, -1.46959522e-02, -2.46919046e-02,  0.00000000e+00
    4080, -1.45126780e-02, -2.49362702e-02,  5.47833693e-04
    4081, -1.45802928e-02, -2.48461171e-02,  5.78029229e-04
    4082, -1.46479076e-02, -2.47559640e-02,  6.08224766e-04
    4083, -1.43858046e-02, -2.51054348e-02,  1.05833347e-03
    4084, -1.44464263e-02, -2.50246058e-02,  1.11666675e-03
    4085, -1.45070480e-02, -2.49437768e-02,  1.17500003e-03
    4086, -1.21980898e-02, -2.33047519e-02, -1.05833347e-03
    4087, -1.22657550e-02, -2.32297204e-02, -1.11666675e-03
    4088, -1.23334203e-02, -2.31546888e-02, -1.17500003e-03
    4089, -1.23397044e-02, -2.31477206e-02, -5.47833693e-04
    4090, -1.24151753e-02, -2.30640338e-02, -5.78029229e-04
    4091, -1.24906461e-02, -2.29803469e-02, -6.08224766e-04
    4092, -1.23880066e-02, -2.30941601e-02, -1.48029737e-19
    4093, -1.24661397e-02, -2.30075211e-02, -6.47630098e-20
    4094, -1.25442729e-02, -2.29208821e-02,  0.00000000e+00
    4095, -1.23397044e-02, -2.31477206e-02,  5.47833693e-04
    4096, -1.24151753e-02, -2.30640338e-02,  5.78029229e-04
    4097, -1.24906461e-02, -2.29803469e-02,  6.08224766e-04
    4098, -1.21980898e-02, -2.33047519e-02,  1.05833347e-03
    4099, -1.22657550e-02, -2.32297204e-02,  1.11666675e-03
    4100, -1.23334203e-02, -2.31546888e-02,  1.17500003e-03
    4101, -1.01817108e-02, -2.13140810e-02, -1.05833347e-03
    4102, -1.02558680e-02, -2.12454586e-02, -1.11666675e-03
    4103, -1.03300252e-02, -2.11768362e-02, -1.17500003e-03
    4104, -1.03369122e-02, -2.11704632e-02, -5.47833693e-04
    4105, -1.04196238e-02, -2.10939248e-02, -5.78029229e-04
    4106, -1.05023354e-02, -2.10173864e-02, -6.08224766e-04
    4107, -1.03898485e-02, -2.11214778e-02, -1.48029737e-19
    4108, -1.04754779e-02, -2.10422394e-02, -6.47630098e-20
    4109, -1.05611072e-02, -2.09630010e-02,  0.00000000e+00
    4110, -1.03369122e-02, -2.11704632e-02,  5.47833693e-04
    4111, -1.04196238e-02, -2.10939248e-02,  5.78029229e-04
    4112, -1.05023354e-02, -2.10173864e-02,  6.08224766e-04
    4113, -1.01817108e-02, -2.13140810e-02,  1.05833347e-03
    4114, -1.02558680e-02, -2.12454586e-02,  1.11666675e-03
    4115, -1.03300252e-02, -2.11768362e-02,  1.17500003e-03
    4116, -8.35310596e-03, -1.91496506e-02, -1.05833347e-03
    4117, -8.43315046e-03, -1.90879968e-02, -1.11666675e-03
    4118, -8.51319497e-03, -1.90263429e-02, -1.17500003e-03
    4119, -8.52062876e-03, -1.90206171e-02, -5.47833693e-04
    4120, -8.60990685e-03, -1.89518511e-02, -5.78029229e-04
    4121, -8.69918493e-03, -1.88830851e-02, -6.08224766e-04
    4122, -8.57776767e-03, -1.89766061e-02, -1.48029737e-19
    4123, -8.67019515e-03, -1.89054143e-02, -6.47630098e-20
    4124, -8.76262265e-03, -1.88342225e-02,  0.00000000e+00
    4125, -8.52062876e-03, -1.90206171e-02,  5.47833693e-04
    4126, -8.60990685e-03, -1.89518511e-02,  5.78029229e-04
    4127, -8.69918493e-03, -1.88830851e-02,  6.08224766e-04
    4128, -8.35310596e-03, -1.91496506e-02,  1.05833347e-03
    4129, -8.43315046e-03, -1.90879968e-02,  1.11666675e-03
    4130, -8.51319497e-03, -1.90263429e-02,  1.17500003e-03
    4131, -6.72718251e-03, -1.68291059e-02, -1.05833347e-03
    4132, -6.81246181e-03, -1.67749232e-02, -1.11666675e-03
    4133, -6.89774111e-03, -1.67207406e-02, -1.17500003e-03
    4134, -6.90566106e-03, -1.67157086e-02, -5.47833693e-04
    4135, -7.00077780e-03, -1.66552756e-02, -5.78029229e-04
    4136, -7.09589454e-03, -1.65948427e-02, -6.08224766e-04
    4137, -6.96653677e-03, -1.66770309e-02, -1.48029737e-19
    4138, -7.06500888e-03, -1.66144661e-02, -6.47630098e-20
    4139, -7.16348099e-03, -1.65519013e-02,  0.00000000e+00
    4140, -6.90566106e-03, -1.67157086e-02,  5.47833693e-04
    4141, -7.00077780e-03, -1.66552756e-02,  5.78029229e-04
    4142, -7.09589454e-03, -1.65948427e-02,  6.08224766e-04
    4143, -6.72718251e-03, -1.68291059e-02,  1.05833347e-03
    4144, -6.81246181e-03, -1.67749232e-02,  1.11666675e-03
    4145, -6.89774111e-03, -1.67207406e-02,  1.17500003e-03
    4146, -5.31719558e-03, -1.43713648e-02, -1.05833347e-03
    4147, -5.40701444e-03, -1.43250950e-02, -1.11666675e-03
    4148, -5.49683331e-03, -1.42788252e-02, -1.17500003e-03
    4149, -5.50517485e-03, -1.42745281e-02, -5.47833693e-04
    4150, -5.60535482e-03, -1.42229209e-02, -5.78029229e-04
    4151, -5.70553480e-03, -1.41713136e-02, -6.08224766e-04
    4152, -5.56929108e-03, -1.42414989e-02, -1.48029737e-19
    4153, -5.67300503e-03, -1.41880712e-02, -6.47630098e-20
    4154, -5.77671899e-03, -1.41346434e-02,  0.00000000e+00
    4155, -5.50517485e-03, -1.42745281e-02,  5.47833693e-04
    4156, -5.60535482e-03, -1.42229209e-02,  5.78029229e-04
    4157, -5.70553480e-03, -1.41713136e-02,  6.08224766e-04
    4158, -5.31719558e-03, -1.43713648e-02,  1.05833347e-03
    4159, -5.40701444e-03, -1.43250950e-02,  1.11666675e-03
    4160, -5.49683331e-03, -1.42788252e-02,  1.17500003e-03
    4161, -4.13463982e-03, -1.17964635e-02, -1.05833347e-03
    4162, -4.22826602e-03, -1.17584838e-02, -1.11666675e-03
    4163, -4.32189222e-03, -1.17205041e-02, -1.17500003e-03
    4164, -4.33058736e-03, -1.17169769e-02, -5.47833693e-04
    4165, -4.43501386e-03, -1.16746161e-02, -5.78029229e-04
    4166, -4.53944037e-03, -1.16322553e-02, -6.08224766e-04
    4167, -4.39742141e-03, -1.16898656e-02, -1.48029737e-19
    4168, -4.50553170e-03, -1.16460104e-02, -6.47630098e-20
    4169, -4.61364199e-03, -1.16021552e-02,  0.00000000e+00
    4170, -4.33058736e-03, -1.17169769e-02,  5.47833693e-04
    4171, -4.43501386e-03, -1.16746161e-02,  5.78029229e-04
    4172, -4.53944037e-03, -1.16322553e-02,  6.08224766e-04
    4173, -4.13463982e-03, -1.17964635e-02,  1.05833347e-03
    4174, -4.22826602e-03, -1.17584838e-02,  1.11666675e-03
    4175, -4.32189222e-03, -1.17205041e-02,  1.17500003e-03
    4176, -3.18915585e-03, -9.12539353e-03, -1.05833347e-03
    4177, -3.28582610e-03, -9.09601358e-03, -1.11666675e-03
    4178, -3.38249637e-03, -9.06663363e-03, -1.17500003e-03
    4179, -3.39147421e-03, -9.06390510e-03, -5.47833693e-04
    4180, -3.49929593e-03, -9.03113601e-03, -5.78029229e-04
    4181, -3.60711764e-03, -8.99836692e-03, -6.08224766e-04
    4182, -3.46048124e-03, -9.04293254e-03, -1.48029737e-19
    4183, -3.57210650e-03, -9.00900748e-03, -6.47630098e-20
    4184, -3.68373178e-03, -8.97508242e-03,  0.00000000e+00
    4185, -3.39147421e-03, -9.06390510e-03,  5.47833693e-04
    4186, -3.49929593e-03, -9.03113601e-03,  5.78029229e-04
    4187, -3.60711764e-03, -8.99836692e-03,  6.08224766e-04
    4188, -3.18915585e-03, -9.12539353e-03,  1.05833347e-03
    4189, -3.28582610e-03, -9.09601358e-03,  1.11666675e-03
    4190, -3.38249637e-03, -9.06663363e-03,  1.17500003e-03
    4191, -2.48845154e-03, -6.37993032e-03, -1.05833347e-03
    4192, -2.58737777e-03, -6.35938962e-03, -1.11666675e-03
    4193, -2.68630401e-03, -6.33884892e-03, -1.17500003e-03
    4194, -2.69549137e-03, -6.33694129e-03, -5.47833693e-04
    4195, -2.80582930e-03, -6.31403110e-03, -5.78029229e-04
    4196, -2.91616723e-03, -6.29112091e-03, -6.08224766e-04
    4197, -2.76610880e-03, -6.32227852e-03, -1.48029737e-19
    4198, -2.88033904e-03, -6.29856015e-03, -6.47630098e-20
    4199, -2.99456929e-03, -6.27484177e-03,  0.00000000e+00
    4200, -2.69549137e-03, -6.33694129e-03,  5.47833693e-04
    4201, -2.80582930e-03, -6.31403110e-03,  5.78029229e-04
    4202, -2.91616723e-03, -6.29112091e-03,  6.08224766e-04
    4203, -2.48845154e-03, -6.37993032e-03,  1.05833347e-03
    4204, -2.58737777e-03, -6.35938962e-03,  1.11666675e-03
    4205, -2.68630401e-03, -6.33884892e-03,  1.17500003e-03
    4206, -2.03823928e-03, -3.58245581e-03, -1.05833347e-03
    4207, -2.13861501e-03, -3.57092181e-03, -1.11666675e-03
    4208, -2.23899075e-03, -3.55938780e-03, -1.17500003e-03
    4209, -2.24831272e-03, -3.55831663e-03, -5.47833693e-04
    4210, -2.36026735e-03, -3.54545211e-03, -5.78029229e-04
    4211, -2.47222198e-03, -3.53258759e-03, -6.08224766e-04
    4212, -2.31996485e-03, -3.55008320e-03, -1.48029737e-19
    4213, -2.43586883e-03, -3.53676487e-03, -6.47630098e-20
    4214, -2.55177281e-03, -3.52344653e-03,  0.00000000e+00
    4215, -2.24831272e-03, -3.55831663e-03,  5.47833693e-04
    4216, -2.36026735e-03, -3.54545211e-03,  5.78029229e-04
    4217, -2.47222198e-03, -3.53258759e-03,  6.08224766e-04
    4218, -2.03823928e-03, -3.58245581e-03,  1.05833347e-03
    4219, -2.13861501e-03, -3.57092181e-03,  1.11666675e-03
    4220, -2.23899075e-03, -3.55938780e-03,  1.17500003e-03
    4221, -1.84218935e-03, -7.55775934e-04, -1.05833347e-03
    4222, -1.94319628e-03, -7.53342652e-04, -1.11666675e-03
    4223, -2.04420321e-03, -7.50909370e-04, -1.17500003e-03
    4224, -2.05358380e-03, -7.50683389e-04, -5.47833693e-04
    4225, -2.16624245e-03, -7.47969415e-04, -5.78029229e-04
    4226, -2.27890109e-03, -7.45255440e-04, -6.08224766e-04
    4227, -2.12568651e-03, -7.48946417e-04, -1.48029737e-19
    4228, -2.24231934e-03, -7.46136703e-04, -6.47630098e-20
    4229, -2.35895217e-03, -7.43326990e-04,  0.00000000e+00
    4230, -2.05358380e-03, -7.50683389e-04,  5.47833693e-04
    4231, -2.16624245e-03, -7.47969415e-04,  5.78029229e-04
    4232, -2.27890109e-03, -7.45255440e-04,  6.08224766e-04
    4233, -1.84218935e-03, -7.55775934e-04,  1.05833347e-03
    4234, -1.94319628e-03, -7.53342652e-04,  1.11666675e-03
    4235, -2.04420321e-03, -7.50909370e-04,  1.17500003e-03
    4236, -1.43041860e-02, -2.52142595e-02,  1.69705633e-03
    4237, -1.43253992e-02, -2.51859753e-02,  1.73241167e-03
    4238, -1.43466124e-02, -2.51576910e-02,  1.76776700e-03
    4239, -1.40059522e-02, -2.56119046e-02,  2.07846100e-03
    4240, -1.40209522e-02, -2.55919046e-02,  2.12176226e-03
    4241, -1.40359522e-02, -2.55719046e-02,  2.16506353e-03
    4242, -1.36586516e-02, -2.60749720e-02,  2.31822199e-03
    4243, -1.36664162e-02, -2.60646192e-02,  2.36651828e-03
    4244, -1.36741808e-02, -2.60542665e-02,  2.41481457e-03
    4245, -1.32859522e-02, -2.65719046e-02,  2.40000000e-03
    4246, -1.32859522e-02, -2.65719046e-02,  2.45000000e-03
    4247, -1.32859522e-02, -2.65719046e-02,  2.50000000e-03
    4248, -1.29132528e-02, -2.70688372e-02,  2.31822199e-03
    4249, -1.29054882e-02, -2.70791899e-02,  2.36651828e-03
    4250, -1.28977236e-02, -2.70895427e-02,  2.41481457e-03
    4251, -1.25659522e-02, -2.75319046e-02,  2.07846100e-03
    4252, -1.25509522e-02, -2.75519046e-02,  2.12176226e-03
    4253, -1.25359522e-02, -2.75719046e-02,  2.16506353e-03
    4254, -1.22677184e-02, -2.79295496e-02,  1.69705633e-03
    4255, -1.22465052e-02, -2.79578339e-02,  1.73241167e-03
    4256, -1.22252920e-02, -2.79861182e-02,  1.76776700e-03
    4257, -1.21069881e-02, -2.34057712e-02,  1.69705633e-03
    4258, -1.21306660e-02, -2.33795156e-02,  1.73241167e-03
    4259, -1.21543440e-02, -2.33532601e-02,  1.76776700e-03
    4260, -1.17741031e-02, -2.37748952e-02,  2.07846100e-03
    4261, -1.17908459e-02, -2.37563298e-02,  2.12176226e-03
    4262, -1.18075887e-02, -2.37377643e-02,  2.16506353e-03
    4263, -1.13864503e-02, -2.42047493e-02,  2.31822199e-03
    4264, -1.13951170e-02, -2.41951391e-02,  2.36651828e-03
    4265, -1.14037838e-02, -2.41855288e-02,  2.41481457e-03
    4266, -1.09704476e-02, -2.46660394e-02,  2.40000000e-03
    4267, -1.09704476e-02, -2.46660394e-02,  2.45000000e-03
    4268, -1.09704476e-02, -2.46660394e-02,  2.50000000e-03
    4269, -1.05544450e-02, -2.51273296e-02,  2.31822199e-03
    4270, -1.05457782e-02, -2.51369398e-02,  2.36651828e-03
    4271, -1.05371115e-02, -2.51465500e-02,  2.41481457e-03
    4272, -1.01667922e-02, -2.55571836e-02,  2.07846100e-03
    4273, -1.01500494e-02, -2.55757491e-02,  2.12176226e-03
    4274, -1.01333065e-02, -2.55943146e-02,  2.16506353e-03
    4275, -9.83390717e-03, -2.59263076e-02,  1.69705633e-03
    4276, -9.81022924e-03, -2.59525632e-02,  1.73241167e-03
    4277, -9.78655132e-03, -2.59788188e-02,  1.76776700e-03
    4278, -1.00818688e-02, -2.14064713e-02,  1.69705633e-03
    4279, -1.01078184e-02, -2.13824585e-02,  1.73241167e-03
    4280, -1.01337680e-02, -2.13584456e-02,  1.76776700e-03
    4281, -9.71704633e-03, -2.17440651e-02,  2.07846100e-03
    4282, -9.73539547e-03, -2.17270855e-02,  2.12176226e-03
    4283, -9.75374462e-03, -2.17101058e-02,  2.16506353e-03
    4284, -9.29220162e-03, -2.21372014e-02,  2.31822199e-03
    4285, -9.30169983e-03, -2.21284121e-02,  2.36651828e-03
    4286, -9.31119805e-03, -2.21196227e-02,  2.41481457e-03
    4287, -8.83628709e-03, -2.25590886e-02,  2.40000000e-03
    4288, -8.83628709e-03, -2.25590886e-02,  2.45000000e-03
    4289, -8.83628709e-03, -2.25590886e-02,  2.50000000e-03
    4290, -8.38037256e-03, -2.29809757e-02,  2.31822199e-03
    4291, -8.37087434e-03, -2.29897651e-02,  2.36651828e-03
    4292, -8.36137612e-03, -2.29985544e-02,  2.41481457e-03
    4293, -7.95552785e-03, -2.33741120e-02,  2.07846100e-03
    4294, -7.93717870e-03, -2.33910917e-02,  2.12176226e-03
    4295, -7.91882955e-03, -2.34080713e-02,  2.16506353e-03
    4296, -7.59070542e-03, -2.37117058e-02,  1.69705633e-03
    4297, -7.56475580e-03, -2.37357186e-02,  1.73241167e-03
    4298, -7.53880619e-03, -2.37597315e-02,  1.76776700e-03
    4299, -8.24533741e-03, -1.92326588e-02,  1.69705633e-03
    4300, -8.27334717e-03, -1.92110844e-02,  1.73241167e-03
    4301, -8.30135692e-03, -1.91895100e-02,  1.76776700e-03
    4302, -7.85155170e-03, -1.95359701e-02,  2.07846100e-03
    4303, -7.87135758e-03, -1.95207147e-02,  2.12176226e-03
    4304, -7.89116347e-03, -1.95054594e-02,  2.16506353e-03
    4305, -7.39297854e-03, -1.98891837e-02,  2.31822199e-03
    4306, -7.40323082e-03, -1.98812869e-02,  2.36651828e-03
    4307, -7.41348310e-03, -1.98733901e-02,  2.41481457e-03
    4308, -6.90086893e-03, -2.02682285e-02,  2.40000000e-03
    4309, -6.90086893e-03, -2.02682285e-02,  2.45000000e-03
    4310, -6.90086893e-03, -2.02682285e-02,  2.50000000e-03
    4311, -6.40875931e-03, -2.06472733e-02,  2.31822199e-03
    4312, -6.39850703e-03, -2.06551701e-02,  2.36651828e-03
    4313, -6.38825475e-03, -2.06630669e-02,  2.41481457e-03
    4314, -5.95018615e-03, -2.10004869e-02,  2.07846100e-03
    4315, -5.93038027e-03, -2.10157423e-02,  2.12176226e-03
    4316, -5.91057438e-03, -2.10309976e-02,  2.16506353e-03
    4317, -5.55640044e-03, -2.13037982e-02,  1.69705633e-03
    4318, -5.52839068e-03, -2.13253726e-02,  1.73241167e-03
    4319, -5.50038093e-03, -2.13469470e-02,  1.76776700e-03
    4320, -6.61236606e-03, -1.69020552e-02,  1.69705633e-03
    4321, -6.64220762e-03, -1.68830952e-02,  1.73241167e-03
    4322, -6.67204917e-03, -1.68641352e-02,  1.76776700e-03
    4323, -6.19282735e-03, -1.71686114e-02,  2.07846100e-03
    4324, -6.21392850e-03, -1.71552047e-02,  2.12176226e-03
    4325, -6.23502967e-03, -1.71417980e-02,  2.16506353e-03
    4326, -5.70426417e-03, -1.74790228e-02,  2.31822199e-03
    4327, -5.71518694e-03, -1.74720829e-02,  2.36651828e-03
    4328, -5.72610971e-03, -1.74651431e-02,  2.41481457e-03
    4329, -5.17997132e-03, -1.78121351e-02,  2.40000000e-03
    4330, -5.17997132e-03, -1.78121351e-02,  2.45000000e-03
    4331, -5.17997132e-03, -1.78121351e-02,  2.50000000e-03
    4332, -4.65567846e-03, -1.81452475e-02,  2.31822199e-03
    4333, -4.64475570e-03, -1.81521873e-02,  2.36651828e-03
    4334, -4.63383293e-03, -1.81591272e-02,  2.41481457e-03
    4335, -4.16711529e-03, -1.84556588e-02,  2.07846100e-03
    4336, -4.14601413e-03, -1.84690656e-02,  2.12176226e-03
    4337, -4.12491297e-03, -1.84824723e-02,  2.16506353e-03
    4338, -3.74757658e-03, -1.87222151e-02,  1.69705633e-03
    4339, -3.71773502e-03, -1.87411751e-02,  1.73241167e-03
    4340, -3.68789347e-03, -1.87601351e-02,  1.76776700e-03
    4341, -5.19626724e-03, -1.44336605e-02,  1.69705633e-03
    4342, -5.22769732e-03, -1.44174694e-02,  1.73241167e-03
    4343, -5.25912738e-03, -1.44012783e-02,  1.76776700e-03
    4344, -4.75439574e-03, -1.46612885e-02,  2.07846100e-03
    4345, -4.77662015e-03, -1.46498397e-02,  2.12176226e-03
    4346, -4.79884457e-03, -1.46383909e-02,  2.16506353e-03
    4347, -4.23982549e-03, -1.49263670e-02,  2.31822199e-03
    4348, -4.25132969e-03, -1.49204407e-02,  2.36651828e-03
    4349, -4.26283390e-03, -1.49145144e-02,  2.41481457e-03
    4350, -3.68762360e-03, -1.52108313e-02,  2.40000000e-03
    4351, -3.68762360e-03, -1.52108313e-02,  2.45000000e-03
    4352, -3.68762360e-03, -1.52108313e-02,  2.50000000e-03
    4353, -3.13542171e-03, -1.54952956e-02,  2.31822199e-03
    4354, -3.12391750e-03, -1.55012219e-02,  2.36651828e-03
    4355, -3.11241330e-03, -1.55071483e-02,  2.41481457e-03
    4356, -2.62085145e-03, -1.57603741e-02,  2.07846100e-03
    4357, -2.59862704e-03, -1.57718229e-02,  2.12176226e-03
    4358, -2.57640263e-03, -1.57832717e-02,  2.16506353e-03
    4359, -2.17897995e-03, -1.59880022e-02,  1.69705633e-03
    4360, -2.14754988e-03, -1.60041932e-02,  1.73241167e-03
    4361, -2.11611981e-03, -1.60203843e-02,  1.76776700e-03
    4362, -4.00858545e-03, -1.18475977e-02,  1.69705633e-03
    4363, -4.04134782e-03, -1.18343076e-02,  1.73241167e-03
    4364, -4.07411018e-03, -1.18210175e-02,  1.76776700e-03
    4365, -3.54798345e-03, -1.20344419e-02,  2.07846100e-03
    4366, -3.57114993e-03, -1.20250444e-02,  2.12176226e-03
    4367, -3.59431642e-03, -1.20156469e-02,  2.16506353e-03
    4368, -3.01160106e-03, -1.22520266e-02,  2.31822199e-03
    4369, -3.02359292e-03, -1.22471621e-02,  2.36651828e-03
    4370, -3.03558478e-03, -1.22422976e-02,  2.41481457e-03
    4371, -2.43599187e-03, -1.24855238e-02,  2.40000000e-03
    4372, -2.43599187e-03, -1.24855238e-02,  2.45000000e-03
    4373, -2.43599187e-03, -1.24855238e-02,  2.50000000e-03
    4374, -1.86038268e-03, -1.27190209e-02,  2.31822199e-03
    4375, -1.84839083e-03, -1.27238854e-02,  2.36651828e-03
    4376, -1.83639897e-03, -1.27287499e-02,  2.41481457e-03
    4377, -1.32400030e-03, -1.29366056e-02,  2.07846100e-03
    4378, -1.30083382e-03, -1.29460031e-02,  2.12176226e-03
    4379, -1.27766733e-03, -1.29554006e-02,  2.16506353e-03
    4380, -8.63398294e-04, -1.31234498e-02,  1.69705633e-03
    4381, -8.30635928e-04, -1.31367399e-02,  1.73241167e-03
    4382, -7.97873571e-04, -1.31500300e-02,  1.76776700e-03
    4383, -3.05900308e-03, -9.16494945e-03,  1.69705633e-03
    4384, -3.09283065e-03, -9.15466860e-03,  1.73241167e-03
    4385, -3.12665820e-03, -9.14438776e-03,  1.76776700e-03
    4386, -2.58342555e-03, -9.30948658e-03,  2.07846100e-03
    4387, -2.60734524e-03, -9.30221692e-03,  2.12176226e-03
    4388, -2.63126494e-03, -9.29494727e-03,  2.16506353e-03
    4389, -2.02960380e-03, -9.47780362e-03,  2.31822199e-03
    4390, -2.04198555e-03, -9.47404057e-03,  2.36651828e-03
    4391, -2.05436730e-03, -9.47027752e-03,  2.41481457e-03
    4392, -1.43527987e-03, -9.65843006e-03,  2.40000000e-03
    4393, -1.43527987e-03, -9.65843006e-03,  2.45000000e-03
    4394, -1.43527987e-03, -9.65843006e-03,  2.50000000e-03
    4395, -8.40955933e-04, -9.83905650e-03,  2.31822199e-03
    4396, -8.28574186e-04, -9.84281955e-03,  2.36651828e-03
    4397, -8.16192438e-04, -9.84658260e-03,  2.41481457e-03
    4398, -2.87134181e-04, -1.00073736e-02,  2.07846100e-03
    4399, -2.63214490e-04, -1.00146432e-02,  2.12176226e-03
    4400, -2.39294788e-04, -1.00219129e-02,  2.16506353e-03
    4401,  1.88443345e-04, -1.01519107e-02,  1.69705633e-03
    4402,  2.22270912e-04, -1.01621915e-02,  1.73241167e-03
    4403,  2.56098469e-04, -1.01724724e-02,  1.76776700e-03
    4404, -2.35526143e-03, -6.40758546e-03,  1.69705633e-03
    4405, -2.38987842e-03, -6.40039771e-03,  1.73241167e-03
    4406, -2.42449540e-03, -6.39320996e-03,  1.76776700e-03
    4407, -1.86858544e-03, -6.50863719e-03,  2.07846100e-03
    4408, -1.89306334e-03, -6.50355469e-03,  2.12176226e-03
    4409, -1.91754125e-03, -6.49847218e-03,  2.16506353e-03
    4410, -1.30183926e-03, -6.62631442e-03,  2.31822199e-03
    4411, -1.31450996e-03, -6.62368352e-03,  2.36651828e-03
    4412, -1.32718066e-03, -6.62105262e-03,  2.41481457e-03
    4413, -6.93645711e-04, -6.75259765e-03,  2.40000000e-03
    4414, -6.93645711e-04, -6.75259765e-03,  2.45000000e-03
    4415, -6.93645711e-04, -6.75259765e-03,  2.50000000e-03
    4416, -8.54521599e-05, -6.87888087e-03,  2.31822199e-03
    4417, -7.27814623e-05, -6.88151177e-03,  2.36651828e-03
    4418, -6.01107638e-05, -6.88414267e-03,  2.41481457e-03
    4419,  4.81294019e-04, -6.99655810e-03,  2.07846100e-03
    4420,  5.05771920e-04, -7.00164061e-03,  2.12176226e-03
    4421,  5.30249830e-04, -7.00672312e-03,  2.16506353e-03
    4422,  9.67970003e-04, -7.09760983e-03,  1.69705633e-03
    4423,  1.00258700e-03, -7.10479758e-03,  1.73241167e-03
    4424,  1.03720398e-03, -7.11198534e-03,  1.76776700e-03
    4425, -1.90309763e-03, -3.59798472e-03,  1.69705633e-03
    4426, -1.93822184e-03, -3.59394865e-03,  1.73241167e-03
    4427, -1.97334604e-03, -3.58991259e-03,  1.76776700e-03
    4428, -1.40929073e-03, -3.65472724e-03,  2.07846100e-03
    4429, -1.43412729e-03, -3.65187331e-03,  2.12176226e-03
    4430, -1.45896386e-03, -3.64901939e-03,  2.16506353e-03
    4431, -8.34240430e-04, -3.72080531e-03,  2.31822199e-03
    4432, -8.47096782e-04, -3.71932801e-03,  2.36651828e-03
    4433, -8.59953135e-04, -3.71785071e-03,  2.41481457e-03
    4434, -2.17135456e-04, -3.79171581e-03,  2.40000000e-03
    4435, -2.17135456e-04, -3.79171581e-03,  2.45000000e-03
    4436, -2.17135456e-04, -3.79171581e-03,  2.50000000e-03
    4437,  3.99969518e-04, -3.86262631e-03,  2.31822199e-03
    4438,  4.12825870e-04, -3.86410362e-03,  2.36651828e-03
    4439,  4.25682223e-04, -3.86558092e-03,  2.41481457e-03
    4440,  9.75019821e-04, -3.92870438e-03,  2.07846100e-03
    4441,  9.99856378e-04, -3.93155831e-03,  2.12176226e-03
    4442,  1.02469295e-03, -3.93441224e-03,  2.16506353e-03
    4443,  1.46882672e-03, -3.98544691e-03,  1.69705633e-03
    4444,  1.50395093e-03, -3.98948297e-03,  1.73241167e-03
    4445,  1.53907513e-03, -3.99351904e-03,  1.76776700e-03
    4446, -1.70619788e-03, -7.59052003e-04,  1.69705633e-03
    4447, -1.74154296e-03, -7.58200531e-04,  1.73241167e-03
    4448, -1.77688804e-03, -7.57349059e-04,  1.76776700e-03
    4449, -1.20928575e-03, -7.71022739e-04,  2.07846100e-03
    4450, -1.23427849e-03, -7.70420658e-04,  2.12176226e-03
    4451, -1.25927124e-03, -7.69818576e-04,  2.16506353e-03
    4452, -6.30619322e-04, -7.84962957e-04,  2.31822199e-03
    4453, -6.43556520e-04, -7.84651297e-04,  2.36651828e-03
    4454, -6.56493718e-04, -7.84339637e-04,  2.41481457e-03
    4455, -9.63377023e-06, -7.99922653e-04,  2.40000000e-03
    4456, -9.63377023e-06, -7.99922653e-04,  2.45000000e-03
    4457, -9.63377023e-06, -7.99922653e-04,  2.50000000e-03
    4458,  6.11351782e-04, -8.14882350e-04,  2.31822199e-03
    4459,  6.24288979e-04, -8.15194010e-04,  2.36651828e-03
    4460,  6.37226178e-04, -8.15505670e-04,  2.41481457e-03
    4461,  1.19001821e-03, -8.28822568e-04,  2.07846100e-03
    4462,  1.21501095e-03, -8.29424649e-04,  2.12176226e-03
    4463,  1.24000370e-03, -8.30026731e-04,  2.16506353e-03
    4464,  1.68693034e-03, -8.40793304e-04,  1.69705633e-03
    4465,  1.72227542e-03, -8.41644776e-04,  1.73241167e-03
    4466,  1.75762050e-03, -8.42496248e-04,  1.76776700e-03
    4467, -1.20388756e-02, -2.82346734e-02,  1.20000003e-03
    4468, -1.20128948e-02, -2.82693144e-02,  1.22500002e-03
    4469, -1.19869141e-02, -2.83039554e-02,  1.25000002e-03
    4470, -1.18950190e-02, -2.84264822e-02,  6.21165717e-04
    4471, -1.18660412e-02, -2.84651192e-02,  6.34106668e-04
    4472, -1.18370634e-02, -2.85037562e-02,  6.47047620e-04
    4473, -1.18459522e-02, -2.84919046e-02,  7.40148683e-20
    4474, -1.18159522e-02, -2.85319046e-02,  1.48029737e-19
    4475, -1.17859522e-02, -2.85719046e-02,  2.22044605e-19
    4476, -1.18950190e-02, -2.84264822e-02, -6.21165717e-04
    4477, -1.18660412e-02, -2.84651192e-02, -6.34106668e-04
    4478, -1.18370634e-02, -2.85037562e-02, -6.47047620e-04
    4479, -1.20388756e-02, -2.82346734e-02, -1.20000003e-03
    4480, -1.20128948e-02, -2.82693144e-02, -1.22500002e-03
    4481, -1.19869141e-02, -2.83039554e-02, -1.25000002e-03
    4482, -1.22677184e-02, -2.79295496e-02, -1.69705633e-03
    4483, -1.22465052e-02, -2.79578339e-02, -1.73241167e-03
    4484, -1.22252920e-02, -2.79861182e-02, -1.76776700e-03
    4485, -9.57847555e-03, -2.62095464e-02,  1.20000003e-03
    4486, -9.54947614e-03, -2.62417028e-02,  1.22500002e-03
    4487, -9.52047672e-03, -2.62738592e-02,  1.25000002e-03
    4488, -9.41790453e-03, -2.63875978e-02,  6.21165717e-04
    4489, -9.38555989e-03, -2.64234636e-02,  6.34106668e-04
    4490, -9.35321524e-03, -2.64593294e-02,  6.47047620e-04
    4491, -9.36313675e-03, -2.64483278e-02,  7.40148683e-20
    4492, -9.32965110e-03, -2.64854588e-02,  1.48029737e-19
    4493, -9.29616546e-03, -2.65225898e-02,  2.22044605e-19
    4494, -9.41790453e-03, -2.63875978e-02, -6.21165717e-04
    4495, -9.38555989e-03, -2.64234636e-02, -6.34106668e-04
    4496, -9.35321524e-03, -2.64593294e-02, -6.47047620e-04
    4497, -9.57847555e-03, -2.62095464e-02, -1.20000003e-03
    4498, -9.54947614e-03, -2.62417028e-02, -1.22500002e-03
    4499, -9.52047672e-03, -2.62738592e-02, -1.25000002e-03
    4500, -9.83390717e-03, -2.59263076e-02, -1.69705633e-03
    4501, -9.81022924e-03, -2.59525632e-02, -1.73241167e-03
    4502, -9.78655132e-03, -2.59788188e-02, -1.76776700e-03
    4503, -7.31076735e-03, -2.39707506e-02,  1.20000003e-03
    4504, -7.27898570e-03, -2.40001602e-02,  1.22500002e-03
    4505, -7.24720404e-03, -2.40295698e-02,  1.25000002e-03
    4506, -7.13479093e-03, -2.41335929e-02,  6.21165717e-04
    4507, -7.09934310e-03, -2.41663951e-02,  6.34106668e-04
    4508, -7.06389526e-03, -2.41991973e-02,  6.47047620e-04
    4509, -7.07476865e-03, -2.41891354e-02,  7.40148683e-20
    4510, -7.03807035e-03, -2.42230947e-02,  1.48029737e-19
    4511, -7.00137205e-03, -2.42570540e-02,  2.22044605e-19
    4512, -7.13479093e-03, -2.41335929e-02, -6.21165717e-04
    4513, -7.09934310e-03, -2.41663951e-02, -6.34106668e-04
    4514, -7.06389526e-03, -2.41991973e-02, -6.47047620e-04
    4515, -7.31076735e-03, -2.39707506e-02, -1.20000003e-03
    4516, -7.27898570e-03, -2.40001602e-02, -1.22500002e-03
    4517, -7.24720404e-03, -2.40295698e-02, -1.25000002e-03
    4518, -7.59070542e-03, -2.37117058e-02, -1.69705633e-03
    4519, -7.56475580e-03, -2.37357186e-02, -1.73241167e-03
    4520, -7.53880619e-03, -2.37597315e-02, -1.76776700e-03
    4521, -5.25423807e-03, -2.15365372e-02,  1.20000003e-03
    4522, -5.21993327e-03, -2.15629603e-02,  1.22500002e-03
    4523, -5.18562846e-03, -2.15893834e-02,  1.25000002e-03
    4524, -5.06429088e-03, -2.16828430e-02,  6.21165717e-04
    4525, -5.02602883e-03, -2.17123142e-02,  6.34106668e-04
    4526, -4.98776679e-03, -2.17417853e-02,  6.47047620e-04
    4527, -4.99950342e-03, -2.17327452e-02,  7.40148683e-20
    4528, -4.95989164e-03, -2.17632560e-02,  1.48029737e-19
    4529, -4.92027986e-03, -2.17937668e-02,  2.22044605e-19
    4530, -5.06429088e-03, -2.16828430e-02, -6.21165717e-04
    4531, -5.02602883e-03, -2.17123142e-02, -6.34106668e-04
    4532, -4.98776679e-03, -2.17417853e-02, -6.47047620e-04
    4533, -5.25423807e-03, -2.15365372e-02, -1.20000003e-03
    4534, -5.21993327e-03, -2.15629603e-02, -1.22500002e-03
    4535, -5.18562846e-03, -2.15893834e-02, -1.25000002e-03
    4536, -5.55640044e-03, -2.13037982e-02, -1.69705633e-03
    4537, -5.52839068e-03, -2.13253726e-02, -1.73241167e-03
    4538, -5.50038093e-03, -2.13469470e-02, -1.76776700e-03
    4539, -3.42565324e-03, -1.89267508e-02,  1.20000003e-03
    4540, -3.38910495e-03, -1.89499720e-02,  1.22500002e-03
    4541, -3.35255666e-03, -1.89731932e-02,  1.25000002e-03
    4542, -3.22328377e-03, -1.90553274e-02,  6.21165717e-04
    4543, -3.18251945e-03, -1.90812272e-02,  6.34106668e-04
    4544, -3.14175513e-03, -1.91071271e-02,  6.47047620e-04
    4545, -3.15425931e-03, -1.90991825e-02,  7.40148683e-20
    4546, -3.11205698e-03, -1.91259960e-02,  1.48029737e-19
    4547, -3.06985465e-03, -1.91528094e-02,  2.22044605e-19
    4548, -3.22328377e-03, -1.90553274e-02, -6.21165717e-04
    4549, -3.18251945e-03, -1.90812272e-02, -6.34106668e-04
    4550, -3.14175513e-03, -1.91071271e-02, -6.47047620e-04
    4551, -3.42565324e-03, -1.89267508e-02, -1.20000003e-03
    4552, -3.38910495e-03, -1.89499720e-02, -1.22500002e-03
    4553, -3.35255666e-03, -1.89731932e-02, -1.25000002e-03
    4554, -3.74757658e-03, -1.87222151e-02, -1.69705633e-03
    4555, -3.71773502e-03, -1.87411751e-02, -1.73241167e-03
    4556, -3.68789347e-03, -1.87601351e-02, -1.76776700e-03
    4557, -1.83992007e-03, -1.61626673e-02,  1.20000003e-03
    4558, -1.80142625e-03, -1.61824972e-02,  1.22500002e-03
    4559, -1.76293243e-03, -1.62023271e-02,  1.25000002e-03
    4560, -1.62677812e-03, -1.62724664e-02,  6.21165717e-04
    4561, -1.58384384e-03, -1.62945838e-02,  6.34106668e-04
    4562, -1.54090956e-03, -1.63167012e-02,  6.47047620e-04
    4563, -1.55407937e-03, -1.63099168e-02,  7.40148683e-20
    4564, -1.50963053e-03, -1.63328145e-02,  1.48029737e-19
    4565, -1.46518169e-03, -1.63557121e-02,  2.22044605e-19
    4566, -1.62677812e-03, -1.62724664e-02, -6.21165717e-04
    4567, -1.58384384e-03, -1.62945838e-02, -6.34106668e-04
    4568, -1.54090956e-03, -1.63167012e-02, -6.47047620e-04
    4569, -1.83992007e-03, -1.61626673e-02, -1.20000003e-03
    4570, -1.80142625e-03, -1.61824972e-02, -1.22500002e-03
    4571, -1.76293243e-03, -1.62023271e-02, -1.25000002e-03
    4572, -2.17897995e-03, -1.59880022e-02, -1.69705633e-03
    4573, -2.14754988e-03, -1.60041932e-02, -1.73241167e-03
    4574, -2.11611981e-03, -1.60203843e-02, -1.76776700e-03
    4575, -5.09965986e-04, -1.32668204e-02,  1.20000003e-03
    4576, -4.69840457e-04, -1.32830974e-02,  1.22500002e-03
    4577, -4.29714919e-04, -1.32993744e-02,  1.25000002e-03
    4578, -2.87789158e-04, -1.33569469e-02,  6.21165717e-04
    4579, -2.43034936e-04, -1.33751015e-02,  6.34106668e-04
    4580, -1.98280714e-04, -1.33932562e-02,  6.47047620e-04
    4581, -2.12008778e-04, -1.33876874e-02,  7.40148683e-20
    4582, -1.65675797e-04, -1.34064824e-02,  1.48029737e-19
    4583, -1.19342815e-04, -1.34252775e-02,  2.22044605e-19
    4584, -2.87789158e-04, -1.33569469e-02, -6.21165717e-04
    4585, -2.43034936e-04, -1.33751015e-02, -6.34106668e-04
    4586, -1.98280714e-04, -1.33932562e-02, -6.47047620e-04
    4587, -5.09965986e-04, -1.32668204e-02, -1.20000003e-03
    4588, -4.69840457e-04, -1.32830974e-02, -1.22500002e-03
    4589, -4.29714919e-04, -1.32993744e-02, -1.25000002e-03
    4590, -8.63398294e-04, -1.31234498e-02, -1.69705633e-03
    4591, -8.30635928e-04, -1.31367399e-02, -1.73241167e-03
    4592, -7.97873571e-04, -1.31500300e-02, -1.76776700e-03
    4593,  5.53366775e-04, -1.02628179e-02,  1.20000003e-03
    4594,  5.94796903e-04, -1.02754093e-02,  1.22500002e-03
    4595,  6.36227040e-04, -1.02880007e-02,  1.25000002e-03
    4596,  7.82767224e-04, -1.03325371e-02,  6.21165717e-04
    4597,  8.28976537e-04, -1.03465810e-02,  6.34106668e-04
    4598,  8.75185850e-04, -1.03606249e-02,  6.47047620e-04
    4599,  8.61011447e-04, -1.03563170e-02,  7.40148683e-20
    4600,  9.08850849e-04, -1.03708563e-02,  1.48029737e-19
    4601,  9.56690251e-04, -1.03853956e-02,  2.22044605e-19
    4602,  7.82767224e-04, -1.03325371e-02, -6.21165717e-04
    4603,  8.28976537e-04, -1.03465810e-02, -6.34106668e-04
    4604,  8.75185850e-04, -1.03606249e-02, -6.47047620e-04
    4605,  5.53366775e-04, -1.02628179e-02, -1.20000003e-03
    4606,  5.94796903e-04, -1.02754093e-02, -1.22500002e-03
    4607,  6.36227040e-04, -1.02880007e-02, -1.25000002e-03
    4608,  1.88443345e-04, -1.01519107e-02, -1.69705633e-03
    4609,  2.22270912e-04, -1.01621915e-02, -1.73241167e-03
    4610,  2.56098469e-04, -1.01724724e-02, -1.76776700e-03
    4611,  1.34140958e-03, -7.17514954e-03,  1.20000003e-03
    4612,  1.38380655e-03, -7.18395270e-03,  1.22500002e-03
    4613,  1.42620354e-03, -7.19275587e-03,  1.25000002e-03
    4614,  1.57616350e-03, -7.22389304e-03,  6.21165717e-04
    4615,  1.62345119e-03, -7.23371169e-03,  6.34106668e-04
    4616,  1.67073888e-03, -7.24353035e-03,  6.47047620e-04
    4617,  1.65623369e-03, -7.24051854e-03,  7.40148683e-20
    4618,  1.70518951e-03, -7.25068356e-03,  1.48029737e-19
    4619,  1.75414533e-03, -7.26084858e-03,  2.22044605e-19
    4620,  1.57616350e-03, -7.22389304e-03, -6.21165717e-04
    4621,  1.62345119e-03, -7.23371169e-03, -6.34106668e-04
    4622,  1.67073888e-03, -7.24353035e-03, -6.47047620e-04
    4623,  1.34140958e-03, -7.17514954e-03, -1.20000003e-03
    4624,  1.38380655e-03, -7.18395270e-03, -1.22500002e-03
    4625,  1.42620354e-03, -7.19275587e-03, -1.25000002e-03
    4626,  9.67970003e-04, -7.09760983e-03, -1.69705633e-03
    4627,  1.00258700e-03, -7.10479758e-03, -1.73241167e-03
    4628,  1.03720398e-03, -7.11198534e-03, -1.76776700e-03
    4629,  1.84773803e-03, -4.02898698e-03,  1.20000003e-03
    4630,  1.89075622e-03, -4.03393012e-03,  1.22500002e-03
    4631,  1.93377442e-03, -4.03887327e-03,  1.25000002e-03
    4632,  2.08593163e-03, -4.05635741e-03,  6.21165717e-04
    4633,  2.13391220e-03, -4.06187077e-03,  6.34106668e-04
    4634,  2.18189276e-03, -4.06738414e-03,  6.47047620e-04
    4635,  2.16717504e-03, -4.06569295e-03,  7.40148683e-20
    4636,  2.21684817e-03, -4.07140081e-03,  1.48029737e-19
    4637,  2.26652131e-03, -4.07710866e-03,  2.22044605e-19
    4638,  2.08593163e-03, -4.05635741e-03, -6.21165717e-04
    4639,  2.13391220e-03, -4.06187077e-03, -6.34106668e-04
    4640,  2.18189276e-03, -4.06738414e-03, -6.47047620e-04
    4641,  1.84773803e-03, -4.02898698e-03, -1.20000003e-03
    4642,  1.89075622e-03, -4.03393012e-03, -1.22500002e-03
    4643,  1.93377442e-03, -4.03887327e-03, -1.25000002e-03
    4644,  1.46882672e-03, -3.98544691e-03, -1.69705633e-03
    4645,  1.50395093e-03, -3.98948297e-03, -1.73241167e-03
    4646,  1.53907513e-03, -3.99351904e-03, -1.76776700e-03
    4647,  2.06822439e-03, -8.49978773e-04,  1.20000003e-03
    4648,  2.11151309e-03, -8.51021608e-04,  1.22500002e-03
    4649,  2.15480180e-03, -8.52064444e-04,  1.25000002e-03
    4650,  2.30791583e-03, -8.55752999e-04,  6.21165717e-04
    4651,  2.35619812e-03, -8.56916131e-04,  6.34106668e-04
    4652,  2.40448040e-03, -8.58079264e-04,  6.47047620e-04
    4653,  2.38967012e-03, -8.57722480e-04,  7.40148683e-20
    4654,  2.43965562e-03, -8.58926644e-04,  1.48029737e-19
    4655,  2.48964112e-03, -8.60130807e-04,  2.22044605e-19
    4656,  2.30791583e-03, -8.55752999e-04, -6.21165717e-04
    4657,  2.35619812e-03, -8.56916131e-04, -6.34106668e-04
    4658,  2.40448040e-03, -8.58079264e-04, -6.47047620e-04
    4659,  2.06822439e-03, -8.49978773e-04, -1.20000003e-03
    4660,  2.11151309e-03, -8.51021608e-04, -1.22500002e-03
    4661,  2.15480180e-03, -8.52064444e-04, -1.25000002e-03
    4662,  1.68693034e-03, -8.40793304e-04, -1.69705633e-03
    4663,  1.72227542e-03, -8.41644776e-04, -1.73241167e-03
    4664,  1.75762050e-03, -8.42496248e-04, -1.76776700e-03
    4665, -1.25659522e-02, -2.75319046e-02, -2.07846100e-03
    4666, -1.25509522e-02, -2.75519046e-02, -2.12176226e-03
    4667, -1.25359522e-02, -2.75719046e-02, -2.16506353e-03
    4668, -1.29132528e-02, -2.70688372e-02, -2.31822199e-03
    4669, -1.29054882e-02, -2.70791899e-02, -2.36651828e-03
    4670, -1.28977236e-02, -2.70895427e-02, -2.41481457e-03
    4671, -1.32859522e-02, -2.65719046e-02, -2.40000000e-03
    4672, -1.32859522e-02, -2.65719046e-02, -2.45000000e-03
    4673, -1.32859522e-02, -2.65719046e-02, -2.50000000e-03
    4674, -1.36586516e-02, -2.60749720e-02, -2.31822199e-03
    4675, -1.36664162e-02, -2.60646192e-02, -2.36651828e-03
    4676, -1.36741808e-02, -2.60542665e-02, -2.41481457e-03
    4677, -1.40059522e-02, -2.56119046e-02, -2.07846100e-03
    4678, -1.40209522e-02, -2.55919046e-02, -2.12176226e-03
    4679, -1.40359522e-02, -2.55719046e-02, -2.16506353e-03
    4680, -1.43041860e-02, -2.52142595e-02, -1.69705633e-03
    4681, -1.43253992e-02, -2.51859753e-02, -1.73241167e-03
    4682, -1.43466124e-02, -2.51576910e-02, -1.76776700e-03
    4683, -1.01667922e-02, -2.55571836e-02, -2.07846100e-03
    4684, -1.01500494e-02, -2.55757491e-02, -2.12176226e-03
    4685, -1.01333065e-02, -2.55943146e-02, -2.16506353e-03
    4686, -1.05544450e-02, -2.51273296e-02, -2.31822199e-03
    4687, -1.05457782e-02, -2.51369398e-02, -2.36651828e-03
    4688, -1.05371115e-02, -2.51465500e-02, -2.41481457e-03
    4689, -1.09704476e-02, -2.46660394e-02, -2.40000000e-03
    4690, -1.09704476e-02, -2.46660394e-02, -2.45000000e-03
    4691, -1.09704476e-02, -2.46660394e-02, -2.50000000e-03
    4692, -1.13864503e-02, -2.42047493e-02, -2.31822199e-03
    4693, -1.13951170e-02, -2.41951391e-02, -2.36651828e-03
    4694, -1.14037838e-02, -2.41855288e-02, -2.41481457e-03
    4695, -1.17741031e-02, -2.37748952e-02, -2.07846100e-03
    4696, -1.17908459e-02, -2.37563298e-02, -2.12176226e-03
    4697, -1.18075887e-02, -2.37377643e-02, -2.16506353e-03
    4698, -1.21069881e-02, -2.34057712e-02, -1.69705633e-03
    4699, -1.21306660e-02, -2.33795156e-02, -1.73241167e-03
    4700, -1.21543440e-02, -2.33532601e-02, -1.76776700e-03
    4701, -7.95552785e-03, -2.33741120e-02, -2.07846100e-03
    4702, -7.93717870e-03, -2.33910917e-02, -2.12176226e-03
    4703, -7.91882955e-03, -2.34080713e-02, -2.16506353e-03
    4704, -8.38037256e-03, -2.29809757e-02, -2.31822199e-03
    4705, -8.37087434e-03, -2.29897651e-02, -2.36651828e-03
    4706, -8.36137612e-03, -2.29985544e-02, -2.41481457e-03
    4707, -8.83628709e-03, -2.25590886e-02, -2.40000000e-03
    4708, -8.83628709e-03, -2.25590886e-02, -2.45000000e-03
    4709, -8.83628709e-03, -2.25590886e-02, -2.50000000e-03
    4710, -9.29220162e-03, -2.21372014e-02, -2.31822199e-03
    4711, -9.30169983e-03, -2.21284121e-02, -2.36651828e-03
    4712, -9.31119805e-03, -2.21196227e-02, -2.41481457e-03
    4713, -9.71704633e-03, -2.17440651e-02, -2.07846100e-03
    4714, -9.73539547e-03, -2.17270855e-02, -2.12176226e-03
    4715, -9.75374462e-03, -2.17101058e-02, -2.16506353e-03
    4716, -1.00818688e-02, -2.14064713e-02, -1.69705633e-03
    4717, -1.01078184e-02, -2.13824585e-02, -1.73241167e-03
    4718, -1.01337680e-02, -2.13584456e-02, -1.76776700e-03
    4719, -5.95018615e-03, -2.10004869e-02, -2.07846100e-03
    4720, -5.93038027e-03, -2.10157423e-02, -2.12176226e-03
    4721, -5.91057438e-03, -2.10309976e-02, -2.16506353e-03
    4722, -6.40875931e-03, -2.06472733e-02, -2.31822199e-03
    4723, -6.39850703e-03, -2.06551701e-02, -2.36651828e-03
    4724, -6.38825475e-03, -2.06630669e-02, -2.41481457e-03
    4725, -6.90086893e-03, -2.02682285e-02, -2.40000000e-03
    4726, -6.90086893e-03, -2.02682285e-02, -2.45000000e-03
    4727, -6.90086893e-03, -2.02682285e-02, -2.50000000e-03
    4728, -7.39297854e-03, -1.98891837e-02, -2.31822199e-03
    4729, -7.40323082e-03, -1.98812869e-02, -2.36651828e-03
    4730, -7.41348310e-03, -1.98733901e-02, -2.41481457e-03
    4731, -7.85155170e-03, -1.95359701e-02, -2.07846100e-03
    4732, -7.87135758e-03, -1.95207147e-02, -2.12176226e-03
    4733, -7.89116347e-03, -1.95054594e-02, -2.16506353e-03
    4734, -8.24533741e-03, -1.92326588e-02, -1.69705633e-03
    4735, -8.27334717e-03, -1.92110844e-02, -1.73241167e-03
    4736, -8.30135692e-03, -1.91895100e-02, -1.76776700e-03
    4737, -4.16711529e-03, -1.84556588e-02, -2.07846100e-03
    4738, -4.14601413e-03, -1.84690656e-02, -2.12176226e-03
    4739, -4.12491297e-03, -1.84824723e-02, -2.16506353e-03
    4740, -4.65567846e-03, -1.81452475e-02, -2.31822199e-03
    4741, -4.64475570e-03, -1.81521873e-02, -2.36651828e-03
    4742, -4.63383293e-03, -1.81591272e-02, -2.41481457e-03
    4743, -5.17997132e-03, -1.78121351e-02, -2.40000000e-03
    4744, -5.17997132e-03, -1.78121351e-02, -2.45000000e-03
    4745, -5.17997132e-03, -1.78121351e-02, -2.50000000e-03
    4746, -5.70426417e-03, -1.74790228e-02, -2.31822199e-03
    4747, -5.71518694e-03, -1.74720829e-02, -2.36651828e-03
    4748, -5.72610971e-03, -1.74651431e-02, -2.41481457e-03
    4749, -6.19282735e-03, -1.71686114e-02, -2.07846100e-03
    4750, -6.21392850e-03, -1.71552047e-02, -2.12176226e-03
    4751, -6.23502967e-03, -1.71417980e-02, -2.16506353e-03
    4752, -6.61236606e-03, -1.69020552e-02, -1.69705633e-03
    4753, -6.64220762e-03, -1.68830952e-02, -1.73241167e-03
    4754, -6.67204917e-03, -1.68641352e-02, -1.76776700e-03
    4755, -2.62085145e-03, -1.57603741e-02, -2.07846100e-03
    4756, -2.59862704e-03, -1.57718229e-02, -2.12176226e-03
    4757, -2.57640263e-03, -1.57832717e-02, -2.16506353e-03
    4758, -3.13542171e-03, -1.54952956e-02, -2.31822199e-03
    4759, -3.12391750e-03, -1.55012219e-02, -2.36651828e-03
    4760, -3.11241330e-03, -1.55071483e-02, -2.41481457e-03
    4761, -3.68762360e-03, -1.52108313e-02, -2.40000000e-03
    4762, -3.68762360e-03, -1.52108313e-02, -2.45000000e-03
    4763, -3.68762360e-03, -1.52108313e-02, -2.50000000e-03
    4764, -4.23982549e-03, -1.49263670e-02, -2.31822199e-03
    4765, -4.25132969e-03, -1.49204407e-02, -2.36651828e-03
    4766, -4.26283390e-03, -1.49145144e-02, -2.41481457e-03
    4767, -4.75439574e-03, -1.46612885e-02, -2.07846100e-03
    4768, -4.77662015e-03, -1.46498397e-02, -2.12176226e-03
    4769, -4.79884457e-03, -1.46383909e-02, -2.16506353e-03
    4770, -5.19626724e-03, -1.44336605e-02, -1.69705633e-03
    4771, -5.22769732e-03, -1.44174694e-02, -1.73241167e-03
    4772, -5.25912738e-03, -1.44012783e-02, -1.76776700e-03
    4773, -1.32400030e-03, -1.29366056e-02, -2.07846100e-03
    4774, -1.30083382e-03, -1.29460031e-02, -2.12176226e-03
    4775, -1.27766733e-03, -1.29554006e-02, -2.16506353e-03
    4776, -1.86038268e-03, -1.27190209e-02, -2.31822199e-03
    4777, -1.84839083e-03, -1.27238854e-02, -2.36651828e-03
    4778, -1.83639897e-03, -1.27287499e-02, -2.41481457e-03
    4779, -2.43599187e-03, -1.24855238e-02, -2.40000000e-03
    4780, -2.43599187e-03, -1.24855238e-02, -2.45000000e-03
    4781, -2.43599187e-03, -1.24855238e-02, -2.50000000e-03
    4782, -3.01160106e-03, -1.22520266e-02, -2.31822199e-03
    4783, -3.02359292e-03, -1.22471621e-02, -2.36651828e-03
    4784, -3.03558478e-03, -1.22422976e-02, -2.41481457e-03
    4785, -3.54798345e-03, -1.20344419e-02, -2.07846100e-03
    4786, -3.57114993e-03, -1.20250444e-02, -2.12176226e-03
    4787, -3.59431642e-03, -1.20156469e-02, -2.16506353e-03
    4788, -4.00858545e-03, -1.18475977e-02, -1.69705633e-03
    4789, -4.04134782e-03, -1.18343076e-02, -1.73241167e-03
    4790, -4.07411018e-03, -1.18210175e-02, -1.76776700e-03
    4791, -2.87134181e-04, -1.00073736e-02, -2.07846100e-03
    4792, -2.63214490e-04, -1.00146432e-02, -2.12176226e-03
    4793, -2.39294788e-04, -1.00219129e-02, -2.16506353e-03
    4794, -8.40955933e-04, -9.83905650e-03, -2.31822199e-03
    4795, -8.28574186e-04, -9.84281955e-03, -2.36651828e-03
    4796, -8.16192438e-04, -9.84658260e-03, -2.41481457e-03
    4797, -1.43527987e-03, -9.65843006e-03, -2.40000000e-03
    4798, -1.43527987e-03, -9.65843006e-03, -2.45000000e-03
    4799, -1.43527987e-03, -9.65843006e-03, -2.50000000e-03
    4800, -2.02960380e-03, -9.47780362e-03, -2.31822199e-03
    4801, -2.04198555e-03, -9.47404057e-03, -2.36651828e-03
    4802, -2.05436730e-03, -9.47027752e-03, -2.41481457e-03
    4803, -2.58342555e-03, -9.30948658e-03, -2.07846100e-03
    4804, -2.60734524e-03, -9.30221692e-03, -2.12176226e-03
    4805, -2.63126494e-03, -9.29494727e-03, -2.16506353e-03
    4806, -3.05900308e-03, -9.16494945e-03, -1.69705633e-03
    4807, -3.09283065e-03, -9.15466860e-03, -1.73241167e-03
    4808, -3.12665820e-03, -9.14438776e-03, -1.76776700e-03
    4809,  4.81294019e-04, -6.99655810e-03, -2.07846100e-03
    4810,  5.05771920e-04, -7.00164061e-03, -2.12176226e-03
    4811,  5.30249830e-04, -7.00672312e-03, -2.16506353e-03
    4812, -8.54521599e-05, -6.87888087e-03, -2.31822199e-03
    4813, -7.27814623e-05, -6.88151177e-03, -2.36651828e-03
    4814, -6.01107638e-05, -6.88414267e-03, -2.41481457e-03
    4815, -6.93645711e-04, -6.75259765e-03, -2.40000000e-03
    4816, -6.93645711e-04, -6.75259765e-03, -2.45000000e-03
    4817, -6.93645711e-04, -6.75259765e-03, -2.50000000e-03
    4818, -1.30183926e-03, -6.62631442e-03, -2.31822199e-03
    4819, -1.31450996e-03, -6.62368352e-03, -2.36651828e-03
    4820, -1.32718066e-03, -6.62105262e-03, -2.41481457e-03
    4821, -1.86858544e-03, -6.50863719e-03, -2.07846100e-03
    4822, -1.89306334e-03, -6.50355469e-03, -2.12176226e-03
    4823, -1.91754125e-03, -6.49847218e-03, -2.16506353e-03
    4824, -2.35526143e-03, -6.40758546e-03, -1.69705633e-03
    4825, -2.38987842e-03, -6.40039771e-03, -1.73241167e-03
    4826, -2.42449540e-03, -6.39320996e-03, -1.76776700e-03
    4827,  9.75019821e-04, -3.92870438e-03, -2.07846100e-03
    4828,  9.99856378e-04, -3.93155831e-03, -2.12176226e-03
    4829,  1.02469295e-03, -3.93441224e-03, -2.16506353e-03
    4830,  3.99969518e-04, -3.86262631e-03, -2.31822199e-03
    4831,  4.12825870e-04, -3.86410362e-03, -2.36651828e-03
    4832,  4.25682223e-04, -3.86558092e-03, -2.41481457e-03
    4833, -2.17135456e-04, -3.79171581e-03, -2.40000000e-03
    4834, -2.17135456e-04, -3.79171581e-03, -2.45000000e-03
    4835, -2.17135456e-04, -3.79171581e-03, -2.50000000e-03
    4836, -8.34240430e-04, -3.72080531e-03, -2.31822199e-03
    4837, -8.47096782e-04, -3.71932801e-03, -2.36651828e-03
    4838, -8.59953135e-04, -3.71785071e-03, -2.41481457e-03
    4839, -1.40929073e-03, -3.65472724e-03, -2.07846100e-03
    4840, -1.43412729e-03, -3.65187331e-03, -2.12176226e-03
    4841, -1.45896386e-03, -3.64901939e-03, -2.16506353e-03
    4842, -1.90309763e-03, -3.59798472e-03, -1.69705633e-03
    4843, -1.93822184e-03, -3.59394865e-03, -1.73241167e-03
    4844, -1.97334604e-03, -3.58991259e-03, -1.76776700e-03
    4845,  1.19001821e-03, -8.28822568e-04, -2.07846100e-03
    4846,  1.21501095e-03, -8.29424649e-04, -2.12176226e-03
    4847,  1.24000370e-03, -8.30026731e-04, -2.16506353e-03
    4848,  6.11351782e-04, -8.14882350e-04, -2.31822199e-03
    4849,  6.24288979e-04, -8.15194010e-04, -2.36651828e-03
    4850,  6.37226178e-04, -8.15505670e-04, -2.41481457e-03
    4851, -9.63377023e-06, -7.99922653e-04, -2.40000000e-03
    4852, -9.63377023e-06, -7.99922653e-04, -2.45000000e-03
    4853, -9.63377023e-06, -7.99922653e-04, -2.50000000e-03
    4854, -6.30619322e-04, -7.84962957e-04, -2.31822199e-03
    4855, -6.43556520e-04, -7.84651297e-04, -2.36651828e-03
    4856, -6.56493718e-04, -7.84339637e-04, -2.41481457e-03
    4857, -1.20928575e-03, -7.71022739e-04, -2.07846100e-03
    4858, -1.23427849e-03, -7.70420658e-04, -2.12176226e-03
    4859, -1.25927124e-03, -7.69818576e-04, -2.16506353e-03
    4860, -1.70619788e-03, -7.59052003e-04, -1.69705633e-03
    4861, -1.74154296e-03, -7.58200531e-04, -1.73241167e-03
    4862, -1.77688804e-03, -7.57349059e-04, -1.76776700e-03
    4863, -1.45330288e-02, -2.49091358e-02, -1.20000003e-03
    4864, -1.45590096e-02, -2.48744948e-02, -1.22500002e-03
    4865, -1.45849903e-02, -2.48398538e-02, -1.25000002e-03
    4866, -1.46768854e-02, -2.47173270e-02, -6.21165717e-04
    4867, -1.47058632e-02, -2.46786900e-02, -6.34106668e-04
    4868, -1.47348409e-02, -2.46400529e-02, -6.47047620e-04
    4869, -1.47259522e-02, -2.46519046e-02, -7.40148683e-20
    4870, -1.47559522e-02, -2.46119046e-02, -1.48029737e-19
    4871, -1.47859522e-02, -2.45719046e-02, -2.22044605e-19
    4872, -1.46768854e-02, -2.47173270e-02,  6.21165717e-04
    4873, -1.47058632e-02, -2.46786900e-02,  6.34106668e-04
    4874, -1.47348409e-02, -2.46400529e-02,  6.47047620e-04
    4875, -1.45330288e-02, -2.49091358e-02,  1.20000003e-03
    4876, -1.45590096e-02, -2.48744948e-02,  1.22500002e-03
    4877, -1.45849903e-02, -2.48398538e-02,  1.25000002e-03
    4878, -1.23624197e-02, -2.31225324e-02, -1.20000003e-03
    4879, -1.23914191e-02, -2.30903761e-02, -1.22500002e-03
    4880, -1.24204186e-02, -2.30582197e-02, -1.25000002e-03
    4881, -1.25229907e-02, -2.29444811e-02, -6.21165717e-04
    4882, -1.25553354e-02, -2.29086153e-02, -6.34106668e-04
    4883, -1.25876800e-02, -2.28727495e-02, -6.47047620e-04
    4884, -1.25777585e-02, -2.28837511e-02, -7.40148683e-20
    4885, -1.26112442e-02, -2.28466201e-02, -1.48029737e-19
    4886, -1.26447298e-02, -2.28094891e-02, -2.22044605e-19
    4887, -1.25229907e-02, -2.29444811e-02,  6.21165717e-04
    4888, -1.25553354e-02, -2.29086153e-02,  6.34106668e-04
    4889, -1.25876800e-02, -2.28727495e-02,  6.47047620e-04
    4890, -1.23624197e-02, -2.31225324e-02,  1.20000003e-03
    4891, -1.23914191e-02, -2.30903761e-02,  1.22500002e-03
    4892, -1.24204186e-02, -2.30582197e-02,  1.25000002e-03
    4893, -1.03618068e-02, -2.11474265e-02, -1.20000003e-03
    4894, -1.03935885e-02, -2.11180169e-02, -1.22500002e-03
    4895, -1.04253701e-02, -2.10886073e-02, -1.25000002e-03
    4896, -1.05377832e-02, -2.09845842e-02, -6.21165717e-04
    4897, -1.05732311e-02, -2.09517820e-02, -6.34106668e-04
    4898, -1.06086789e-02, -2.09189798e-02, -6.47047620e-04
    4899, -1.05978055e-02, -2.09290417e-02, -7.40148683e-20
    4900, -1.06345038e-02, -2.08950824e-02, -1.48029737e-19
    4901, -1.06712021e-02, -2.08611231e-02, -2.22044605e-19
    4902, -1.05377832e-02, -2.09845842e-02,  6.21165717e-04
    4903, -1.05732311e-02, -2.09517820e-02,  6.34106668e-04
    4904, -1.06086789e-02, -2.09189798e-02,  6.47047620e-04
    4905, -1.03618068e-02, -2.11474265e-02,  1.20000003e-03
    4906, -1.03935885e-02, -2.11180169e-02,  1.22500002e-03
    4907, -1.04253701e-02, -2.10886073e-02,  1.25000002e-03
    4908, -8.54749978e-03, -1.89999198e-02, -1.20000003e-03
    4909, -8.58180458e-03, -1.89734967e-02, -1.22500002e-03
    4910, -8.61610939e-03, -1.89470736e-02, -1.25000002e-03
    4911, -8.73744698e-03, -1.88536140e-02, -6.21165717e-04
    4912, -8.77570902e-03, -1.88241428e-02, -6.34106668e-04
    4913, -8.81397106e-03, -1.87946717e-02, -6.47047620e-04
    4914, -8.80223443e-03, -1.88037118e-02, -7.40148683e-20
    4915, -8.84184621e-03, -1.87732010e-02, -1.48029737e-19
    4916, -8.88145799e-03, -1.87426903e-02, -2.22044605e-19
    4917, -8.73744698e-03, -1.88536140e-02,  6.21165717e-04
    4918, -8.77570902e-03, -1.88241428e-02,  6.34106668e-04
    4919, -8.81397106e-03, -1.87946717e-02,  6.47047620e-04
    4920, -8.54749978e-03, -1.89999198e-02,  1.20000003e-03
    4921, -8.58180458e-03, -1.89734967e-02,  1.22500002e-03
    4922, -8.61610939e-03, -1.89470736e-02,  1.25000002e-03
    4923, -6.93428940e-03, -1.66975194e-02, -1.20000003e-03
    4924, -6.97083769e-03, -1.66742983e-02, -1.22500002e-03
    4925, -7.00738598e-03, -1.66510771e-02, -1.25000002e-03
    4926, -7.13665887e-03, -1.65689429e-02, -6.21165717e-04
    4927, -7.17742319e-03, -1.65430430e-02, -6.34106668e-04
    4928, -7.21818751e-03, -1.65171432e-02, -6.47047620e-04
    4929, -7.20568332e-03, -1.65250878e-02, -7.40148683e-20
    4930, -7.24788566e-03, -1.64982743e-02, -1.48029737e-19
    4931, -7.29008799e-03, -1.64714608e-02, -2.22044605e-19
    4932, -7.13665887e-03, -1.65689429e-02,  6.21165717e-04
    4933, -7.17742319e-03, -1.65430430e-02,  6.34106668e-04
    4934, -7.21818751e-03, -1.65171432e-02,  6.47047620e-04
    4935, -6.93428940e-03, -1.66975194e-02,  1.20000003e-03
    4936, -6.97083769e-03, -1.66742983e-02,  1.22500002e-03
    4937, -7.00738598e-03, -1.66510771e-02,  1.25000002e-03
    4938, -5.53532713e-03, -1.42589953e-02, -1.20000003e-03
    4939, -5.57382094e-03, -1.42391654e-02, -1.22500002e-03
    4940, -5.61231477e-03, -1.42193355e-02, -1.25000002e-03
    4941, -5.74846908e-03, -1.41491962e-02, -6.21165717e-04
    4942, -5.79140336e-03, -1.41270788e-02, -6.34106668e-04
    4943, -5.83433764e-03, -1.41049614e-02, -6.47047620e-04
    4944, -5.82116783e-03, -1.41117458e-02, -7.40148683e-20
    4945, -5.86561667e-03, -1.40888482e-02, -1.48029737e-19
    4946, -5.91006550e-03, -1.40659505e-02, -2.22044605e-19
    4947, -5.74846908e-03, -1.41491962e-02,  6.21165717e-04
    4948, -5.79140336e-03, -1.41270788e-02,  6.34106668e-04
    4949, -5.83433764e-03, -1.41049614e-02,  6.47047620e-04
    4950, -5.53532713e-03, -1.42589953e-02,  1.20000003e-03
    4951, -5.57382094e-03, -1.42391654e-02,  1.22500002e-03
    4952, -5.61231477e-03, -1.42193355e-02,  1.25000002e-03
    4953, -4.36201776e-03, -1.17042271e-02, -1.20000003e-03
    4954, -4.40214329e-03, -1.16879501e-02, -1.22500002e-03
    4955, -4.44226883e-03, -1.16716731e-02, -1.25000002e-03
    4956, -4.58419459e-03, -1.16141006e-02, -6.21165717e-04
    4957, -4.62894881e-03, -1.15959460e-02, -6.34106668e-04
    4958, -4.67370303e-03, -1.15777913e-02, -6.47047620e-04
    4959, -4.65997497e-03, -1.15833601e-02, -7.40148683e-20
    4960, -4.70630795e-03, -1.15645651e-02, -1.48029737e-19
    4961, -4.75264093e-03, -1.15457700e-02, -2.22044605e-19
    4962, -4.58419459e-03, -1.16141006e-02,  6.21165717e-04
    4963, -4.62894881e-03, -1.15959460e-02,  6.34106668e-04
    4964, -4.67370303e-03, -1.15777913e-02,  6.47047620e-04
    4965, -4.36201776e-03, -1.17042271e-02,  1.20000003e-03
    4966, -4.40214329e-03, -1.16879501e-02,  1.22500002e-03
    4967, -4.44226883e-03, -1.16716731e-02,  1.25000002e-03
    4968, -3.42392651e-03, -9.05404222e-03, -1.20000003e-03
    4969, -3.46535664e-03, -9.04145081e-03, -1.22500002e-03
    4970, -3.50678677e-03, -9.02885940e-03, -1.25000002e-03
    4971, -3.65332696e-03, -8.98432303e-03, -6.21165717e-04
    4972, -3.69953627e-03, -8.97027913e-03, -6.34106668e-04
    4973, -3.74574558e-03, -8.95623523e-03, -6.47047620e-04
    4974, -3.73157118e-03, -8.96054311e-03, -7.40148683e-20
    4975, -3.77941058e-03, -8.94600379e-03, -1.48029737e-19
    4976, -3.82724998e-03, -8.93146448e-03, -2.22044605e-19
    4977, -3.65332696e-03, -8.98432303e-03,  6.21165717e-04
    4978, -3.69953627e-03, -8.97027913e-03,  6.34106668e-04
    4979, -3.74574558e-03, -8.95623523e-03,  6.47047620e-04
    4980, -3.42392651e-03, -9.05404222e-03,  1.20000003e-03
    4981, -3.46535664e-03, -9.04145081e-03,  1.22500002e-03
    4982, -3.50678677e-03, -9.02885940e-03,  1.25000002e-03
    4983, -2.72870100e-03, -6.33004575e-03, -1.20000003e-03
    4984, -2.77109797e-03, -6.32124259e-03, -1.22500002e-03
    4985, -2.81349496e-03, -6.31243942e-03, -1.25000002e-03
    4986, -2.96345492e-03, -6.28130225e-03, -6.21165717e-04
    4987, -3.01074261e-03, -6.27148360e-03, -6.34106668e-04
    4988, -3.05803030e-03, -6.26166495e-03, -6.47047620e-04
    4989, -3.04352511e-03, -6.26467675e-03, -7.40148683e-20
    4990, -3.09248093e-03, -6.25451173e-03, -1.48029737e-19
    4991, -3.14143675e-03, -6.24434672e-03, -2.22044605e-19
    4992, -2.96345492e-03, -6.28130225e-03,  6.21165717e-04
    4993, -3.01074261e-03, -6.27148360e-03,  6.34106668e-04
    4994, -3.05803030e-03, -6.26166495e-03,  6.47047620e-04
    4995, -2.72870100e-03, -6.33004575e-03,  1.20000003e-03
    4996, -2.77109797e-03, -6.32124259e-03,  1.22500002e-03
    4997, -2.81349496e-03, -6.31243942e-03,  1.25000002e-03
    4998, -2.28200894e-03, -3.55444465e-03, -1.20000003e-03
    4999, -2.32502713e-03, -3.54950150e-03, -1.22500002e-03
    5000, -2.36804533e-03, -3.54455835e-03, -1.25000002e-03
    5001, -2.52020255e-03, -3.52707422e-03, -6.21165717e-04
    5002, -2.56818311e-03, -3.52156085e-03, -6.34106668e-04
    5003, -2.61616367e-03, -3.51604749e-03, -6.47047620e-04
    5004, -2.60144595e-03, -3.51773868e-03, -7.40148683e-20
    5005, -2.65111908e-03, -3.51203082e-03, -1.48029737e-19
    5006, -2.70079222e-03, -3.50632296e-03, -2.22044605e-19
    5007, -2.52020255e-03, -3.52707422e-03,  6.21165717e-04
    5008, -2.56818311e-03, -3.52156085e-03,  6.34106668e-04
    5009, -2.61616367e-03, -3.51604749e-03,  6.47047620e-04
    5010, -2.28200894e-03, -3.55444465e-03,  1.20000003e-03
    5011, -2.32502713e-03, -3.54950150e-03,  1.22500002e-03
    5012, -2.36804533e-03, -3.54455835e-03,  1.25000002e-03
    5013, -2.08749193e-03, -7.49866534e-04, -1.20000003e-03
    5014, -2.13078063e-03, -7.48823699e-04, -1.22500002e-03
    5015, -2.17406934e-03, -7.47780863e-04, -1.25000002e-03
    5016, -2.32718337e-03, -7.44092308e-04, -6.21165717e-04
    5017, -2.37546566e-03, -7.42929176e-04, -6.34106668e-04
    5018, -2.42374794e-03, -7.41766043e-04, -6.47047620e-04
    5019, -2.40893767e-03, -7.42122826e-04, -7.40148683e-20
    5020, -2.45892316e-03, -7.40918663e-04, -1.48029737e-19
    5021, -2.50890866e-03, -7.39714500e-04, -2.22044605e-19
    5022, -2.32718337e-03, -7.44092308e-04,  6.21165717e-04
    5023, -2.37546566e-03, -7.42929176e-04,  6.34106668e-04
    5024, -2.42374794e-03, -7.41766043e-04,  6.47047620e-04
    5025, -2.08749193e-03, -7.49866534e-04,  1.20000003e-03
    5026, -2.13078063e-03, -7.48823699e-04,  1.22500002e-03
    5027, -2.17406934e-03, -7.47780863e-04,  1.25000002e-03
    5028,  7.46151721e-04, -5.11270810e-04,  7.50000000e-04
    5029,  7.46151721e-04, -5.11270810e-04,  5.00000000e-04
    5030,  7.46151721e-04, -5.11270810e-04,  2.50000000e-04
    5031,  7.46151721e-04, -5.11270810e-04,  0.00000000e+00
    5032,  7.46151721e-04, -5.11270810e-04, -2.50000000e-04
    5033,  7.46151721e-04, -5.11270810e-04, -5.00000000e-04
    5034,  7.46151721e-04, -5.11270810e-04, -7.50000000e-04
    5035,  4.96180047e-04, -5.07507579e-04,  7.50000000e-04
    5036,  4.96180047e-04, -5.07507579e-04,  5.00000000e-04
    5037,  4.96180047e-04, -5.07507579e-04,  2.50000000e-04
    5038,  4.96180047e-04, -5.07507579e-04,  0.00000000e+00
    5039,  4.96180047e-04, -5.07507579e-04, -2.50000000e-04
    5040,  4.96180047e-04, -5.07507579e-04, -5.00000000e-04
    5041,  4.96180047e-04, -5.07507579e-04, -7.50000000e-04
    5042,  2.46208372e-04, -5.03744348e-04,  7.50000000e-04
    5043,  2.46208372e-04, -5.03744348e-04,  5.00000000e-04
    5044,  2.46208372e-04, -5.03744348e-04,  2.50000000e-04
    5045,  2.46208372e-04, -5.03744348e-04,  0.00000000e+00
    5046,  2.46208372e-04, -5.03744348e-04, -2.50000000e-04
    5047,  2.46208372e-04, -5.03744348e-04, -5.00000000e-04
    5048,  2.46208372e-04, -5.03744348e-04, -7.50000000e-04
    5049, -3.76330236e-06, -4.99981116e-04,  7.50000000e-04
    5050, -3.76330236e-06, -4.99981116e-04,  5.00000000e-04
    5051, -3.76330236e-06, -4.99981116e-04,  2.50000000e-04
    5052, -3.76330236e-06, -4.99981116e-04,  0.00000000e+00
    5053, -3.76330236e-06, -4.99981116e-04, -2.50000000e-04
    5054, -3.76330236e-06, -4.99981116e-04, -5.00000000e-04
    5055, -3.76330236e-06, -4.99981116e-04, -7.50000000e-04
    5056, -2.53734977e-04, -4.96217885e-04,  7.50000000e-04
    5057, -2.53734977e-04, -4.96217885e-04,  5.00000000e-04
    5058, -2.53734977e-04, -4.96217885e-04,  2.50000000e-04
    5059, -2.53734977e-04, -4.96217885e-04,  0.00000000e+00
    5060, -2.53734977e-04, -4.96217885e-04, -2.50000000e-04
    5061, -2.53734977e-04, -4.96217885e-04, -5.00000000e-04
    5062, -2.53734977e-04, -4.96217885e-04, -7.50000000e-04
    5063, -5.03706652e-04, -4.92454654e-04,  7.50000000e-04
    5064, -5.03706652e-04, -4.92454654e-04,  5.00000000e-04
    5065, -5.03706652e-04, -4.92454654e-04,  2.50000000e-04
    5066, -5.03706652e-04, -4.92454654e-04,  0.00000000e+00
    5067, -5.03706652e-04, -4.92454654e-04, -2.50000000e-04
    5068, -5.03706652e-04, -4.92454654e-04, -5.00000000e-04
    5069, -5.03706652e-04, -4.92454654e-04, -7.50000000e-04
    5070, -7.53678326e-04, -4.88691422e-04,  7.50000000e-04
    5071, -7.53678326e-04, -4.88691422e-04,  5.00000000e-04
    5072, -7.53678326e-04, -4.88691422e-04,  2.50000000e-04
    5073, -7.53678326e-04, -4.88691422e-04,  0.00000000e+00
    5074, -7.53678326e-04, -4.88691422e-04, -2.50000000e-04
    5075, -7.53678326e-04, -4.88691422e-04, -5.00000000e-04
    5076, -7.53678326e-04, -4.88691422e-04, -7.50000000e-04
    5077, -8.05449127e-04, -4.87912032e-04,  8.01776667e-04
    5078, -8.57219926e-04, -4.87132642e-04,  8.53553333e-04
    5079, -9.08990727e-04, -4.86353252e-04,  9.05330000e-04
    5080, -9.60761528e-04, -4.85573861e-04,  9.57106667e-04
    5081, -1.01253232e-03, -4.84794471e-04,  1.00888333e-03
    5082, -1.06430313e-03, -4.84015081e-04,  1.06066000e-03
    5083, -5.45368585e-04, -4.91827449e-04,  8.41506337e-04
    5084, -5.87030518e-04, -4.91200244e-04,  9.33012674e-04
    5085, -6.28692451e-04, -4.90573039e-04,  1.02451901e-03
    5086, -6.70354384e-04, -4.89945834e-04,  1.11602535e-03
    5087, -7.12016317e-04, -4.89318629e-04,  1.20753168e-03
    5088, -7.53678250e-04, -4.88691424e-04,  1.29903802e-03
    5089, -2.76770457e-04, -4.95871094e-04,  8.66481453e-04
    5090, -2.99805937e-04, -4.95524304e-04,  9.82962906e-04
    5091, -3.22841417e-04, -4.95177513e-04,  1.09944436e-03
    5092, -3.45876897e-04, -4.94830722e-04,  1.21592581e-03
    5093, -3.68912377e-04, -4.94483932e-04,  1.33240726e-03
    5094, -3.91947857e-04, -4.94137141e-04,  1.44888872e-03
    5095, -3.76330236e-06, -4.99981116e-04,  8.75000000e-04
    5096, -3.76330236e-06, -4.99981116e-04,  1.00000000e-03
    5097, -3.76330236e-06, -4.99981116e-04,  1.12500000e-03
    5098, -3.76330236e-06, -4.99981116e-04,  1.25000000e-03
    5099, -3.76330236e-06, -4.99981116e-04,  1.37500000e-03
    5100, -3.76330236e-06, -4.99981116e-04,  1.50000000e-03
    5101,  2.69243852e-04, -5.04091138e-04,  8.66481453e-04
    5102,  2.92279333e-04, -5.04437929e-04,  9.82962906e-04
    5103,  3.15314812e-04, -5.04784719e-04,  1.09944436e-03
    5104,  3.38350292e-04, -5.05131510e-04,  1.21592581e-03
    5105,  3.61385772e-04, -5.05478301e-04,  1.33240726e-03
    5106,  3.84421253e-04, -5.05825091e-04,  1.44888872e-03
    5107,  5.37841980e-04, -5.08134784e-04,  8.41506337e-04
    5108,  5.79503913e-04, -5.08761989e-04,  9.33012674e-04
    5109,  6.21165846e-04, -5.09389194e-04,  1.02451901e-03
    5110,  6.62827779e-04, -5.10016399e-04,  1.11602535e-03
    5111,  7.04489712e-04, -5.10643604e-04,  1.20753168e-03
    5112,  7.46151645e-04, -5.11270809e-04,  1.29903802e-03
    5113,  7.97922522e-04, -5.12050200e-04,  8.01776667e-04
    5114,  8.49693322e-04, -5.12829591e-04,  8.53553333e-04
    5115,  9.01464122e-04, -5.13608981e-04,  9.05330000e-04
    5116,  9.53234923e-04, -5.14388371e-04,  9.57106667e-04
    5117,  1.00500572e-03, -5.15167762e-04,  1.00888333e-03
    5118,  1.05677652e-03, -5.15947152e-04,  1.06066000e-03
    5119,  8.37647691e-04, -5.12648248e-04,  5.41666654e-04
    5120,  9.29143660e-04, -5.14025686e-04,  5.83333308e-04
    5121,  1.02063963e-03, -5.15403124e-04,  6.24999962e-04
    5122,  1.11213560e-03, -5.16780562e-04,  6.66666616e-04
    5123,  1.20363156e-03, -5.18158000e-04,  7.08333270e-04
    5124,  1.29512753e-03, -5.19535438e-04,  7.49999924e-04
    5125,  8.62619977e-04, -5.13024197e-04,  2.73038090e-04
    5126,  9.79088232e-04, -5.14777583e-04,  2.96076181e-04
    5127,  1.09555649e-03, -5.16530970e-04,  3.19114271e-04
    5128,  1.21202474e-03, -5.18284356e-04,  3.42152361e-04
    5129,  1.32849299e-03, -5.20037743e-04,  3.65190451e-04
    5130,  1.44496126e-03, -5.21791130e-04,  3.88228542e-04
    5131,  8.71137559e-04, -5.13152426e-04,  1.85037171e-20
    5132,  9.96123396e-04, -5.15034041e-04,  3.70074342e-20
    5133,  1.12110923e-03, -5.16915657e-04,  5.55111512e-20
    5134,  1.24609507e-03, -5.18797273e-04,  7.40148683e-20
    5135,  1.37108091e-03, -5.20678888e-04,  9.71445147e-20
    5136,  1.49606675e-03, -5.22560504e-04,  1.11022303e-19
    5137,  8.62619977e-04, -5.13024197e-04, -2.73038090e-04
    5138,  9.79088232e-04, -5.14777583e-04, -2.96076181e-04
    5139,  1.09555649e-03, -5.16530970e-04, -3.19114271e-04
    5140,  1.21202474e-03, -5.18284356e-04, -3.42152361e-04
    5141,  1.32849299e-03, -5.20037743e-04, -3.65190451e-04
    5142,  1.44496126e-03, -5.21791130e-04, -3.88228542e-04
    5143,  8.37647691e-04, -5.12648248e-04, -5.41666654e-04
    5144,  9.29143660e-04, -5.14025686e-04, -5.83333308e-04
    5145,  1.02063963e-03, -5.15403124e-04, -6.24999962e-04
    5146,  1.11213560e-03, -5.16780562e-04, -6.66666616e-04
    5147,  1.20363156e-03, -5.18158000e-04, -7.08333270e-04
    5148,  1.29512753e-03, -5.19535438e-04, -7.49999924e-04
    5149,  7.97922522e-04, -5.12050200e-04, -8.01776667e-04
    5150,  8.49693322e-04, -5.12829591e-04, -8.53553333e-04
    5151,  9.01464122e-04, -5.13608981e-04, -9.05330000e-04
    5152,  9.53234923e-04, -5.14388371e-04, -9.57106667e-04
    5153,  1.00500572e-03, -5.15167762e-04, -1.00888333e-03
    5154,  1.05677652e-03, -5.15947152e-04, -1.06066000e-03
    5155,  5.37841980e-04, -5.08134784e-04, -8.41506337e-04
    5156,  5.79503913e-04, -5.08761989e-04, -9.33012674e-04
    5157,  6.21165846e-04, -5.09389194e-04, -1.02451901e-03
    5158,  6.62827779e-04, -5.10016399e-04, -1.11602535e-03
    5159,  7.04489712e-04, -5.10643604e-04, -1.20753168e-03
    5160,  7.46151645e-04, -5.11270809e-04, -1.29903802e-03
    5161,  2.69243852e-04, -5.04091138e-04, -8.66481453e-04
    5162,  2.92279333e-04, -5.04437929e-04, -9.82962906e-04
    5163,  3.15314812e-04, -5.04784719e-04, -1.09944436e-03
    5164,  3.38350292e-04, -5.05131510e-04, -1.21592581e-03
    5165,  3.61385772e-04, -5.05478301e-04, -1.33240726e-03
    5166,  3.84421253e-04, -5.05825091e-04, -1.44888872e-03
    5167, -3.76330236e-06, -4.99981116e-04, -8.75000000e-04
    5168, -3.76330236e-06, -4.99981116e-04, -1.00000000e-03
    5169, -3.76330236e-06, -4.99981116e-04, -1.12500000e-03
    5170, -3.76330236e-06, -4.99981116e-04, -1.25000000e-03
    5171, -3.76330236e-06, -4.99981116e-04, -1.37500000e-03
    5172, -3.76330236e-06, -4.99981116e-04, -1.50000000e-03
    5173, -2.76770457e-04, -4.95871094e-04, -8.66481453e-04
    5174, -2.99805937e-04, -4.95524304e-04, -9.82962906e-04
    5175, -3.22841417e-04, -4.95177513e-04, -1.09944436e-03
    5176, -3.45876897e-04, -4.94830722e-04, -1.21592581e-03
    5177, -3.68912377e-04, -4.94483932e-04, -1.33240726e-03
    5178, -3.91947857e-04, -4.94137141e-04, -1.44888872e-03
    5179, -5.45368585e-04, -4.91827449e-04, -8.41506337e-04
    5180, -5.87030518e-04, -4.91200244e-04, -9.33012674e-04
    5181, -6.28692451e-04, -4.90573039e-04, -1.02451901e-03
    5182, -6.70354384e-04, -4.89945834e-04, -1.11602535e-03
    5183, -7.12016317e-04, -4.89318629e-04, -1.20753168e-03
    5184, -7.53678250e-04, -4.88691424e-04, -1.29903802e-03
    5185, -8.05449127e-04, -4.87912032e-04, -8.01776667e-04
    5186, -8.57219926e-04, -4.87132642e-04, -8.53553333e-04
    5187, -9.08990727e-04, -4.86353252e-04, -9.05330000e-04
    5188, -9.60761528e-04, -4.85573861e-04, -9.57106667e-04
    5189, -1.01253232e-03, -4.84794471e-04, -1.00888333e-03
    5190, -1.06430313e-03, -4.84015081e-04, -1.06066000e-03
    5191, -8.45174295e-04, -4.87313984e-04, -5.41666654e-04
    5192, -9.36670264e-04, -4.85936546e-04, -5.83333308e-04
    5193, -1.02816623e-03, -4.84559108e-04, -6.24999962e-04
    5194, -1.11966220e-03, -4.83181670e-04, -6.66666616e-04
    5195, -1.21115817e-03, -4.81804232e-04, -7.08333270e-04
    5196, -1.30265414e-03, -4.80426794e-04, -7.49999924e-04
    5197, -8.70146582e-04, -4.86938036e-04, -2.73038090e-04
    5198, -9.86614837e-04, -4.85184649e-04, -2.96076181e-04
    5199, -1.10308309e-03, -4.83431263e-04, -3.19114271e-04
    5200, -1.21955135e-03, -4.81677876e-04, -3.42152361e-04
    5201, -1.33601960e-03, -4.79924489e-04, -3.65190451e-04
    5202, -1.45248786e-03, -4.78171103e-04, -3.88228542e-04
    5203, -8.78664163e-04, -4.86809807e-04, -1.85037171e-20
    5204, -1.00365000e-03, -4.84928191e-04, -3.70074342e-20
    5205, -1.12863584e-03, -4.83046575e-04, -5.55111512e-20
    5206, -1.25362168e-03, -4.81164960e-04, -7.40148683e-20
    5207, -1.37860751e-03, -4.79283344e-04, -9.71445147e-20
    5208, -1.50359335e-03, -4.77401728e-04, -1.11022303e-19
    5209, -8.70146582e-04, -4.86938036e-04,  2.73038090e-04
    5210, -9.86614837e-04, -4.85184649e-04,  2.96076181e-04
    5211, -1.10308309e-03, -4.83431263e-04,  3.19114271e-04
    5212, -1.21955135e-03, -4.81677876e-04,  3.42152361e-04
    5213, -1.33601960e-03, -4.79924489e-04,  3.65190451e-04
    5214, -1.45248786e-03, -4.78171103e-04,  3.88228542e-04
    5215, -8.45174295e-04, -4.87313984e-04,  5.41666654e-04
    5216, -9.36670264e-04, -4.85936546e-04,  5.83333308e-04
    5217, -1.02816623e-03, -4.84559108e-04,  6.24999962e-04
    5218, -1.11966220e-03, -4.83181670e-04,  6.66666616e-04
    5219, -1.21115817e-03, -4.81804232e-04,  7.08333270e-04
    5220, -1.30265414e-03, -4.80426794e-04,  7.49999924e-04
    5221, -1.08197912e-03, -4.83748975e-04,  1.07833800e-03
    5222, -1.09965512e-03, -4.83482869e-04,  1.09601600e-03
    5223, -7.66176980e-04, -4.88503260e-04,  1.32068882e-03
    5224, -7.78675711e-04, -4.88315096e-04,  1.34233962e-03
    5225, -3.98417650e-04, -4.94039741e-04,  1.47303691e-03
    5226, -4.04887443e-04, -4.93942340e-04,  1.49718509e-03
    5227, -3.76330236e-06, -4.99981116e-04,  1.52500000e-03
    5228, -3.76330236e-06, -4.99981116e-04,  1.55000000e-03
    5229,  3.90891046e-04, -5.05922492e-04,  1.47303691e-03
    5230,  3.97360838e-04, -5.06019892e-04,  1.49718509e-03
    5231,  7.58650375e-04, -5.11458973e-04,  1.32068882e-03
    5232,  7.71149106e-04, -5.11647137e-04,  1.34233962e-03
    5233,  1.07445252e-03, -5.16213257e-04,  1.07833800e-03
    5234,  1.09212852e-03, -5.16479363e-04,  1.09601600e-03
    5235,  1.31677588e-03, -5.19861346e-04,  7.62500070e-04
    5236,  1.33842423e-03, -5.20187254e-04,  7.75000217e-04
    5237,  1.46910671e-03, -5.22154631e-04,  3.94699068e-04
    5238,  1.49325215e-03, -5.22518131e-04,  4.01169594e-04
    5239,  1.52106391e-03, -5.22936827e-04,  5.55111512e-20
    5240,  1.54606108e-03, -5.23313150e-04,  0.00000000e+00
    5241,  1.46910671e-03, -5.22154631e-04, -3.94699068e-04
    5242,  1.49325215e-03, -5.22518131e-04, -4.01169594e-04
    5243,  1.31677588e-03, -5.19861346e-04, -7.62500070e-04
    5244,  1.33842423e-03, -5.20187254e-04, -7.75000217e-04
    5245,  1.07445252e-03, -5.16213257e-04, -1.07833800e-03
    5246,  1.09212852e-03, -5.16479363e-04, -1.09601600e-03
    5247,  7.58650375e-04, -5.11458973e-04, -1.32068882e-03
    5248,  7.71149106e-04, -5.11647137e-04, -1.34233962e-03
    5249,  3.90891046e-04, -5.05922492e-04, -1.47303691e-03
    5250,  3.97360838e-04, -5.06019892e-04, -1.49718509e-03
    5251, -3.76330236e-06, -4.99981116e-04, -1.52500000e-03
    5252, -3.76330236e-06, -4.99981116e-04, -1.55000000e-03
    5253, -3.98417650e-04, -4.94039741e-04, -1.47303691e-03
    5254, -4.04887443e-04, -4.93942340e-04, -1.49718509e-03
    5255, -7.66176980e-04, -4.88503260e-04, -1.32068882e-03
    5256, -7.78675711e-04, -4.88315096e-04, -1.34233962e-03
    5257, -1.08197912e-03, -4.83748975e-04, -1.07833800e-03
    5258, -1.09965512e-03, -4.83482869e-04, -1.09601600e-03
    5259, -1.32430249e-03, -4.80100886e-04, -7.62500070e-04
    5260, -1.34595083e-03, -4.79774978e-04, -7.75000217e-04
    5261, -1.47663331e-03, -4.77807602e-04, -3.94699068e-04
    5262, -1.50077876e-03, -4.77444101e-04, -4.01169594e-04
    5263, -1.52859052e-03, -4.77025405e-04, -5.55111512e-20
    5264, -1.55358768e-03, -4.76649082e-04,  0.00000000e+00
    5265, -1.47663331e-03, -4.77807602e-04,  3.94699068e-04
    5266, -1.50077876e-03, -4.77444101e-04,  4.01169594e-04
    5267, -1.32430249e-03, -4.80100886e-04,  7.62500070e-04
    5268, -1.34595083e-03, -4.79774978e-04,  7.75000217e-04
    5269, -1.20570910e-03, -4.81886266e-04,  1.20208200e-03
    5270, -1.31176309e-03, -4.80289662e-04,  1.30814800e-03
    5271, -1.41781707e-03, -4.78693059e-04,  1.41421400e-03
    5272, -8.53667205e-04, -4.87186127e-04,  1.47224342e-03
    5273, -9.28658699e-04, -4.86057157e-04,  1.60214722e-03
    5274, -1.00365019e-03, -4.84928188e-04,  1.73205102e-03
    5275, -4.43705898e-04, -4.93357943e-04,  1.64207397e-03
    5276, -4.82524354e-04, -4.92773545e-04,  1.78696284e-03
    5277, -5.21342809e-04, -4.92189148e-04,  1.93185171e-03
    5278, -3.76330236e-06, -4.99981116e-04,  1.70000000e-03
    5279, -3.76330236e-06, -4.99981116e-04,  1.85000000e-03
    5280, -3.76330236e-06, -4.99981116e-04,  2.00000000e-03
    5281,  4.36179294e-04, -5.06604290e-04,  1.64207397e-03
    5282,  4.74997749e-04, -5.07188687e-04,  1.78696284e-03
    5283,  5.13816204e-04, -5.07773085e-04,  1.93185171e-03
    5284,  8.46140600e-04, -5.12776106e-04,  1.47224342e-03
    5285,  9.21132095e-04, -5.13905075e-04,  1.60214722e-03
    5286,  9.96123586e-04, -5.15034044e-04,  1.73205102e-03
    5287,  1.19818250e-03, -5.18075967e-04,  1.20208200e-03
    5288,  1.30423648e-03, -5.19672570e-04,  1.30814800e-03
    5289,  1.41029046e-03, -5.21269174e-04,  1.41421400e-03
    5290,  1.46831331e-03, -5.22142686e-04,  8.50000209e-04
    5291,  1.59820239e-03, -5.24098118e-04,  9.25000201e-04
    5292,  1.72809147e-03, -5.26053551e-04,  1.00000019e-03
    5293,  1.63812462e-03, -5.24699133e-04,  4.39992448e-04
    5294,  1.78299707e-03, -5.26880134e-04,  4.78815302e-04
    5295,  1.92786953e-03, -5.29061135e-04,  5.17638156e-04
    5296,  1.69604408e-03, -5.25571089e-04,  9.25185854e-20
    5297,  1.84602709e-03, -5.27829028e-04,  1.38777878e-19
    5298,  1.99601009e-03, -5.30086967e-04,  2.22044605e-19
    5299,  1.63812462e-03, -5.24699133e-04, -4.39992448e-04
    5300,  1.78299707e-03, -5.26880134e-04, -4.78815302e-04
    5301,  1.92786953e-03, -5.29061135e-04, -5.17638156e-04
    5302,  1.46831331e-03, -5.22142686e-04, -8.50000209e-04
    5303,  1.59820239e-03, -5.24098118e-04, -9.25000201e-04
    5304,  1.72809147e-03, -5.26053551e-04, -1.00000019e-03
    5305,  1.19818250e-03, -5.18075967e-04, -1.20208200e-03
    5306,  1.30423648e-03, -5.19672570e-04, -1.30814800e-03
    5307,  1.41029046e-03, -5.21269174e-04, -1.41421400e-03
    5308,  8.46140600e-04, -5.12776106e-04, -1.47224342e-03
    5309,  9.21132095e-04, -5.13905075e-04, -1.60214722e-03
    5310,  9.96123586e-04, -5.15034044e-04, -1.73205102e-03
    5311,  4.36179294e-04, -5.06604290e-04, -1.64207397e-03
    5312,  4.74997749e-04, -5.07188687e-04, -1.78696284e-03
    5313,  5.13816204e-04, -5.07773085e-04, -1.93185171e-03
    5314, -3.76330236e-06, -4.99981116e-04, -1.70000000e-03
    5315, -3.76330236e-06, -4.99981116e-04, -1.85000000e-03
    5316, -3.76330236e-06, -4.99981116e-04, -2.00000000e-03
    5317, -4.43705898e-04, -4.93357943e-04, -1.64207397e-03
    5318, -4.82524354e-04, -4.92773545e-04, -1.78696284e-03
    5319, -5.21342809e-04, -4.92189148e-04, -1.93185171e-03
    5320, -8.53667205e-04, -4.87186127e-04, -1.47224342e-03
    5321, -9.28658699e-04, -4.86057157e-04, -1.60214722e-03
    5322, -1.00365019e-03, -4.84928188e-04, -1.73205102e-03
    5323, -1.20570910e-03, -4.81886266e-04, -1.20208200e-03
    5324, -1.31176309e-03, -4.80289662e-04, -1.30814800e-03
    5325, -1.41781707e-03, -4.78693059e-04, -1.41421400e-03
    5326, -1.47583991e-03, -4.77819546e-04, -8.50000209e-04
    5327, -1.60572900e-03, -4.75864114e-04, -9.25000201e-04
    5328, -1.73561808e-03, -4.73908682e-04, -1.00000019e-03
    5329, -1.64565122e-03, -4.75263100e-04, -4.39992448e-04
    5330, -1.79052368e-03, -4.73082098e-04, -4.78815302e-04
    5331, -1.93539613e-03, -4.70901097e-04, -5.17638156e-04
    5332, -1.70357069e-03, -4.74391143e-04, -9.25185854e-20
    5333, -1.85355369e-03, -4.72133205e-04, -1.38777878e-19
    5334, -2.00353670e-03, -4.69875266e-04, -2.22044605e-19
    5335, -1.64565122e-03, -4.75263100e-04,  4.39992448e-04
    5336, -1.79052368e-03, -4.73082098e-04,  4.78815302e-04
    5337, -1.93539613e-03, -4.70901097e-04,  5.17638156e-04
    5338, -1.47583991e-03, -4.77819546e-04,  8.50000209e-04
    5339, -1.60572900e-03, -4.75864114e-04,  9.25000201e-04
    5340, -1.73561808e-03, -4.73908682e-04,  1.00000019e-03
    5341, -1.50030339e-03, -4.77451258e-04,  1.49670967e-03
    5342, -1.58278971e-03, -4.76209457e-04,  1.57920533e-03
    5343, -1.66527603e-03, -4.74967655e-04,  1.66170100e-03
    5344, -1.06197686e-03, -4.84050102e-04,  1.83308726e-03
    5345, -1.12030353e-03, -4.83172015e-04,  1.93412349e-03
    5346, -1.17863020e-03, -4.82293929e-04,  2.03515973e-03
    5347, -5.51534925e-04, -4.91734617e-04,  2.04454304e-03
    5348, -5.81727040e-04, -4.91280086e-04,  2.15723437e-03
    5349, -6.11919155e-04, -4.90825554e-04,  2.26992570e-03
    5350, -3.76330236e-06, -4.99981116e-04,  2.11666667e-03
    5351, -3.76330236e-06, -4.99981116e-04,  2.23333333e-03
    5352, -3.76330236e-06, -4.99981116e-04,  2.35000000e-03
    5353,  5.44008320e-04, -5.08227616e-04,  2.04454304e-03
    5354,  5.74200435e-04, -5.08682147e-04,  2.15723437e-03
    5355,  6.04392551e-04, -5.09136678e-04,  2.26992570e-03
    5356,  1.05445026e-03, -5.15912131e-04,  1.83308726e-03
    5357,  1.11277693e-03, -5.16790217e-04,  1.93412349e-03
    5358,  1.17110360e-03, -5.17668304e-04,  2.03515973e-03
    5359,  1.49277679e-03, -5.22510975e-04,  1.49670967e-03
    5360,  1.57526310e-03, -5.23752776e-04,  1.57920533e-03
    5361,  1.65774942e-03, -5.24994577e-04,  1.66170100e-03
    5362,  1.82911627e-03, -5.27574442e-04,  1.05833347e-03
    5363,  1.93014105e-03, -5.29095332e-04,  1.11666675e-03
    5364,  2.03116584e-03, -5.30616223e-04,  1.17500003e-03
    5365,  2.04054809e-03, -5.30757470e-04,  5.47833693e-04
    5366,  2.15322665e-03, -5.32453804e-04,  5.78029229e-04
    5367,  2.26590521e-03, -5.34150138e-04,  6.08224766e-04
    5368,  2.11266355e-03, -5.31843141e-04,  1.48029737e-19
    5369,  2.22931699e-03, -5.33599316e-04,  6.47630098e-20
    5370,  2.34597044e-03, -5.35355490e-04,  0.00000000e+00
    5371,  2.04054809e-03, -5.30757470e-04, -5.47833693e-04
    5372,  2.15322665e-03, -5.32453804e-04, -5.78029229e-04
    5373,  2.26590521e-03, -5.34150138e-04, -6.08224766e-04
    5374,  1.82911627e-03, -5.27574442e-04, -1.05833347e-03
    5375,  1.93014105e-03, -5.29095332e-04, -1.11666675e-03
    5376,  2.03116584e-03, -5.30616223e-04, -1.17500003e-03
    5377,  1.49277679e-03, -5.22510975e-04, -1.49670967e-03
    5378,  1.57526310e-03, -5.23752776e-04, -1.57920533e-03
    5379,  1.65774942e-03, -5.24994577e-04, -1.66170100e-03
    5380,  1.05445026e-03, -5.15912131e-04, -1.83308726e-03
    5381,  1.11277693e-03, -5.16790217e-04, -1.93412349e-03
    5382,  1.17110360e-03, -5.17668304e-04, -2.03515973e-03
    5383,  5.44008320e-04, -5.08227616e-04, -2.04454304e-03
    5384,  5.74200435e-04, -5.08682147e-04, -2.15723437e-03
    5385,  6.04392551e-04, -5.09136678e-04, -2.26992570e-03
    5386, -3.76330236e-06, -4.99981116e-04, -2.11666667e-03
    5387, -3.76330236e-06, -4.99981116e-04, -2.23333333e-03
    5388, -3.76330236e-06, -4.99981116e-04, -2.35000000e-03
    5389, -5.51534925e-04, -4.91734617e-04, -2.04454304e-03
    5390, -5.81727040e-04, -4.91280086e-04, -2.15723437e-03
    5391, -6.11919155e-04, -4.90825554e-04, -2.26992570e-03
    5392, -1.06197686e-03, -4.84050102e-04, -1.83308726e-03
    5393, -1.12030353e-03, -4.83172015e-04, -1.93412349e-03
    5394, -1.17863020e-03, -4.82293929e-04, -2.03515973e-03
    5395, -1.50030339e-03, -4.77451258e-04, -1.49670967e-03
    5396, -1.58278971e-03, -4.76209457e-04, -1.57920533e-03
    5397, -1.66527603e-03, -4.74967655e-04, -1.66170100e-03
    5398, -1.83664287e-03, -4.72387791e-04, -1.05833347e-03
    5399, -1.93766765e-03, -4.70866900e-04, -1.11666675e-03
    5400, -2.03869245e-03, -4.69346009e-04, -1.17500003e-03
    5401, -2.04807469e-03, -4.69204763e-04, -5.47833693e-04
    5402, -2.16075325e-03, -4.67508429e-04, -5.78029229e-04
    5403, -2.27343182e-03, -4.65812095e-04, -6.08224766e-04
    5404, -2.12019015e-03, -4.68119091e-04, -1.48029737e-19
    5405, -2.23684359e-03, -4.66362917e-04, -6.47630098e-20
    5406, -2.35349704e-03, -4.64606742e-04,  0.00000000e+00
    5407, -2.04807469e-03, -4.69204763e-04,  5.47833693e-04
    5408, -2.16075325e-03, -4.67508429e-04,  5.78029229e-04
    5409, -2.27343182e-03, -4.65812095e-04,  6.08224766e-04
    5410, -1.83664287e-03, -4.72387791e-04,  1.05833347e-03
    5411, -1.93766765e-03, -4.70866900e-04,  1.11666675e-03
    5412, -2.03869245e-03, -4.69346009e-04,  1.17500003e-03
    5413, -1.70062735e-03, -4.74435454e-04,  1.69705633e-03
    5414, -1.73597869e-03, -4.73903253e-04,  1.73241167e-03
    5415, -1.77133001e-03, -4.73371052e-04,  1.76776700e-03
    5416, -1.20362737e-03, -4.81917606e-04,  2.07846100e-03
    5417, -1.22862453e-03, -4.81541283e-04,  2.12176226e-03
    5418, -1.25362170e-03, -4.81164959e-04,  2.16506353e-03
    5419, -6.24858640e-04, -4.90630755e-04,  2.31822199e-03
    5420, -6.37798125e-04, -4.90435956e-04,  2.36651828e-03
    5421, -6.50737611e-04, -4.90241157e-04,  2.41481457e-03
    5422, -3.76330236e-06, -4.99981116e-04,  2.40000000e-03
    5423, -3.76330236e-06, -4.99981116e-04,  2.45000000e-03
    5424, -3.76330236e-06, -4.99981116e-04,  2.50000000e-03
    5425,  6.17332036e-04, -5.09331477e-04,  2.31822199e-03
    5426,  6.30271520e-04, -5.09526276e-04,  2.36651828e-03
    5427,  6.43211006e-04, -5.09721076e-04,  2.41481457e-03
    5428,  1.19610077e-03, -5.18044627e-04,  2.07846100e-03
    5429,  1.22109792e-03, -5.18420950e-04,  2.12176226e-03
    5430,  1.24609509e-03, -5.18797273e-04,  2.16506353e-03
    5431,  1.69310075e-03, -5.25526778e-04,  1.69705633e-03
    5432,  1.72845208e-03, -5.26058979e-04,  1.73241167e-03
    5433,  1.76380341e-03, -5.26591181e-04,  1.76776700e-03
    5434,  2.07446220e-03, -5.31268034e-04,  1.20000003e-03
    5435,  2.11775856e-03, -5.31919845e-04,  1.22500002e-03
    5436,  2.16105492e-03, -5.32571656e-04,  1.25000002e-03
    5437,  2.31419603e-03, -5.34877138e-04,  6.21165717e-04
    5438,  2.36248685e-03, -5.35604139e-04,  6.34106668e-04
    5439,  2.41077767e-03, -5.36331139e-04,  6.47047620e-04
    5440,  2.39596477e-03, -5.36108137e-04,  7.40148683e-20
    5441,  2.44595911e-03, -5.36860783e-04,  1.48029737e-19
    5442,  2.49595344e-03, -5.37613429e-04,  2.22044605e-19
    5443,  2.31419603e-03, -5.34877138e-04, -6.21165717e-04
    5444,  2.36248685e-03, -5.35604139e-04, -6.34106668e-04
    5445,  2.41077767e-03, -5.36331139e-04, -6.47047620e-04
    5446,  2.07446220e-03, -5.31268034e-04, -1.20000003e-03
    5447,  2.11775856e-03, -5.31919845e-04, -1.22500002e-03
    5448,  2.16105492e-03, -5.32571656e-04, -1.25000002e-03
    5449,  1.69310075e-03, -5.25526778e-04, -1.69705633e-03
    5450,  1.72845208e-03, -5.26058979e-04, -1.73241167e-03
    5451,  1.76380341e-03, -5.26591181e-04, -1.76776700e-03
    5452,  1.19610077e-03, -5.18044627e-04, -2.07846100e-03
    5453,  1.22109792e-03, -5.18420950e-04, -2.12176226e-03
    5454,  1.24609509e-03, -5.18797273e-04, -2.16506353e-03
    5455,  6.17332036e-04, -5.09331477e-04, -2.31822199e-03
    5456,  6.30271520e-04, -5.09526276e-04, -2.36651828e-03
    5457,  6.43211006e-04, -5.09721076e-04, -2.41481457e-03
    5458, -3.76330236e-06, -4.99981116e-04, -2.40000000e-03
    5459, -3.76330236e-06, -4.99981116e-04, -2.45000000e-03
    5460, -3.76330236e-06, -4.99981116e-04, -2.50000000e-03
    5461, -6.24858640e-04, -4.90630755e-04, -2.31822199e-03
    5462, -6.37798125e-04, -4.90435956e-04, -2.36651828e-03
    5463, -6.50737611e-04, -4.90241157e-04, -2.41481457e-03
    5464, -1.20362737e-03, -4.81917606e-04, -2.07846100e-03
    5465, -1.22862453e-03, -4.81541283e-04, -2.12176226e-03
    5466, -1.25362170e-03, -4.81164959e-04, -2.16506353e-03
    5467, -1.70062735e-03, -4.74435454e-04, -1.69705633e-03
    5468, -1.73597869e-03, -4.73903253e-04, -1.73241167e-03
    5469, -1.77133001e-03, -4.73371052e-04, -1.76776700e-03
    5470, -2.08198881e-03, -4.68694198e-04, -1.20000003e-03
    5471, -2.12528516e-03, -4.68042388e-04, -1.22500002e-03
    5472, -2.16858153e-03, -4.67390577e-04, -1.25000002e-03
    5473, -2.32172263e-03, -4.65085094e-04, -6.21165717e-04
    5474, -2.37001345e-03, -4.64358094e-04, -6.34106668e-04
    5475, -2.41830427e-03, -4.63631093e-04, -6.47047620e-04
    5476, -2.40349138e-03, -4.63854096e-04, -7.40148683e-20
    5477, -2.45348571e-03, -4.63101450e-04, -1.48029737e-19
    5478, -2.50348005e-03, -4.62348803e-04, -2.22044605e-19
    5479, -2.32172263e-03, -4.65085094e-04,  6.21165717e-04
    5480, -2.37001345e-03, -4.64358094e-04,  6.34106668e-04
    5481, -2.41830427e-03, -4.63631093e-04,  6.47047620e-04
    5482, -2.08198881e-03, -4.68694198e-04,  1.20000003e-03
    5483, -2.12528516e-03, -4.68042388e-04,  1.22500002e-03
    5484, -2.16858153e-03, -4.67390577e-04,  1.25000002e-03
    5485,  7.50000000e-04,  4.59242550e-20,  7.50000000e-04
    5486,  7.50000000e-04,  4.59242550e-20,  5.00000000e-04
    5487,  7.50000000e-04,  4.59242550e-20,  2.50000000e-04
    5488,  7.50000000e-04,  4.59242550e-20,  0.00000000e+00
    5489,  7.50000000e-04,  4.59242550e-20, -2.50000000e-04
    5490,  7.50000000e-04,  4.59242550e-20, -5.00000000e-04
    5491,  7.50000000e-04,  4.59242550e-20, -7.50000000e-04
    5492,  5.00000000e-04,  3.06161700e-20,  7.50000000e-04
    5493,  5.00000000e-04,  3.06161700e-20,  5.00000000e-04
    5494,  5.00000000e-04,  3.06161700e-20,  2.50000000e-04
    5495,  5.00000000e-04,  3.06161700e-20,  0.00000000e+00
    5496,  5.00000000e-04,  3.06161700e-20, -2.50000000e-04
    5497,  5.00000000e-04,  3.06161700e-20, -5.00000000e-04
    5498,  5.00000000e-04,  3.06161700e-20, -7.50000000e-04
    5499,  2.50000000e-04,  1.53080850e-20,  7.50000000e-04
    5500,  2.50000000e-04,  1.53080850e-20,  5.00000000e-04
    5501,  2.50000000e-04,  1.53080850e-20,  2.50000000e-04
    5502,  2.50000000e-04,  1.53080850e-20,  0.00000000e+00
    5503,  2.50000000e-04,  1.53080850e-20, -2.50000000e-04
    5504,  2.50000000e-04,  1.53080850e-20, -5.00000000e-04
    5505,  2.50000000e-04,  1.53080850e-20, -7.50000000e-04
    5506,  0.00000000e+00,  0.00000000e+00,  7.50000000e-04
    5507,  0.00000000e+00,  0.00000000e+00,  5.00000000e-04
    5508,  0.00000000e+00,  0.00000000e+00,  2.50000000e-04
    5509,  0.00000000e+00,  0.00000000e+00,  0.00000000e+00
    5510,  0.00000000e+00,  0.00000000e+00, -2.50000000e-04
    5511,  4.62592927e-21,  2.83256474e-37, -5.00000000e-04
    5512,  0.00000000e+00,  0.00000000e+00, -7.50000000e-04
    5513, -2.50000000e-04, -1.53080850e-20,  7.50000000e-04
    5514, -2.50000000e-04, -1.53080850e-20,  5.00000000e-04
    5515, -2.50000000e-04, -1.53080850e-20,  2.50000000e-04
    5516, -2.50000000e-04, -1.53080850e-20,  0.00000000e+00
    5517, -2.50000000e-04, -1.53080850e-20, -2.50000000e-04
    5518, -2.50000000e-04, -1.53080850e-20, -5.00000000e-04
    5519, -2.50000000e-04, -1.53080850e-20, -7.50000000e-04
    5520, -5.00000000e-04, -3.06161700e-20,  7.50000000e-04
    5521, -5.00000000e-04, -3.06161700e-20,  5.00000000e-04
    5522, -5.00000000e-04, -3.06161700e-20,  2.50000000e-04
    5523, -5.00000000e-04, -3.06161700e-20,  0.00000000e+00
    5524, -5.00000000e-04, -3.06161700e-20, -2.50000000e-04
    5525, -5.00000000e-04, -3.06161700e-20, -5.00000000e-04
    5526, -5.00000000e-04, -3.06161700e-20, -7.50000000e-04
    5527, -7.50000000e-04, -4.59242550e-20,  7.50000000e-04
    5528, -7.50000000e-04, -4.59242550e-20,  5.00000000e-04
    5529, -7.50000000e-04, -4.59242550e-20,  2.50000000e-04
    5530, -7.50000000e-04, -4.59242550e-20,  0.00000000e+00
    5531, -7.50000000e-04, -4.59242550e-20, -2.50000000e-04
    5532, -7.50000000e-04, -4.59242550e-20, -5.00000000e-04
    5533, -7.50000000e-04, -4.59242550e-20, -7.50000000e-04
    5534, -8.01776667e-04, -4.90946614e-20,  8.01776667e-04
    5535, -8.53553333e-04, -5.22650679e-20,  8.53553333e-04
    5536, -9.05330000e-04, -5.54354743e-20,  9.05330000e-04
    5537, -9.57106667e-04, -5.86058808e-20,  9.57106667e-04
    5538, -1.00888333e-03, -6.17762870e-20,  1.00888333e-03
    5539, -1.06066000e-03, -6.49466937e-20,  1.06066000e-03
    5540, -5.41666654e-04, -3.31675167e-20,  8.41506337e-04
    5541, -5.83333308e-04, -3.57188634e-20,  9.33012674e-04
    5542, -6.24999962e-04, -3.82702101e-20,  1.02451901e-03
    5543, -6.66666616e-04, -4.08215569e-20,  1.11602535e-03
    5544, -7.08333270e-04, -4.33729036e-20,  1.20753168e-03
    5545, -7.49999924e-04, -4.59242503e-20,  1.29903802e-03
    5546, -2.73038090e-04, -1.67187611e-20,  8.66481453e-04
    5547, -2.96076181e-04, -1.81294374e-20,  9.82962906e-04
    5548, -3.19114271e-04, -1.95401135e-20,  1.09944436e-03
    5549, -3.42152361e-04, -2.09507897e-20,  1.21592581e-03
    5550, -3.65190451e-04, -2.23614658e-20,  1.33240726e-03
    5551, -3.88228542e-04, -2.37721421e-20,  1.44888872e-03
    5552,  1.85037171e-20,  1.13302590e-36,  8.75000000e-04
    5553,  3.70074342e-20,  2.26605179e-36,  1.00000000e-03
    5554,  5.55111512e-20,  3.39907768e-36,  1.12500000e-03
    5555,  7.40148683e-20,  4.53210358e-36,  1.25000000e-03
    5556,  8.78926561e-20,  5.38187300e-36,  1.37500000e-03
    5557,  1.11022303e-19,  6.79815540e-36,  1.50000000e-03
    5558,  2.73038090e-04,  1.67187611e-20,  8.66481453e-04
    5559,  2.96076181e-04,  1.81294374e-20,  9.82962906e-04
    5560,  3.19114271e-04,  1.95401135e-20,  1.09944436e-03
    5561,  3.42152361e-04,  2.09507897e-20,  1.21592581e-03
    5562,  3.65190451e-04,  2.23614658e-20,  1.33240726e-03
    5563,  3.88228542e-04,  2.37721421e-20,  1.44888872e-03
    5564,  5.41666654e-04,  3.31675167e-20,  8.41506337e-04
    5565,  5.83333308e-04,  3.57188634e-20,  9.33012674e-04
    5566,  6.24999962e-04,  3.82702101e-20,  1.02451901e-03
    5567,  6.66666616e-04,  4.08215569e-20,  1.11602535e-03
    5568,  7.08333270e-04,  4.33729036e-20,  1.20753168e-03
    5569,  7.49999924e-04,  4.59242503e-20,  1.29903802e-03
    5570,  8.01776667e-04,  4.90946614e-20,  8.01776667e-04
    5571,  8.53553333e-04,  5.22650679e-20,  8.53553333e-04
    5572,  9.05330000e-04,  5.54354743e-20,  9.05330000e-04
    5573,  9.57106667e-04,  5.86058808e-20,  9.57106667e-04
    5574,  1.00888333e-03,  6.17762870e-20,  1.00888333e-03
    5575,  1.06066000e-03,  6.49466937e-20,  1.06066000e-03
    5576,  8.41506337e-04,  5.15274021e-20,  5.41666654e-04
    5577,  9.33012674e-04,  5.71305492e-20,  5.83333308e-04
    5578,  1.02451901e-03,  6.27336963e-20,  6.24999962e-04
    5579,  1.11602535e-03,  6.83368436e-20,  6.66666616e-04
    5580,  1.20753168e-03,  7.39399903e-20,  7.08333270e-04
    5581,  1.29903802e-03,  7.95431377e-20,  7.49999924e-04
    5582,  8.66481453e-04,  5.30566869e-20,  2.73038090e-04
    5583,  9.82962906e-04,  6.01891188e-20,  2.96076181e-04
    5584,  1.09944436e-03,  6.73215508e-20,  3.19114271e-04
    5585,  1.21592581e-03,  7.44539826e-20,  3.42152361e-04
    5586,  1.33240726e-03,  8.15864143e-20,  3.65190451e-04
    5587,  1.44888872e-03,  8.87188467e-20,  3.88228542e-04
    5588,  8.75000000e-04,  5.35782975e-20,  1.85037171e-20
    5589,  1.00000000e-03,  6.12323400e-20,  3.70074342e-20
    5590,  1.12500000e-03,  6.88863825e-20,  5.55111512e-20
    5591,  1.25000000e-03,  7.65404249e-20,  7.40148683e-20
    5592,  1.37500000e-03,  8.41944674e-20,  9.71445147e-20
    5593,  1.50000000e-03,  9.18485099e-20,  1.11022303e-19
    5594,  8.66481453e-04,  5.30566869e-20, -2.73038090e-04
    5595,  9.82962906e-04,  6.01891188e-20, -2.96076181e-04
    5596,  1.09944436e-03,  6.73215508e-20, -3.19114271e-04
    5597,  1.21592581e-03,  7.44539826e-20, -3.42152361e-04
    5598,  1.33240726e-03,  8.15864143e-20, -3.65190451e-04
    5599,  1.44888872e-03,  8.87188467e-20, -3.88228542e-04
    5600,  8.41506337e-04,  5.15274021e-20, -5.41666654e-04
    5601,  9.33012674e-04,  5.71305492e-20, -5.83333308e-04
    5602,  1.02451901e-03,  6.27336963e-20, -6.24999962e-04
    5603,  1.11602535e-03,  6.83368436e-20, -6.66666616e-04
    5604,  1.20753168e-03,  7.39399903e-20, -7.08333270e-04
    5605,  1.29903802e-03,  7.95431377e-20, -7.49999924e-04
    5606,  8.01776667e-04,  4.90946614e-20, -8.01776667e-04
    5607,  8.53553333e-04,  5.22650679e-20, -8.53553333e-04
    5608,  9.05330000e-04,  5.54354743e-20, -9.05330000e-04
    5609,  9.57106667e-04,  5.86058808e-20, -9.57106667e-04
    5610,  1.00888333e-03,  6.17762870e-20, -1.00888333e-03
    5611,  1.06066000e-03,  6.49466937e-20, -1.06066000e-03
    5612,  5.41666654e-04,  3.31675167e-20, -8.41506337e-04
    5613,  5.83333308e-04,  3.57188634e-20, -9.33012674e-04
    5614,  6.24999962e-04,  3.82702101e-20, -1.02451901e-03
    5615,  6.66666616e-04,  4.08215569e-20, -1.11602535e-03
    5616,  7.08333270e-04,  4.33729036e-20, -1.20753168e-03
    5617,  7.49999924e-04,  4.59242503e-20, -1.29903802e-03
    5618,  2.73038090e-04,  1.67187611e-20, -8.66481453e-04
    5619,  2.96076181e-04,  1.81294374e-20, -9.82962906e-04
    5620,  3.19114271e-04,  1.95401135e-20, -1.09944436e-03
    5621,  3.42152361e-04,  2.09507897e-20, -1.21592581e-03
    5622,  3.65190451e-04,  2.23614658e-20, -1.33240726e-03
    5623,  3.88228542e-04,  2.37721421e-20, -1.44888872e-03
    5624,  1.85037171e-20,  1.13302590e-36, -8.75000000e-04
    5625,  3.70074342e-20,  2.26605179e-36, -1.00000000e-03
    5626,  5.55111512e-20,  3.39907768e-36, -1.12500000e-03
    5627,  7.40148683e-20,  4.53210358e-36, -1.25000000e-03
    5628,  9.71445147e-20,  5.94838595e-36, -1.37500000e-03
    5629,  1.11022303e-19,  6.79815540e-36, -1.50000000e-03
    5630, -2.73038090e-04, -1.67187611e-20, -8.66481453e-04
    5631, -2.96076181e-04, -1.81294374e-20, -9.82962906e-04
    5632, -3.19114271e-04, -1.95401135e-20, -1.09944436e-03
    5633, -3.42152361e-04, -2.09507897e-20, -1.21592581e-03
    5634, -3.65190451e-04, -2.23614658e-20, -1.33240726e-03
    5635, -3.88228542e-04, -2.37721421e-20, -1.44888872e-03
    5636, -5.41666654e-04, -3.31675167e-20, -8.41506337e-04
    5637, -5.83333308e-04, -3.57188634e-20, -9.33012674e-04
    5638, -6.24999962e-04, -3.82702101e-20, -1.02451901e-03
    5639, -6.66666616e-04, -4.08215569e-20, -1.11602535e-03
    5640, -7.08333270e-04, -4.33729036e-20, -1.20753168e-03
    5641, -7.49999924e-04, -4.59242503e-20, -1.29903802e-03
    5642, -8.01776667e-04, -4.90946614e-20, -8.01776667e-04
    5643, -8.53553333e-04, -5.22650679e-20, -8.53553333e-04
    5644, -9.05330000e-04, -5.54354743e-20, -9.05330000e-04
    5645, -9.57106667e-04, -5.86058808e-20, -9.57106667e-04
    5646, -1.00888333e-03, -6.17762870e-20, -1.00888333e-03
    5647, -1.06066000e-03, -6.49466937e-20, -1.06066000e-03
    5648, -8.41506337e-04, -5.15274021e-20, -5.41666654e-04
    5649, -9.33012674e-04, -5.71305492e-20, -5.83333308e-04
    5650, -1.02451901e-03, -6.27336963e-20, -6.24999962e-04
    5651, -1.11602535e-03, -6.83368436e-20, -6.66666616e-04
    5652, -1.20753168e-03, -7.39399903e-20, -7.08333270e-04
    5653, -1.29903802e-03, -7.95431377e-20, -7.49999924e-04
    5654, -8.66481453e-04, -5.30566869e-20, -2.73038090e-04
    5655, -9.82962906e-04, -6.01891188e-20, -2.96076181e-04
    5656, -1.09944436e-03, -6.73215508e-20, -3.19114271e-04
    5657, -1.21592581e-03, -7.44539826e-20, -3.42152361e-04
    5658, -1.33240726e-03, -8.15864143e-20, -3.65190451e-04
    5659, -1.44888872e-03, -8.87188467e-20, -3.88228542e-04
    5660, -8.75000000e-04, -5.35782975e-20, -1.85037171e-20
    5661, -1.00000000e-03, -6.12323400e-20, -3.70074342e-20
    5662, -1.12500000e-03, -6.88863825e-20, -5.55111512e-20
    5663, -1.25000000e-03, -7.65404249e-20, -7.40148683e-20
    5664, -1.37500000e-03, -8.41944674e-20, -9.71445147e-20
    5665, -1.50000000e-03, -9.18485099e-20, -1.11022303e-19
    5666, -8.66481453e-04, -5.30566869e-20,  2.73038090e-04
    5667, -9.82962906e-04, -6.01891188e-20,  2.96076181e-04
    5668, -1.09944436e-03, -6.73215508e-20,  3.19114271e-04
    5669, -1.21592581e-03, -7.44539826e-20,  3.42152361e-04
    5670, -1.33240726e-03, -8.15864143e-20,  3.65190451e-04
    5671, -1.44888872e-03, -8.87188467e-20,  3.88228542e-04
    5672, -8.41506337e-04, -5.15274021e-20,  5.41666654e-04
    5673, -9.33012674e-04, -5.71305492e-20,  5.83333308e-04
    5674, -1.02451901e-03, -6.27336963e-20,  6.24999962e-04
    5675, -1.11602535e-03, -6.83368436e-20,  6.66666616e-04
    5676, -1.20753168e-03, -7.39399903e-20,  7.08333270e-04
    5677, -1.29903802e-03, -7.95431377e-20,  7.49999924e-04
    5678, -1.07833800e-03, -6.60291590e-20,  1.07833800e-03
    5679, -1.09601600e-03, -6.71116243e-20,  1.09601600e-03
    5680, -7.62500070e-04, -4.66896635e-20,  1.32068882e-03
    5681, -7.75000217e-04, -4.74550768e-20,  1.34233962e-03
    5682, -3.94699068e-04, -2.41683475e-20,  1.47303691e-03
    5683, -4.01169594e-04, -2.45645530e-20,  1.49718509e-03
    5684,  5.55111512e-20,  3.39907768e-36,  1.52500000e-03
    5685,  0.00000000e+00,  0.00000000e+00,  1.55000000e-03
    5686,  3.94699068e-04,  2.41683475e-20,  1.47303691e-03
    5687,  4.01169594e-04,  2.45645530e-20,  1.49718509e-03
    5688,  7.62500070e-04,  4.66896635e-20,  1.32068882e-03
    5689,  7.75000217e-04,  4.74550768e-20,  1.34233962e-03
    5690,  1.07833800e-03,  6.60291590e-20,  1.07833800e-03
    5691,  1.09601600e-03,  6.71116243e-20,  1.09601600e-03
    5692,  1.32068882e-03,  8.08688668e-20,  7.62500070e-04
    5693,  1.34233962e-03,  8.21945960e-20,  7.75000217e-04
    5694,  1.47303691e-03,  9.01974968e-20,  3.94699068e-04
    5695,  1.49718509e-03,  9.16761464e-20,  4.01169594e-04
    5696,  1.52500000e-03,  9.33793184e-20,  5.55111512e-20
    5697,  1.55000000e-03,  9.49101269e-20,  0.00000000e+00
    5698,  1.47303691e-03,  9.01974968e-20, -3.94699068e-04
    5699,  1.49718509e-03,  9.16761464e-20, -4.01169594e-04
    5700,  1.32068882e-03,  8.08688668e-20, -7.62500070e-04
    5701,  1.34233962e-03,  8.21945960e-20, -7.75000217e-04
    5702,  1.07833800e-03,  6.60291590e-20, -1.07833800e-03
    5703,  1.09601600e-03,  6.71116243e-20, -1.09601600e-03
    5704,  7.62500070e-04,  4.66896635e-20, -1.32068882e-03
    5705,  7.75000217e-04,  4.74550768e-20, -1.34233962e-03
    5706,  3.94699068e-04,  2.41683475e-20, -1.47303691e-03
    5707,  4.01169594e-04,  2.45645530e-20, -1.49718509e-03
    5708,  5.55111512e-20,  3.39907768e-36, -1.52500000e-03
    5709,  0.00000000e+00,  0.00000000e+00, -1.55000000e-03
    5710, -3.94699068e-04, -2.41683475e-20, -1.47303691e-03
    5711, -4.01169594e-04, -2.45645530e-20, -1.49718509e-03
    5712, -7.62500070e-04, -4.66896635e-20, -1.32068882e-03
    5713, -7.75000217e-04, -4.74550768e-20, -1.34233962e-03
    5714, -1.07833800e-03, -6.60291590e-20, -1.07833800e-03
    5715, -1.09601600e-03, -6.71116243e-20, -1.09601600e-03
    5716, -1.32068882e-03, -8.08688668e-20, -7.62500070e-04
    5717, -1.34233962e-03, -8.21945960e-20, -7.75000217e-04
    5718, -1.47303691e-03, -9.01974968e-20, -3.94699068e-04
    5719, -1.49718509e-03, -9.16761464e-20, -4.01169594e-04
    5720, -1.52500000e-03, -9.33793184e-20, -5.55111512e-20
    5721, -1.55000000e-03, -9.49101269e-20,  0.00000000e+00
    5722, -1.47303691e-03, -9.01974968e-20,  3.94699068e-04
    5723, -1.49718509e-03, -9.16761464e-20,  4.01169594e-04
    5724, -1.32068882e-03, -8.08688668e-20,  7.62500070e-04
    5725, -1.34233962e-03, -8.21945960e-20,  7.75000217e-04
    5726, -1.20208200e-03, -7.36062937e-20,  1.20208200e-03
    5727, -1.30814800e-03, -8.01009631e-20,  1.30814800e-03
    5728, -1.41421400e-03, -8.65956324e-20,  1.41421400e-03
    5729, -8.50000209e-04, -5.20475018e-20,  1.47224342e-03
    5730, -9.25000201e-04, -5.66399268e-20,  1.60214722e-03
    5731, -1.00000019e-03, -6.12323516e-20,  1.73205102e-03
    5732, -4.39992448e-04, -2.69417672e-20,  1.64207397e-03
    5733, -4.78815302e-04, -2.93189813e-20,  1.78696284e-03
    5734, -5.17638156e-04, -3.16961955e-20,  1.93185171e-03
    5735,  5.55111512e-20,  3.39907768e-36,  1.70000000e-03
    5736,  1.57281595e-19,  9.63072009e-36,  1.85000000e-03
    5737,  2.22044605e-19,  1.35963107e-35,  2.00000000e-03
    5738,  4.39992448e-04,  2.69417672e-20,  1.64207397e-03
    5739,  4.78815302e-04,  2.93189813e-20,  1.78696284e-03
    5740,  5.17638156e-04,  3.16961955e-20,  1.93185171e-03
    5741,  8.50000209e-04,  5.20475018e-20,  1.47224342e-03
    5742,  9.25000201e-04,  5.66399268e-20,  1.60214722e-03
    5743,  1.00000019e-03,  6.12323516e-20,  1.73205102e-03
    5744,  1.20208200e-03,  7.36062937e-20,  1.20208200e-03
    5745,  1.30814800e-03,  8.01009631e-20,  1.30814800e-03
    5746,  1.41421400e-03,  8.65956324e-20,  1.41421400e-03
    5747,  1.47224342e-03,  9.01489096e-20,  8.50000209e-04
    5748,  1.60214722e-03,  9.81032232e-20,  9.25000201e-04
    5749,  1.73205102e-03,  1.06057537e-19,  1.00000019e-03
    5750,  1.64207397e-03,  1.00548032e-19,  4.39992448e-04
    5751,  1.78696284e-03,  1.09419916e-19,  4.78815302e-04
    5752,  1.93185171e-03,  1.18291801e-19,  5.17638156e-04
    5753,  1.70000000e-03,  1.04094978e-19,  9.25185854e-20
    5754,  1.85000000e-03,  1.13279829e-19,  1.38777878e-19
    5755,  2.00000000e-03,  1.22464680e-19,  2.22044605e-19
    5756,  1.64207397e-03,  1.00548032e-19, -4.39992448e-04
    5757,  1.78696284e-03,  1.09419916e-19, -4.78815302e-04
    5758,  1.93185171e-03,  1.18291801e-19, -5.17638156e-04
    5759,  1.47224342e-03,  9.01489096e-20, -8.50000209e-04
    5760,  1.60214722e-03,  9.81032232e-20, -9.25000201e-04
    5761,  1.73205102e-03,  1.06057537e-19, -1.00000019e-03
    5762,  1.20208200e-03,  7.36062937e-20, -1.20208200e-03
    5763,  1.30814800e-03,  8.01009631e-20, -1.30814800e-03
    5764,  1.41421400e-03,  8.65956324e-20, -1.41421400e-03
    5765,  8.50000209e-04,  5.20475018e-20, -1.47224342e-03
    5766,  9.25000201e-04,  5.66399268e-20, -1.60214722e-03
    5767,  1.00000019e-03,  6.12323516e-20, -1.73205102e-03
    5768,  4.39992448e-04,  2.69417672e-20, -1.64207397e-03
    5769,  4.78815302e-04,  2.93189813e-20, -1.78696284e-03
    5770,  5.17638156e-04,  3.16961955e-20, -1.93185171e-03
    5771,  9.25185854e-20,  5.66512947e-36, -1.70000000e-03
    5772,  1.38777878e-19,  8.49769420e-36, -1.85000000e-03
    5773,  2.22044605e-19,  1.35963107e-35, -2.00000000e-03
    5774, -4.39992448e-04, -2.69417672e-20, -1.64207397e-03
    5775, -4.78815302e-04, -2.93189813e-20, -1.78696284e-03
    5776, -5.17638156e-04, -3.16961955e-20, -1.93185171e-03
    5777, -8.50000209e-04, -5.20475018e-20, -1.47224342e-03
    5778, -9.25000201e-04, -5.66399268e-20, -1.60214722e-03
    5779, -1.00000019e-03, -6.12323516e-20, -1.73205102e-03
    5780, -1.20208200e-03, -7.36062937e-20, -1.20208200e-03
    5781, -1.30814800e-03, -8.01009631e-20, -1.30814800e-03
    5782, -1.41421400e-03, -8.65956324e-20, -1.41421400e-03
    5783, -1.47224342e-03, -9.01489096e-20, -8.50000209e-04
    5784, -1.60214722e-03, -9.81032232e-20, -9.25000201e-04
    5785, -1.73205102e-03, -1.06057537e-19, -1.00000019e-03
    5786, -1.64207397e-03, -1.00548032e-19, -4.39992448e-04
    5787, -1.78696284e-03, -1.09419916e-19, -4.78815302e-04
    5788, -1.93185171e-03, -1.18291801e-19, -5.17638156e-04
    5789, -1.70000000e-03, -1.04094978e-19, -9.25185854e-20
    5790, -1.85000000e-03, -1.13279829e-19, -1.38777878e-19
    5791, -2.00000000e-03, -1.22464680e-19, -2.22044605e-19
    5792, -1.64207397e-03, -1.00548032e-19,  4.39992448e-04
    5793, -1.78696284e-03, -1.09419916e-19,  4.78815302e-04
    5794, -1.93185171e-03, -1.18291801e-19,  5.17638156e-04
    5795, -1.47224342e-03, -9.01489096e-20,  8.50000209e-04
    5796, -1.60214722e-03, -9.81032232e-20,  9.25000201e-04
    5797, -1.73205102e-03, -1.06057537e-19,  1.00000019e-03
    5798, -1.49670967e-03, -9.16470353e-20,  1.49670967e-03
    5799, -1.57920533e-03, -9.66984376e-20,  1.57920533e-03
    5800, -1.66170100e-03, -1.01749841e-19,  1.66170100e-03
    5801, -1.05833347e-03, -6.48042348e-20,  1.83308726e-03
    5802, -1.11666675e-03, -6.83761181e-20,  1.93412349e-03
    5803, -1.17500003e-03, -7.19480013e-20,  2.03515973e-03
    5804, -5.47833693e-04, -3.35451389e-20,  2.04454304e-03
    5805, -5.78029229e-04, -3.53940823e-20,  2.15723437e-03
    5806, -6.08224766e-04, -3.72430256e-20,  2.26992570e-03
    5807,  1.48029737e-19,  9.06420718e-36,  2.11666667e-03
    5808,  8.32667268e-20,  5.09861652e-36,  2.23333333e-03
    5809,  0.00000000e+00,  0.00000000e+00,  2.35000000e-03
    5810,  5.47833693e-04,  3.35451389e-20,  2.04454304e-03
    5811,  5.78029229e-04,  3.53940823e-20,  2.15723437e-03
    5812,  6.08224766e-04,  3.72430256e-20,  2.26992570e-03
    5813,  1.05833347e-03,  6.48042348e-20,  1.83308726e-03
    5814,  1.11666675e-03,  6.83761181e-20,  1.93412349e-03
    5815,  1.17500003e-03,  7.19480013e-20,  2.03515973e-03
    5816,  1.49670967e-03,  9.16470353e-20,  1.49670967e-03
    5817,  1.57920533e-03,  9.66984376e-20,  1.57920533e-03
    5818,  1.66170100e-03,  1.01749841e-19,  1.66170100e-03
    5819,  1.83308726e-03,  1.12244222e-19,  1.05833347e-03
    5820,  1.93412349e-03,  1.18430907e-19,  1.11666675e-03
    5821,  2.03515973e-03,  1.24617592e-19,  1.17500003e-03
    5822,  2.04454304e-03,  1.25192154e-19,  5.47833693e-04
    5823,  2.15723437e-03,  1.32092508e-19,  5.78029229e-04
    5824,  2.26992570e-03,  1.38992862e-19,  6.08224766e-04
    5825,  2.11666667e-03,  1.29608453e-19,  1.48029737e-19
    5826,  2.23333333e-03,  1.36752226e-19,  6.47630098e-20
    5827,  2.35000000e-03,  1.43895999e-19,  0.00000000e+00
    5828,  2.04454304e-03,  1.25192154e-19, -5.47833693e-04
    5829,  2.15723437e-03,  1.32092508e-19, -5.78029229e-04
    5830,  2.26992570e-03,  1.38992862e-19, -6.08224766e-04
    5831,  1.83308726e-03,  1.12244222e-19, -1.05833347e-03
    5832,  1.93412349e-03,  1.18430907e-19, -1.11666675e-03
    5833,  2.03515973e-03,  1.24617592e-19, -1.17500003e-03
    5834,  1.49670967e-03,  9.16470353e-20, -1.49670967e-03
    5835,  1.57920533e-03,  9.66984376e-20, -1.57920533e-03
    5836,  1.66170100e-03,  1.01749841e-19, -1.66170100e-03
    5837,  1.05833347e-03,  6.48042348e-20, -1.83308726e-03
    5838,  1.11666675e-03,  6.83761181e-20, -1.93412349e-03
    5839,  1.17500003e-03,  7.19480013e-20, -2.03515973e-03
    5840,  5.47833693e-04,  3.35451389e-20, -2.04454304e-03
    5841,  5.78029229e-04,  3.53940823e-20, -2.15723437e-03
    5842,  6.08224766e-04,  3.72430256e-20, -2.26992570e-03
    5843,  1.48029737e-19,  9.06420718e-36, -2.11666667e-03
    5844,  6.47630098e-20,  3.96559063e-36, -2.23333333e-03
    5845,  0.00000000e+00,  0.00000000e+00, -2.35000000e-03
    5846, -5.47833693e-04, -3.35451389e-20, -2.04454304e-03
    5847, -5.78029229e-04, -3.53940823e-20, -2.15723437e-03
    5848, -6.08224766e-04, -3.72430256e-20, -2.26992570e-03
    5849, -1.05833347e-03, -6.48042348e-20, -1.83308726e-03
    5850, -1.11666675e-03, -6.83761181e-20, -1.93412349e-03
    5851, -1.17500003e-03, -7.19480013e-20, -2.03515973e-03
    5852, -1.49670967e-03, -9.16470353e-20, -1.49670967e-03
    5853, -1.57920533e-03, -9.66984376e-20, -1.57920533e-03
    5854, -1.66170100e-03, -1.01749841e-19, -1.66170100e-03
    5855, -1.83308726e-03, -1.12244222e-19, -1.05833347e-03
    5856, -1.93412349e-03, -1.18430907e-19, -1.11666675e-03
    5857, -2.03515973e-03, -1.24617592e-19, -1.17500003e-03
    5858, -2.04454304e-03, -1.25192154e-19, -5.47833693e-04
    5859, -2.15723437e-03, -1.32092508e-19, -5.78029229e-04
    5860, -2.26992570e-03, -1.38992862e-19, -6.08224766e-04
    5861, -2.11666667e-03, -1.29608453e-19, -1.48029737e-19
    5862, -2.23333333e-03, -1.36752226e-19, -6.47630098e-20
    5863, -2.35000000e-03, -1.43895999e-19,  0.00000000e+00
    5864, -2.04454304e-03, -1.25192154e-19,  5.47833693e-04
    5865, -2.15723437e-03, -1.32092508e-19,  5.78029229e-04
    5866, -2.26992570e-03, -1.38992862e-19,  6.08224766e-04
    5867, -1.83308726e-03, -1.12244222e-19,  1.05833347e-03
    5868, -1.93412349e-03, -1.18430907e-19,  1.11666675e-03
    5869, -2.03515973e-03, -1.24617592e-19,  1.17500003e-03
    5870, -1.69705633e-03, -1.03914730e-19,  1.69705633e-03
    5871, -1.73241167e-03, -1.06079620e-19,  1.73241167e-03
    5872, -1.76776700e-03, -1.08244510e-19,  1.76776700e-03
    5873, -1.20000003e-03, -7.34788098e-20,  2.07846100e-03
    5874, -1.22500002e-03, -7.50096177e-20,  2.12176226e-03
    5875, -1.25000002e-03, -7.65404262e-20,  2.16506353e-03
    5876, -6.21165717e-04, -3.80354304e-20,  2.31822199e-03
    5877, -6.34106668e-04, -3.88278351e-20,  2.36651828e-03
    5878, -6.47047620e-04, -3.96202398e-20,  2.41481457e-03
    5879,  7.40148683e-20,  4.53210358e-36,  2.40000000e-03
    5880,  1.48029737e-19,  9.06420718e-36,  2.45000000e-03
    5881,  2.22044605e-19,  1.35963107e-35,  2.50000000e-03
    5882,  6.21165717e-04,  3.80354304e-20,  2.31822199e-03
    5883,  6.34106668e-04,  3.88278351e-20,  2.36651828e-03
    5884,  6.47047620e-04,  3.96202398e-20,  2.41481457e-03
    5885,  1.20000003e-03,  7.34788098e-20,  2.07846100e-03
    5886,  1.22500002e-03,  7.50096177e-20,  2.12176226e-03
    5887,  1.25000002e-03,  7.65404262e-20,  2.16506353e-03
    5888,  1.69705633e-03,  1.03914730e-19,  1.69705633e-03
    5889,  1.73241167e-03,  1.06079620e-19,  1.73241167e-03
    5890,  1.76776700e-03,  1.08244510e-19,  1.76776700e-03
    5891,  2.07846100e-03,  1.27269031e-19,  1.20000003e-03
    5892,  2.12176226e-03,  1.29920468e-19,  1.22500002e-03
    5893,  2.16506353e-03,  1.32571906e-19,  1.25000002e-03
    5894,  2.31822199e-03,  1.41950157e-19,  6.21165717e-04
    5895,  2.36651828e-03,  1.44907452e-19,  6.34106668e-04
    5896,  2.41481457e-03,  1.47864747e-19,  6.47047620e-04
    5897,  2.40000000e-03,  1.46957616e-19,  7.40148683e-20
    5898,  2.45000000e-03,  1.50019233e-19,  1.48029737e-19
    5899,  2.50000000e-03,  1.53080850e-19,  2.22044605e-19
    5900,  2.31822199e-03,  1.41950157e-19, -6.21165717e-04
    5901,  2.36651828e-03,  1.44907452e-19, -6.34106668e-04
    5902,  2.41481457e-03,  1.47864747e-19, -6.47047620e-04
    5903,  2.07846100e-03,  1.27269031e-19, -1.20000003e-03
    5904,  2.12176226e-03,  1.29920468e-19, -1.22500002e-03
    5905,  2.16506353e-03,  1.32571906e-19, -1.25000002e-03
    5906,  1.69705633e-03,  1.03914730e-19, -1.69705633e-03
    5907,  1.73241167e-03,  1.06079620e-19, -1.73241167e-03
    5908,  1.76776700e-03,  1.08244510e-19, -1.76776700e-03
    5909,  1.20000003e-03,  7.34788098e-20, -2.07846100e-03
    5910,  1.22500002e-03,  7.50096177e-20, -2.12176226e-03
    5911,  1.25000002e-03,  7.65404262e-20, -2.16506353e-03
    5912,  6.21165717e-04,  3.80354304e-20, -2.31822199e-03
    5913,  6.34106668e-04,  3.88278351e-20, -2.36651828e-03
    5914,  6.47047620e-04,  3.96202398e-20, -2.41481457e-03
    5915,  7.40148683e-20,  4.53210358e-36, -2.40000000e-03
    5916,  1.48029737e-19,  9.06420718e-36, -2.45000000e-03
    5917,  2.22044605e-19,  1.35963107e-35, -2.50000000e-03
    5918, -6.21165717e-04, -3.80354304e-20, -2.31822199e-03
    5919, -6.34106668e-04, -3.88278351e-20, -2.36651828e-03
    5920, -6.47047620e-04, -3.96202398e-20, -2.41481457e-03
    5921, -1.20000003e-03, -7.34788098e-20, -2.07846100e-03
    5922, -1.22500002e-03, -7.50096177e-20, -2.12176226e-03
    5923, -1.25000002e-03, -7.65404262e-20, -2.16506353e-03
    5924, -1.69705633e-03, -1.03914730e-19, -1.69705633e-03
    5925, -1.73241167e-03, -1.06079620e-19, -1.73241167e-03
    5926, -1.76776700e-03, -1.08244510e-19, -1.76776700e-03
    5927, -2.07846100e-03, -1.27269031e-19, -1.20000003e-03
    5928, -2.12176226e-03, -1.29920468e-19, -1.22500002e-03
    5929, -2.16506353e-03, -1.32571906e-19, -1.25000002e-03
    5930, -2.31822199e-03, -1.41950157e-19, -6.21165717e-04
    5931, -2.36651828e-03, -1.44907452e-19, -6.34106668e-04
    5932, -2.41481457e-03, -1.47864747e-19, -6.47047620e-04
    5933, -2.40000000e-03, -1.46957616e-19, -7.40148683e-20
    5934, -2.45000000e-03, -1.50019233e-19, -1.48029737e-19
    5935, -2.50000000e-03, -1.53080850e-19, -2.22044605e-19
    5936, -2.31822199e-03, -1.41950157e-19,  6.21165717e-04
    5937, -2.36651828e-03, -1.44907452e-19,  6.34106668e-04
    5938, -2.41481457e-03, -1.47864747e-19,  6.47047620e-04
    5939, -2.07846100e-03, -1.27269031e-19,  1.20000003e-03
    5940, -2.12176226e-03, -1.29920468e-19,  1.22500002e-03
    5941, -2.16506353e-03, -1.32571906e-19,  1.25000002e-03
*ELEMENT, TYPE=C3D8I, ELSET=ON
       1,       51,       58,        9,        2,       50,       57,        8,        1
       2,       52,       59,       10,        3,       51,       58,        9,        2
       3,       53,       60,       11,        4,       52,       59,       10,        3
       4,       54,       61,       12,        5,       53,       60,       11,        4
       5,       55,       62,       13,        6,       54,       61,       12,        5
       6,       14,       63,       62,       13,        7,       56,       55,        6
       7,       58,       65,       16,        9,       57,       64,       15,        8
       8,       59,       66,       17,       10,       58,       65,       16,        9
       9,       60,       67,       18,       11,       59,       66,       17,       10
      10,       61,       68,       19,       12,       60,       67,       18,       11
      11,       62,       69,       20,       13,       61,       68,       19,       12
      12,       21,       70,       69,       20,       14,       63,       62,       13
      13,       65,       72,       23,       16,       64,       71,       22,       15
      14,       66,       73,       24,       17,       65,       72,       23,       16
      15,       67,       74,       25,       18,       66,       73,       24,       17
      16,       68,       75,       26,       19,       67,       74,       25,       18
      17,       69,       76,       27,       20,       68,       75,       26,       19
      18,       28,       77,       76,       27,       21,       70,       69,       20
      19,       72,       79,       30,       23,       71,       78,       29,       22
      20,       73,       80,       31,       24,       72,       79,       30,       23
      21,       74,       81,       32,       25,       73,       80,       31,       24
      22,       75,       82,       33,       26,       74,       81,       32,       25
      23,       76,       83,       34,       27,       75,       82,       33,       26
      24,       35,       84,       83,       34,       28,       77,       76,       27
      25,       79,       86,       37,       30,       78,       85,       36,       29
      26,       80,       87,       38,       31,       79,       86,       37,       30
      27,       81,       88,       39,       32,       80,       87,       38,       31
      28,       82,       89,       40,       33,       81,       88,       39,       32
      29,       83,       90,       41,       34,       82,       89,       40,       33
      30,       42,       91,       90,       41,       35,       84,       83,       34
      31,       86,       93,       44,       37,       85,       92,       43,       36
      32,       87,       94,       45,       38,       86,       93,       44,       37
      33,       88,       95,       46,       39,       87,       94,       45,       38
      34,       89,       96,       47,       40,       88,       95,       46,       39
      35,       90,       97,       48,       41,       89,       96,       47,       40
      36,       97,       98,       91,       90,       48,       49,       42,       41
      37,      100,      107,       58,       51,       99,      106,       57,       50
      38,      101,      108,       59,       52,      100,      107,       58,       51
      39,      102,      109,       60,       53,      101,      108,       59,       52
      40,      103,      110,       61,       54,      102,      109,       60,       53
      41,      104,      111,       62,       55,      103,      110,       61,       54
      42,       63,      112,      111,       62,       56,      105,      104,       55
      43,      107,      114,       65,       58,      106,      113,       64,       57
      44,      108,      115,       66,       59,      107,      114,       65,       58
      45,      109,      116,       67,       60,      108,      115,       66,       59
      46,      110,      117,       68,       61,      109,      116,       67,       60
      47,      111,      118,       69,       62,      110,      117,       68,       61
      48,       70,      119,      118,       69,       63,      112,      111,       62
      49,      114,      121,       72,       65,      113,      120,       71,       64
      50,      115,      122,       73,       66,      114,      121,       72,       65
      51,      116,      123,       74,       67,      115,      122,       73,       66
      52,      117,      124,       75,       68,      116,      123,       74,       67
      53,      118,      125,       76,       69,      117,      124,       75,       68
      54,       77,      126,      125,       76,       70,      119,      118,       69
      55,      121,      128,       79,       72,      120,      127,       78,       71
      56,      122,      129,       80,       73,      121,      128,       79,       72
      57,      123,      130,       81,       74,      122,      129,       80,       73
      58,      124,      131,       82,       75,      123,      130,       81,       74
      59,      125,      132,       83,       76,      124,      131,       82,       75
      60,       84,      133,      132,       83,       77,      126,      125,       76
      61,      128,      135,       86,       79,      127,      134,       85,       78
      62,      129,      136,       87,       80,      128,      135,       86,       79
      63,      130,      137,       88,       81,      129,      136,       87,       80
      64,      131,      138,       89,       82,      130,      137,       88,       81
      65,      132,      139,       90,       83,      131,      138,       89,       82
      66,       91,      140,      139,       90,       84,      133,      132,       83
      67,      135,      142,       93,       86,      134,      141,       92,       85
      68,      136,      143,       94,       87,      135,      142,       93,       86
      69,      137,      144,       95,       88,      136,      143,       94,       87
      70,      138,      145,       96,       89,      137,      144,       95,       88
      71,      139,      146,       97,       90,      138,      145,       96,       89
      72,      146,      147,      140,      139,       97,       98,       91,       90
      73,      149,      156,      107,      100,      148,      155,      106,       99
      74,      150,      157,      108,      101,      149,      156,      107,      100
      75,      151,      158,      109,      102,      150,      157,      108,      101
      76,      152,      159,      110,      103,      151,      158,      109,      102
      77,      153,      160,      111,      104,      152,      159,      110,      103
      78,      112,      161,      160,      111,      105,      154,      153,      104
      79,      156,      163,      114,      107,      155,      162,      113,      106
      80,      157,      164,      115,      108,      156,      163,      114,      107
      81,      158,      165,      116,      109,      157,      164,      115,      108
      82,      159,      166,      117,      110,      158,      165,      116,      109
      83,      160,      167,      118,      111,      159,      166,      117,      110
      84,      119,      168,      167,      118,      112,      161,      160,      111
      85,      163,      170,      121,      114,      162,      169,      120,      113
      86,      164,      171,      122,      115,      163,      170,      121,      114
      87,      165,      172,      123,      116,      164,      171,      122,      115
      88,      166,      173,      124,      117,      165,      172,      123,      116
      89,      167,      174,      125,      118,      166,      173,      124,      117
      90,      126,      175,      174,      125,      119,      168,      167,      118
      91,      170,      177,      128,      121,      169,      176,      127,      120
      92,      171,      178,      129,      122,      170,      177,      128,      121
      93,      172,      179,      130,      123,      171,      178,      129,      122
      94,      173,      180,      131,      124,      172,      179,      130,      123
      95,      174,      181,      132,      125,      173,      180,      131,      124
      96,      133,      182,      181,      132,      126,      175,      174,      125
      97,      177,      184,      135,      128,      176,      183,      134,      127
      98,      178,      185,      136,      129,      177,      184,      135,      128
      99,      179,      186,      137,      130,      178,      185,      136,      129
     100,      180,      187,      138,      131,      179,      186,      137,      130
     101,      181,      188,      139,      132,      180,      187,      138,      131
     102,      140,      189,      188,      139,      133,      182,      181,      132
     103,      184,      191,      142,      135,      183,      190,      141,      134
     104,      185,      192,      143,      136,      184,      191,      142,      135
     105,      186,      193,      144,      137,      185,      192,      143,      136
     106,      187,      194,      145,      138,      186,      193,      144,      137
     107,      188,      195,      146,      139,      187,      194,      145,      138
     108,      195,      196,      189,      188,      146,      147,      140,      139
     109,      198,      205,      156,      149,      197,      204,      155,      148
     110,      199,      206,      157,      150,      198,      205,      156,      149
     111,      200,      207,      158,      151,      199,      206,      157,      150
     112,      201,      208,      159,      152,      200,      207,      158,      151
     113,      202,      209,      160,      153,      201,      208,      159,      152
     114,      161,      210,      209,      160,      154,      203,      202,      153
     115,      205,      212,      163,      156,      204,      211,      162,      155
     116,      206,      213,      164,      157,      205,      212,      163,      156
     117,      207,      214,      165,      158,      206,      213,      164,      157
     118,      208,      215,      166,      159,      207,      214,      165,      158
     119,      209,      216,      167,      160,      208,      215,      166,      159
     120,      168,      217,      216,      167,      161,      210,      209,      160
     121,      212,      219,      170,      163,      211,      218,      169,      162
     122,      213,      220,      171,      164,      212,      219,      170,      163
     123,      214,      221,      172,      165,      213,      220,      171,      164
     124,      215,      222,      173,      166,      214,      221,      172,      165
     125,      216,      223,      174,      167,      215,      222,      173,      166
     126,      175,      224,      223,      174,      168,      217,      216,      167
     127,      219,      226,      177,      170,      218,      225,      176,      169
     128,      220,      227,      178,      171,      219,      226,      177,      170
     129,      221,      228,      179,      172,      220,      227,      178,      171
     130,      222,      229,      180,      173,      221,      228,      179,      172
     131,      223,      230,      181,      174,      222,      229,      180,      173
     132,      182,      231,      230,      181,      175,      224,      223,      174
     133,      226,      233,      184,      177,      225,      232,      183,      176
     134,      227,      234,      185,      178,      226,      233,      184,      177
     135,      228,      235,      186,      179,      227,      234,      185,      178
     136,      229,      236,      187,      180,      228,      235,      186,      179
     137,      230,      237,      188,      181,      229,      236,      187,      180
     138,      189,      238,      237,      188,      182,      231,      230,      181
     139,      233,      240,      191,      184,      232,      239,      190,      183
     140,      234,      241,      192,      185,      233,      240,      191,      184
     141,      235,      242,      193,      186,      234,      241,      192,      185
     142,      236,      243,      194,      187,      235,      242,      193,      186
     143,      237,      244,      195,      188,      236,      243,      194,      187
     144,      244,      245,      238,      237,      195,      196,      189,      188
     145,      247,      254,      205,      198,      246,      253,      204,      197
     146,      248,      255,      206,      199,      247,      254,      205,      198
     147,      249,      256,      207,      200,      248,      255,      206,      199
     148,      250,      257,      208,      201,      249,      256,      207,      200
     149,      251,      258,      209,      202,      250,      257,      208,      201
     150,      210,      259,      258,      209,      203,      252,      251,      202
     151,      254,      261,      212,      205,      253,      260,      211,      204
     152,      255,      262,      213,      206,      254,      261,      212,      205
     153,      256,      263,      214,      207,      255,      262,      213,      206
     154,      257,      264,      215,      208,      256,      263,      214,      207
     155,      258,      265,      216,      209,      257,      264,      215,      208
     156,      217,      266,      265,      216,      210,      259,      258,      209
     157,      261,      268,      219,      212,      260,      267,      218,      211
     158,      262,      269,      220,      213,      261,      268,      219,      212
     159,      263,      270,      221,      214,      262,      269,      220,      213
     160,      264,      271,      222,      215,      263,      270,      221,      214
     161,      265,      272,      223,      216,      264,      271,      222,      215
     162,      224,      273,      272,      223,      217,      266,      265,      216
     163,      268,      275,      226,      219,      267,      274,      225,      218
     164,      269,      276,      227,      220,      268,      275,      226,      219
     165,      270,      277,      228,      221,      269,      276,      227,      220
     166,      271,      278,      229,      222,      270,      277,      228,      221
     167,      272,      279,      230,      223,      271,      278,      229,      222
     168,      231,      280,      279,      230,      224,      273,      272,      223
     169,      275,      282,      233,      226,      274,      281,      232,      225
     170,      276,      283,      234,      227,      275,      282,      233,      226
     171,      277,      284,      235,      228,      276,      283,      234,      227
     172,      278,      285,      236,      229,      277,      284,      235,      228
     173,      279,      286,      237,      230,      278,      285,      236,      229
     174,      238,      287,      286,      237,      231,      280,      279,      230
     175,      282,      289,      240,      233,      281,      288,      239,      232
     176,      283,      290,      241,      234,      282,      289,      240,      233
     177,      284,      291,      242,      235,      283,      290,      241,      234
     178,      285,      292,      243,      236,      284,      291,      242,      235
     179,      286,      293,      244,      237,      285,      292,      243,      236
     180,      293,      294,      287,      286,      244,      245,      238,      237
     181,      296,      303,      254,      247,      295,      302,      253,      246
     182,      297,      304,      255,      248,      296,      303,      254,      247
     183,      298,      305,      256,      249,      297,      304,      255,      248
     184,      299,      306,      257,      250,      298,      305,      256,      249
     185,      300,      307,      258,      251,      299,      306,      257,      250
     186,      259,      308,      307,      258,      252,      301,      300,      251
     187,      303,      310,      261,      254,      302,      309,      260,      253
     188,      304,      311,      262,      255,      303,      310,      261,      254
     189,      305,      312,      263,      256,      304,      311,      262,      255
     190,      306,      313,      264,      257,      305,      312,      263,      256
     191,      307,      314,      265,      258,      306,      313,      264,      257
     192,      266,      315,      314,      265,      259,      308,      307,      258
     193,      310,      317,      268,      261,      309,      316,      267,      260
     194,      311,      318,      269,      262,      310,      317,      268,      261
     195,      312,      319,      270,      263,      311,      318,      269,      262
     196,      313,      320,      271,      264,      312,      319,      270,      263
     197,      314,      321,      272,      265,      313,      320,      271,      264
     198,      273,      322,      321,      272,      266,      315,      314,      265
     199,      317,      324,      275,      268,      316,      323,      274,      267
     200,      318,      325,      276,      269,      317,      324,      275,      268
     201,      319,      326,      277,      270,      318,      325,      276,      269
     202,      320,      327,      278,      271,      319,      326,      277,      270
     203,      321,      328,      279,      272,      320,      327,      278,      271
     204,      280,      329,      328,      279,      273,      322,      321,      272
     205,      324,      331,      282,      275,      323,      330,      281,      274
     206,      325,      332,      283,      276,      324,      331,      282,      275
     207,      326,      333,      284,      277,      325,      332,      283,      276
     208,      327,      334,      285,      278,      326,      333,      284,      277
     209,      328,      335,      286,      279,      327,      334,      285,      278
     210,      287,      336,      335,      286,      280,      329,      328,      279
     211,      331,      338,      289,      282,      330,      337,      288,      281
     212,      332,      339,      290,      283,      331,      338,      289,      282
     213,      333,      340,      291,      284,      332,      339,      290,      283
     214,      334,      341,      292,      285,      333,      340,      291,      284
     215,      335,      342,      293,      286,      334,      341,      292,      285
     216,      342,      343,      336,      335,      293,      294,      287,      286
     217,      345,      352,      303,      296,      344,      351,      302,      295
     218,      346,      353,      304,      297,      345,      352,      303,      296
     219,      347,      354,      305,      298,      346,      353,      304,      297
     220,      348,      355,      306,      299,      347,      354,      305,      298
     221,      349,      356,      307,      300,      348,      355,      306,      299
     222,      308,      357,      356,      307,      301,      350,      349,      300
     223,      352,      359,      310,      303,      351,      358,      309,      302
     224,      353,      360,      311,      304,      352,      359,      310,      303
     225,      354,      361,      312,      305,      353,      360,      311,      304
     226,      355,      362,      313,      306,      354,      361,      312,      305
     227,      356,      363,      314,      307,      355,      362,      313,      306
     228,      315,      364,      363,      314,      308,      357,      356,      307
     229,      359,      366,      317,      310,      358,      365,      316,      309
     230,      360,      367,      318,      311,      359,      366,      317,      310
     231,      361,      368,      319,      312,      360,      367,      318,      311
     232,      362,      369,      320,      313,      361,      368,      319,      312
     233,      363,      370,      321,      314,      362,      369,      320,      313
     234,      322,      371,      370,      321,      315,      364,      363,      314
     235,      366,      373,      324,      317,      365,      372,      323,      316
     236,      367,      374,      325,      318,      366,      373,      324,      317
     237,      368,      375,      326,      319,      367,      374,      325,      318
     238,      369,      376,      327,      320,      368,      375,      326,      319
     239,      370,      377,      328,      321,      369,      376,      327,      320
     240,      329,      378,      377,      328,      322,      371,      370,      321
     241,      373,      380,      331,      324,      372,      379,      330,      323
     242,      374,      381,      332,      325,      373,      380,      331,      324
     243,      375,      382,      333,      326,      374,      381,      332,      325
     244,      376,      383,      334,      327,      375,      382,      333,      326
     245,      377,      384,      335,      328,      376,      383,      334,      327
     246,      336,      385,      384,      335,      329,      378,      377,      328
     247,      380,      387,      338,      331,      379,      386,      337,      330
     248,      381,      388,      339,      332,      380,      387,      338,      331
     249,      382,      389,      340,      333,      381,      388,      339,      332
     250,      383,      390,      341,      334,      382,      389,      340,      333
     251,      384,      391,      342,      335,      383,      390,      341,      334
     252,      391,      392,      385,      384,      342,      343,      336,      335
     253,      394,      401,      352,      345,      393,      400,      351,      344
     254,      395,      402,      353,      346,      394,      401,      352,      345
     255,      396,      403,      354,      347,      395,      402,      353,      346
     256,      397,      404,      355,      348,      396,      403,      354,      347
     257,      398,      405,      356,      349,      397,      404,      355,      348
     258,      357,      406,      405,      356,      350,      399,      398,      349
     259,      401,      408,      359,      352,      400,      407,      358,      351
     260,      402,      409,      360,      353,      401,      408,      359,      352
     261,      403,      410,      361,      354,      402,      409,      360,      353
     262,      404,      411,      362,      355,      403,      410,      361,      354
     263,      405,      412,      363,      356,      404,      411,      362,      355
     264,      364,      413,      412,      363,      357,      406,      405,      356
     265,      408,      415,      366,      359,      407,      414,      365,      358
     266,      409,      416,      367,      360,      408,      415,      366,      359
     267,      410,      417,      368,      361,      409,      416,      367,      360
     268,      411,      418,      369,      362,      410,      417,      368,      361
     269,      412,      419,      370,      363,      411,      418,      369,      362
     270,      371,      420,      419,      370,      364,      413,      412,      363
     271,      415,      422,      373,      366,      414,      421,      372,      365
     272,      416,      423,      374,      367,      415,      422,      373,      366
     273,      417,      424,      375,      368,      416,      423,      374,      367
     274,      418,      425,      376,      369,      417,      424,      375,      368
     275,      419,      426,      377,      370,      418,      425,      376,      369
     276,      378,      427,      426,      377,      371,      420,      419,      370
     277,      422,      429,      380,      373,      421,      428,      379,      372
     278,      423,      430,      381,      374,      422,      429,      380,      373
     279,      424,      431,      382,      375,      423,      430,      381,      374
     280,      425,      432,      383,      376,      424,      431,      382,      375
     281,      426,      433,      384,      377,      425,      432,      383,      376
     282,      385,      434,      433,      384,      378,      427,      426,      377
     283,      429,      436,      387,      380,      428,      435,      386,      379
     284,      430,      437,      388,      381,      429,      436,      387,      380
     285,      431,      438,      389,      382,      430,      437,      388,      381
     286,      432,      439,      390,      383,      431,      438,      389,      382
     287,      433,      440,      391,      384,      432,      439,      390,      383
     288,      440,      441,      434,      433,      391,      392,      385,      384
     289,      443,      450,      401,      394,      442,      449,      400,      393
     290,      444,      451,      402,      395,      443,      450,      401,      394
     291,      445,      452,      403,      396,      444,      451,      402,      395
     292,      446,      453,      404,      397,      445,      452,      403,      396
     293,      447,      454,      405,      398,      446,      453,      404,      397
     294,      406,      455,      454,      405,      399,      448,      447,      398
     295,      450,      457,      408,      401,      449,      456,      407,      400
     296,      451,      458,      409,      402,      450,      457,      408,      401
     297,      452,      459,      410,      403,      451,      458,      409,      402
     298,      453,      460,      411,      404,      452,      459,      410,      403
     299,      454,      461,      412,      405,      453,      460,      411,      404
     300,      413,      462,      461,      412,      406,      455,      454,      405
     301,      457,      464,      415,      408,      456,      463,      414,      407
     302,      458,      465,      416,      409,      457,      464,      415,      408
     303,      459,      466,      417,      410,      458,      465,      416,      409
     304,      460,      467,      418,      411,      459,      466,      417,      410
     305,      461,      468,      419,      412,      460,      467,      418,      411
     306,      420,      469,      468,      419,      413,      462,      461,      412
     307,      464,      471,      422,      415,      463,      470,      421,      414
     308,      465,      472,      423,      416,      464,      471,      422,      415
     309,      466,      473,      424,      417,      465,      472,      423,      416
     310,      467,      474,      425,      418,      466,      473,      424,      417
     311,      468,      475,      426,      419,      467,      474,      425,      418
     312,      427,      476,      475,      426,      420,      469,      468,      419
     313,      471,      478,      429,      422,      470,      477,      428,      421
     314,      472,      479,      430,      423,      471,      478,      429,      422
     315,      473,      480,      431,      424,      472,      479,      430,      423
     316,      474,      481,      432,      425,      473,      480,      431,      424
     317,      475,      482,      433,      426,      474,      481,      432,      425
     318,      434,      483,      482,      433,      427,      476,      475,      426
     319,      478,      485,      436,      429,      477,      484,      435,      428
     320,      479,      486,      437,      430,      478,      485,      436,      429
     321,      480,      487,      438,      431,      479,      486,      437,      430
     322,      481,      488,      439,      432,      480,      487,      438,      431
     323,      482,      489,      440,      433,      481,      488,      439,      432
     324,      489,      490,      483,      482,      440,      441,      434,      433
     325,      492,      499,      450,      443,      491,      498,      449,      442
     326,      493,      500,      451,      444,      492,      499,      450,      443
     327,      494,      501,      452,      445,      493,      500,      451,      444
     328,      495,      502,      453,      446,      494,      501,      452,      445
     329,      496,      503,      454,      447,      495,      502,      453,      446
     330,      455,      504,      503,      454,      448,      497,      496,      447
     331,      499,      506,      457,      450,      498,      505,      456,      449
     332,      500,      507,      458,      451,      499,      506,      457,      450
     333,      501,      508,      459,      452,      500,      507,      458,      451
     334,      502,      509,      460,      453,      501,      508,      459,      452
     335,      503,      510,      461,      454,      502,      509,      460,      453
     336,      462,      511,      510,      461,      455,      504,      503,      454
     337,      506,      513,      464,      457,      505,      512,      463,      456
     338,      507,      514,      465,      458,      506,      513,      464,      457
     339,      508,      515,      466,      459,      507,      514,      465,      458
     340,      509,      516,      467,      460,      508,      515,      466,      459
     341,      510,      517,      468,      461,      509,      516,      467,      460
     342,      469,      518,      517,      468,      462,      511,      510,      461
     343,      513,      520,      471,      464,      512,      519,      470,      463
     344,      514,      521,      472,      465,      513,      520,      471,      464
     345,      515,      522,      473,      466,      514,      521,      472,      465
     346,      516,      523,      474,      467,      515,      522,      473,      466
     347,      517,      524,      475,      468,      516,      523,      474,      467
     348,      476,      525,      524,      475,      469,      518,      517,      468
     349,      520,      527,      478,      471,      519,      526,      477,      470
     350,      521,      528,      479,      472,      520,      527,      478,      471
     351,      522,      529,      480,      473,      521,      528,      479,      472
     352,      523,      530,      481,      474,      522,      529,      480,      473
     353,      524,      531,      482,      475,      523,      530,      481,      474
     354,      483,      532,      531,      482,      476,      525,      524,      475
     355,      527,      534,      485,      478,      526,      533,      484,      477
     356,      528,      535,      486,      479,      527,      534,      485,      478
     357,      529,      536,      487,      480,      528,      535,      486,      479
     358,      530,      537,      488,      481,      529,      536,      487,      480
     359,      531,      538,      489,      482,      530,      537,      488,      481
     360,      532,      539,      490,      483,      531,      538,      489,      482
     361,      582,      588,      546,      540,       92,       85,       36,       43
     362,      583,      589,      547,      541,      582,      588,      546,      540
     363,      584,      590,      548,      542,      583,      589,      547,      541
     364,      585,      591,      549,      543,      584,      590,      548,      542
     365,      586,      592,      550,      544,      585,      591,      549,      543
     366,      551,      593,      592,      550,      545,      587,      586,      544
     367,      588,      594,      552,      546,       85,       78,       29,       36
     368,      589,      595,      553,      547,      588,      594,      552,      546
     369,      590,      596,      554,      548,      589,      595,      553,      547
     370,      591,      597,      555,      549,      590,      596,      554,      548
     371,      592,      598,      556,      550,      591,      597,      555,      549
     372,      557,      599,      598,      556,      551,      593,      592,      550
     373,      594,      600,      558,      552,       78,       71,       22,       29
     374,      595,      601,      559,      553,      594,      600,      558,      552
     375,      596,      602,      560,      554,      595,      601,      559,      553
     376,      597,      603,      561,      555,      596,      602,      560,      554
     377,      598,      604,      562,      556,      597,      603,      561,      555
     378,      563,      605,      604,      562,      557,      599,      598,      556
     379,      600,      606,      564,      558,       71,       64,       15,       22
     380,      601,      607,      565,      559,      600,      606,      564,      558
     381,      602,      608,      566,      560,      601,      607,      565,      559
     382,      603,      609,      567,      561,      602,      608,      566,      560
     383,      604,      610,      568,      562,      603,      609,      567,      561
     384,      569,      611,      610,      568,      563,      605,      604,      562
     385,      606,      612,      570,      564,       64,       57,        8,       15
     386,      607,      613,      571,      565,      606,      612,      570,      564
     387,      608,      614,      572,      566,      607,      613,      571,      565
     388,      609,      615,      573,      567,      608,      614,      572,      566
     389,      610,      616,      574,      568,      609,      615,      573,      567
     390,      575,      617,      616,      574,      569,      611,      610,      568
     391,      612,      618,      576,      570,       57,       50,        1,        8
     392,      613,      619,      577,      571,      612,      618,      576,      570
     393,      614,      620,      578,      572,      613,      619,      577,      571
     394,      615,      621,      579,      573,      614,      620,      578,      572
     395,      616,      622,      580,      574,      615,      621,      579,      573
     396,      622,      623,      617,      616,      580,      581,      575,      574
     397,      624,      630,      588,      582,      141,      134,       85,       92
     398,      625,      631,      589,      583,      624,      630,      588,      582
     399,      626,      632,      590,      584,      625,      631,      589,      583
     400,      627,      633,      591,      585,      626,      632,      590,      584
     401,      628,      634,      592,      586,      627,      633,      591,      585
     402,      593,      635,      634,      592,      587,      629,      628,      586
     403,      630,      636,      594,      588,      134,      127,       78,       85
     404,      631,      637,      595,      589,      630,      636,      594,      588
     405,      632,      638,      596,      590,      631,      637,      595,      589
     406,      633,      639,      597,      591,      632,      638,      596,      590
     407,      634,      640,      598,      592,      633,      639,      597,      591
     408,      599,      641,      640,      598,      593,      635,      634,      592
     409,      636,      642,      600,      594,      127,      120,       71,       78
     410,      637,      643,      601,      595,      636,      642,      600,      594
     411,      638,      644,      602,      596,      637,      643,      601,      595
     412,      639,      645,      603,      597,      638,      644,      602,      596
     413,      640,      646,      604,      598,      639,      645,      603,      597
     414,      605,      647,      646,      604,      599,      641,      640,      598
     415,      642,      648,      606,      600,      120,      113,       64,       71
     416,      643,      649,      607,      601,      642,      648,      606,      600
     417,      644,      650,      608,      602,      643,      649,      607,      601
     418,      645,      651,      609,      603,      644,      650,      608,      602
     419,      646,      652,      610,      604,      645,      651,      609,      603
     420,      611,      653,      652,      610,      605,      647,      646,      604
     421,      648,      654,      612,      606,      113,      106,       57,       64
     422,      649,      655,      613,      607,      648,      654,      612,      606
     423,      650,      656,      614,      608,      649,      655,      613,      607
     424,      651,      657,      615,      609,      650,      656,      614,      608
     425,      652,      658,      616,      610,      651,      657,      615,      609
     426,      617,      659,      658,      616,      611,      653,      652,      610
     427,      654,      660,      618,      612,      106,       99,       50,       57
     428,      655,      661,      619,      613,      654,      660,      618,      612
     429,      656,      662,      620,      614,      655,      661,      619,      613
     430,      657,      663,      621,      615,      656,      662,      620,      614
     431,      658,      664,      622,      616,      657,      663,      621,      615
     432,      664,      665,      659,      658,      622,      623,      617,      616
     433,      666,      672,      630,      624,      190,      183,      134,      141
     434,      667,      673,      631,      625,      666,      672,      630,      624
     435,      668,      674,      632,      626,      667,      673,      631,      625
     436,      669,      675,      633,      627,      668,      674,      632,      626
     437,      670,      676,      634,      628,      669,      675,      633,      627
     438,      635,      677,      676,      634,      629,      671,      670,      628
     439,      672,      678,      636,      630,      183,      176,      127,      134
     440,      673,      679,      637,      631,      672,      678,      636,      630
     441,      674,      680,      638,      632,      673,      679,      637,      631
     442,      675,      681,      639,      633,      674,      680,      638,      632
     443,      676,      682,      640,      634,      675,      681,      639,      633
     444,      641,      683,      682,      640,      635,      677,      676,      634
     445,      678,      684,      642,      636,      176,      169,      120,      127
     446,      679,      685,      643,      637,      678,      684,      642,      636
     447,      680,      686,      644,      638,      679,      685,      643,      637
     448,      681,      687,      645,      639,      680,      686,      644,      638
     449,      682,      688,      646,      640,      681,      687,      645,      639
     450,      647,      689,      688,      646,      641,      683,      682,      640
     451,      684,      690,      648,      642,      169,      162,      113,      120
     452,      685,      691,      649,      643,      684,      690,      648,      642
     453,      686,      692,      650,      644,      685,      691,      649,      643
     454,      687,      693,      651,      645,      686,      692,      650,      644
     455,      688,      694,      652,      646,      687,      693,      651,      645
     456,      653,      695,      694,      652,      647,      689,      688,      646
     457,      690,      696,      654,      648,      162,      155,      106,      113
     458,      691,      697,      655,      649,      690,      696,      654,      648
     459,      692,      698,      656,      650,      691,      697,      655,      649
     460,      693,      699,      657,      651,      692,      698,      656,      650
     461,      694,      700,      658,      652,      693,      699,      657,      651
     462,      659,      701,      700,      658,      653,      695,      694,      652
     463,      696,      702,      660,      654,      155,      148,       99,      106
     464,      697,      703,      661,      655,      696,      702,      660,      654
     465,      698,      704,      662,      656,      697,      703,      661,      655
     466,      699,      705,      663,      657,      698,      704,      662,      656
     467,      700,      706,      664,      658,      699,      705,      663,      657
     468,      706,      707,      701,      700,      664,      665,      659,      658
     469,      708,      714,      672,      666,      239,      232,      183,      190
     470,      709,      715,      673,      667,      708,      714,      672,      666
     471,      710,      716,      674,      668,      709,      715,      673,      667
     472,      711,      717,      675,      669,      710,      716,      674,      668
     473,      712,      718,      676,      670,      711,      717,      675,      669
     474,      677,      719,      718,      676,      671,      713,      712,      670
     475,      714,      720,      678,      672,      232,      225,      176,      183
     476,      715,      721,      679,      673,      714,      720,      678,      672
     477,      716,      722,      680,      674,      715,      721,      679,      673
     478,      717,      723,      681,      675,      716,      722,      680,      674
     479,      718,      724,      682,      676,      717,      723,      681,      675
     480,      683,      725,      724,      682,      677,      719,      718,      676
     481,      720,      726,      684,      678,      225,      218,      169,      176
     482,      721,      727,      685,      679,      720,      726,      684,      678
     483,      722,      728,      686,      680,      721,      727,      685,      679
     484,      723,      729,      687,      681,      722,      728,      686,      680
     485,      724,      730,      688,      682,      723,      729,      687,      681
     486,      689,      731,      730,      688,      683,      725,      724,      682
     487,      726,      732,      690,      684,      218,      211,      162,      169
     488,      727,      733,      691,      685,      726,      732,      690,      684
     489,      728,      734,      692,      686,      727,      733,      691,      685
     490,      729,      735,      693,      687,      728,      734,      692,      686
     491,      730,      736,      694,      688,      729,      735,      693,      687
     492,      695,      737,      736,      694,      689,      731,      730,      688
     493,      732,      738,      696,      690,      211,      204,      155,      162
     494,      733,      739,      697,      691,      732,      738,      696,      690
     495,      734,      740,      698,      692,      733,      739,      697,      691
     496,      735,      741,      699,      693,      734,      740,      698,      692
     497,      736,      742,      700,      694,      735,      741,      699,      693
     498,      701,      743,      742,      700,      695,      737,      736,      694
     499,      738,      744,      702,      696,      204,      197,      148,      155
     500,      739,      745,      703,      697,      738,      744,      702,      696
     501,      740,      746,      704,      698,      739,      745,      703,      697
     502,      741,      747,      705,      699,      740,      746,      704,      698
     503,      742,      748,      706,      700,      741,      747,      705,      699
     504,      748,      749,      743,      742,      706,      707,      701,      700
     505,      750,      756,      714,      708,      288,      281,      232,      239
     506,      751,      757,      715,      709,      750,      756,      714,      708
     507,      752,      758,      716,      710,      751,      757,      715,      709
     508,      753,      759,      717,      711,      752,      758,      716,      710
     509,      754,      760,      718,      712,      753,      759,      717,      711
     510,      719,      761,      760,      718,      713,      755,      754,      712
     511,      756,      762,      720,      714,      281,      274,      225,      232
     512,      757,      763,      721,      715,      756,      762,      720,      714
     513,      758,      764,      722,      716,      757,      763,      721,      715
     514,      759,      765,      723,      717,      758,      764,      722,      716
     515,      760,      766,      724,      718,      759,      765,      723,      717
     516,      725,      767,      766,      724,      719,      761,      760,      718
     517,      762,      768,      726,      720,      274,      267,      218,      225
     518,      763,      769,      727,      721,      762,      768,      726,      720
     519,      764,      770,      728,      722,      763,      769,      727,      721
     520,      765,      771,      729,      723,      764,      770,      728,      722
     521,      766,      772,      730,      724,      765,      771,      729,      723
     522,      731,      773,      772,      730,      725,      767,      766,      724
     523,      768,      774,      732,      726,      267,      260,      211,      218
     524,      769,      775,      733,      727,      768,      774,      732,      726
     525,      770,      776,      734,      728,      769,      775,      733,      727
     526,      771,      777,      735,      729,      770,      776,      734,      728
     527,      772,      778,      736,      730,      771,      777,      735,      729
     528,      737,      779,      778,      736,      731,      773,      772,      730
     529,      774,      780,      738,      732,      260,      253,      204,      211
     530,      775,      781,      739,      733,      774,      780,      738,      732
     531,      776,      782,      740,      734,      775,      781,      739,      733
     532,      777,      783,      741,      735,      776,      782,      740,      734
     533,      778,      784,      742,      736,      777,      783,      741,      735
     534,      743,      785,      784,      742,      737,      779,      778,      736
     535,      780,      786,      744,      738,      253,      246,      197,      204
     536,      781,      787,      745,      739,      780,      786,      744,      738
     537,      782,      788,      746,      740,      781,      787,      745,      739
     538,      783,      789,      747,      741,      782,      788,      746,      740
     539,      784,      790,      748,      742,      783,      789,      747,      741
     540,      790,      791,      785,      784,      748,      749,      743,      742
     541,      792,      798,      756,      750,      337,      330,      281,      288
     542,      793,      799,      757,      751,      792,      798,      756,      750
     543,      794,      800,      758,      752,      793,      799,      757,      751
     544,      795,      801,      759,      753,      794,      800,      758,      752
     545,      796,      802,      760,      754,      795,      801,      759,      753
     546,      761,      803,      802,      760,      755,      797,      796,      754
     547,      798,      804,      762,      756,      330,      323,      274,      281
     548,      799,      805,      763,      757,      798,      804,      762,      756
     549,      800,      806,      764,      758,      799,      805,      763,      757
     550,      801,      807,      765,      759,      800,      806,      764,      758
     551,      802,      808,      766,      760,      801,      807,      765,      759
     552,      767,      809,      808,      766,      761,      803,      802,      760
     553,      804,      810,      768,      762,      323,      316,      267,      274
     554,      805,      811,      769,      763,      804,      810,      768,      762
     555,      806,      812,      770,      764,      805,      811,      769,      763
     556,      807,      813,      771,      765,      806,      812,      770,      764
     557,      808,      814,      772,      766,      807,      813,      771,      765
     558,      773,      815,      814,      772,      767,      809,      808,      766
     559,      810,      816,      774,      768,      316,      309,      260,      267
     560,      811,      817,      775,      769,      810,      816,      774,      768
     561,      812,      818,      776,      770,      811,      817,      775,      769
     562,      813,      819,      777,      771,      812,      818,      776,      770
     563,      814,      820,      778,      772,      813,      819,      777,      771
     564,      779,      821,      820,      778,      773,      815,      814,      772
     565,      816,      822,      780,      774,      309,      302,      253,      260
     566,      817,      823,      781,      775,      816,      822,      780,      774
     567,      818,      824,      782,      776,      817,      823,      781,      775
     568,      819,      825,      783,      777,      818,      824,      782,      776
     569,      820,      826,      784,      778,      819,      825,      783,      777
     570,      785,      827,      826,      784,      779,      821,      820,      778
     571,      822,      828,      786,      780,      302,      295,      246,      253
     572,      823,      829,      787,      781,      822,      828,      786,      780
     573,      824,      830,      788,      782,      823,      829,      787,      781
     574,      825,      831,      789,      783,      824,      830,      788,      782
     575,      826,      832,      790,      784,      825,      831,      789,      783
     576,      832,      833,      827,      826,      790,      791,      785,      784
     577,      834,      840,      798,      792,      386,      379,      330,      337
     578,      835,      841,      799,      793,      834,      840,      798,      792
     579,      836,      842,      800,      794,      835,      841,      799,      793
     580,      837,      843,      801,      795,      836,      842,      800,      794
     581,      838,      844,      802,      796,      837,      843,      801,      795
     582,      803,      845,      844,      802,      797,      839,      838,      796
     583,      840,      846,      804,      798,      379,      372,      323,      330
     584,      841,      847,      805,      799,      840,      846,      804,      798
     585,      842,      848,      806,      800,      841,      847,      805,      799
     586,      843,      849,      807,      801,      842,      848,      806,      800
     587,      844,      850,      808,      802,      843,      849,      807,      801
     588,      809,      851,      850,      808,      803,      845,      844,      802
     589,      846,      852,      810,      804,      372,      365,      316,      323
     590,      847,      853,      811,      805,      846,      852,      810,      804
     591,      848,      854,      812,      806,      847,      853,      811,      805
     592,      849,      855,      813,      807,      848,      854,      812,      806
     593,      850,      856,      814,      808,      849,      855,      813,      807
     594,      815,      857,      856,      814,      809,      851,      850,      808
     595,      852,      858,      816,      810,      365,      358,      309,      316
     596,      853,      859,      817,      811,      852,      858,      816,      810
     597,      854,      860,      818,      812,      853,      859,      817,      811
     598,      855,      861,      819,      813,      854,      860,      818,      812
     599,      856,      862,      820,      814,      855,      861,      819,      813
     600,      821,      863,      862,      820,      815,      857,      856,      814
     601,      858,      864,      822,      816,      358,      351,      302,      309
     602,      859,      865,      823,      817,      858,      864,      822,      816
     603,      860,      866,      824,      818,      859,      865,      823,      817
     604,      861,      867,      825,      819,      860,      866,      824,      818
     605,      862,      868,      826,      820,      861,      867,      825,      819
     606,      827,      869,      868,      826,      821,      863,      862,      820
     607,      864,      870,      828,      822,      351,      344,      295,      302
     608,      865,      871,      829,      823,      864,      870,      828,      822
     609,      866,      872,      830,      824,      865,      871,      829,      823
     610,      867,      873,      831,      825,      866,      872,      830,      824
     611,      868,      874,      832,      826,      867,      873,      831,      825
     612,      874,      875,      869,      868,      832,      833,      827,      826
     613,      876,      882,      840,      834,      435,      428,      379,      386
     614,      877,      883,      841,      835,      876,      882,      840,      834
     615,      878,      884,      842,      836,      877,      883,      841,      835
     616,      879,      885,      843,      837,      878,      884,      842,      836
     617,      880,      886,      844,      838,      879,      885,      843,      837
     618,      845,      887,      886,      844,      839,      881,      880,      838
     619,      882,      888,      846,      840,      428,      421,      372,      379
     620,      883,      889,      847,      841,      882,      888,      846,      840
     621,      884,      890,      848,      842,      883,      889,      847,      841
     622,      885,      891,      849,      843,      884,      890,      848,      842
     623,      886,      892,      850,      844,      885,      891,      849,      843
     624,      851,      893,      892,      850,      845,      887,      886,      844
     625,      888,      894,      852,      846,      421,      414,      365,      372
     626,      889,      895,      853,      847,      888,      894,      852,      846
     627,      890,      896,      854,      848,      889,      895,      853,      847
     628,      891,      897,      855,      849,      890,      896,      854,      848
     629,      892,      898,      856,      850,      891,      897,      855,      849
     630,      857,      899,      898,      856,      851,      893,      892,      850
     631,      894,      900,      858,      852,      414,      407,      358,      365
     632,      895,      901,      859,      853,      894,      900,      858,      852
     633,      896,      902,      860,      854,      895,      901,      859,      853
     634,      897,      903,      861,      855,      896,      902,      860,      854
     635,      898,      904,      862,      856,      897,      903,      861,      855
     636,      863,      905,      904,      862,      857,      899,      898,      856
     637,      900,      906,      864,      858,      407,      400,      351,      358
     638,      901,      907,      865,      859,      900,      906,      864,      858
     639,      902,      908,      866,      860,      901,      907,      865,      859
     640,      903,      909,      867,      861,      902,      908,      866,      860
     641,      904,      910,      868,      862,      903,      909,      867,      861
     642,      869,      911,      910,      868,      863,      905,      904,      862
     643,      906,      912,      870,      864,      400,      393,      344,      351
     644,      907,      913,      871,      865,      906,      912,      870,      864
     645,      908,      914,      872,      866,      907,      913,      871,      865
     646,      909,      915,      873,      867,      908,      914,      872,      866
     647,      910,      916,      874,      868,      909,      915,      873,      867
     648,      916,      917,      911,      910,      874,      875,      869,      868
     649,      918,      924,      882,      876,      484,      477,      428,      435
     650,      919,      925,      883,      877,      918,      924,      882,      876
     651,      920,      926,      884,      878,      919,      925,      883,      877
     652,      921,      927,      885,      879,      920,      926,      884,      878
     653,      922,      928,      886,      880,      921,      927,      885,      879
     654,      887,      929,      928,      886,      881,      923,      922,      880
     655,      924,      930,      888,      882,      477,      470,      421,      428
     656,      925,      931,      889,      883,      924,      930,      888,      882
     657,      926,      932,      890,      884,      925,      931,      889,      883
     658,      927,      933,      891,      885,      926,      932,      890,      884
     659,      928,      934,      892,      886,      927,      933,      891,      885
     660,      893,      935,      934,      892,      887,      929,      928,      886
     661,      930,      936,      894,      888,      470,      463,      414,      421
     662,      931,      937,      895,      889,      930,      936,      894,      888
     663,      932,      938,      896,      890,      931,      937,      895,      889
     664,      933,      939,      897,      891,      932,      938,      896,      890
     665,      934,      940,      898,      892,      933,      939,      897,      891
     666,      899,      941,      940,      898,      893,      935,      934,      892
     667,      936,      942,      900,      894,      463,      456,      407,      414
     668,      937,      943,      901,      895,      936,      942,      900,      894
     669,      938,      944,      902,      896,      937,      943,      901,      895
     670,      939,      945,      903,      897,      938,      944,      902,      896
     671,      940,      946,      904,      898,      939,      945,      903,      897
     672,      905,      947,      946,      904,      899,      941,      940,      898
     673,      942,      948,      906,      900,      456,      449,      400,      407
     674,      943,      949,      907,      901,      942,      948,      906,      900
     675,      944,      950,      908,      902,      943,      949,      907,      901
     676,      945,      951,      909,      903,      944,      950,      908,      902
     677,      946,      952,      910,      904,      945,      951,      909,      903
     678,      911,      953,      952,      910,      905,      947,      946,      904
     679,      948,      954,      912,      906,      449,      442,      393,      400
     680,      949,      955,      913,      907,      948,      954,      912,      906
     681,      950,      956,      914,      908,      949,      955,      913,      907
     682,      951,      957,      915,      909,      950,      956,      914,      908
     683,      952,      958,      916,      910,      951,      957,      915,      909
     684,      958,      959,      953,      952,      916,      917,      911,      910
     685,      960,      966,      924,      918,      533,      526,      477,      484
     686,      961,      967,      925,      919,      960,      966,      924,      918
     687,      962,      968,      926,      920,      961,      967,      925,      919
     688,      963,      969,      927,      921,      962,      968,      926,      920
     689,      964,      970,      928,      922,      963,      969,      927,      921
     690,      929,      971,      970,      928,      923,      965,      964,      922
     691,      966,      972,      930,      924,      526,      519,      470,      477
     692,      967,      973,      931,      925,      966,      972,      930,      924
     693,      968,      974,      932,      926,      967,      973,      931,      925
     694,      969,      975,      933,      927,      968,      974,      932,      926
     695,      970,      976,      934,      928,      969,      975,      933,      927
     696,      935,      977,      976,      934,      929,      971,      970,      928
     697,      972,      978,      936,      930,      519,      512,      463,      470
     698,      973,      979,      937,      931,      972,      978,      936,      930
     699,      974,      980,      938,      932,      973,      979,      937,      931
     700,      975,      981,      939,      933,      974,      980,      938,      932
     701,      976,      982,      940,      934,      975,      981,      939,      933
     702,      941,      983,      982,      940,      935,      977,      976,      934
     703,      978,      984,      942,      936,      512,      505,      456,      463
     704,      979,      985,      943,      937,      978,      984,      942,      936
     705,      980,      986,      944,      938,      979,      985,      943,      937
     706,      981,      987,      945,      939,      980,      986,      944,      938
     707,      982,      988,      946,      940,      981,      987,      945,      939
     708,      947,      989,      988,      946,      941,      983,      982,      940
     709,      984,      990,      948,      942,      505,      498,      449,      456
     710,      985,      991,      949,      943,      984,      990,      948,      942
     711,      986,      992,      950,      944,      985,      991,      949,      943
     712,      987,      993,      951,      945,      986,      992,      950,      944
     713,      988,      994,      952,      946,      987,      993,      951,      945
     714,      953,      995,      994,      952,      947,      989,      988,      946
     715,      990,      996,      954,      948,      498,      491,      442,      449
     716,      991,      997,      955,      949,      990,      996,      954,      948
     717,      992,      998,      956,      950,      991,      997,      955,      949
     718,      993,      999,      957,      951,      992,      998,      956,      950
     719,      994,     1000,      958,      952,      993,      999,      957,      951
     720,      959,     1001,     1000,      958,      953,      995,      994,      952
     721,      618,     1038,     1002,      576,       50,       51,        2,        1
     722,      619,     1039,     1003,      577,      618,     1038,     1002,      576
     723,      620,     1040,     1004,      578,      619,     1039,     1003,      577
     724,      621,     1041,     1005,      579,      620,     1040,     1004,      578
     725,      622,     1042,     1006,      580,      621,     1041,     1005,      579
     726,     1007,     1043,     1042,     1006,      581,      623,      622,      580
     727,     1038,     1044,     1008,     1002,       51,       52,        3,        2
     728,     1039,     1045,     1009,     1003,     1038,     1044,     1008,     1002
     729,     1040,     1046,     1010,     1004,     1039,     1045,     1009,     1003
     730,     1041,     1047,     1011,     1005,     1040,     1046,     1010,     1004
     731,     1042,     1048,     1012,     1006,     1041,     1047,     1011,     1005
     732,     1013,     1049,     1048,     1012,     1007,     1043,     1042,     1006
     733,     1044,     1050,     1014,     1008,       52,       53,        4,        3
     734,     1045,     1051,     1015,     1009,     1044,     1050,     1014,     1008
     735,     1046,     1052,     1016,     1010,     1045,     1051,     1015,     1009
     736,     1047,     1053,     1017,     1011,     1046,     1052,     1016,     1010
     737,     1048,     1054,     1018,     1012,     1047,     1053,     1017,     1011
     738,     1019,     1055,     1054,     1018,     1013,     1049,     1048,     1012
     739,     1050,     1056,     1020,     1014,       53,       54,        5,        4
     740,     1051,     1057,     1021,     1015,     1050,     1056,     1020,     1014
     741,     1052,     1058,     1022,     1016,     1051,     1057,     1021,     1015
     742,     1053,     1059,     1023,     1017,     1052,     1058,     1022,     1016
     743,     1054,     1060,     1024,     1018,     1053,     1059,     1023,     1017
     744,     1025,     1061,     1060,     1024,     1019,     1055,     1054,     1018
     745,     1056,     1062,     1026,     1020,       54,       55,        6,        5
     746,     1057,     1063,     1027,     1021,     1056,     1062,     1026,     1020
     747,     1058,     1064,     1028,     1022,     1057,     1063,     1027,     1021
     748,     1059,     1065,     1029,     1023,     1058,     1064,     1028,     1022
     749,     1060,     1066,     1030,     1024,     1059,     1065,     1029,     1023
     750,     1031,     1067,     1066,     1030,     1025,     1061,     1060,     1024
     751,     1062,     1068,     1032,     1026,       55,       56,        7,        6
     752,     1063,     1069,     1033,     1027,     1062,     1068,     1032,     1026
     753,     1064,     1070,     1034,     1028,     1063,     1069,     1033,     1027
     754,     1065,     1071,     1035,     1029,     1064,     1070,     1034,     1028
     755,     1066,     1072,     1036,     1030,     1065,     1071,     1035,     1029
     756,     1072,     1073,     1067,     1066,     1036,     1037,     1031,     1030
     757,      660,     1074,     1038,      618,       99,      100,       51,       50
     758,      661,     1075,     1039,      619,      660,     1074,     1038,      618
     759,      662,     1076,     1040,      620,      661,     1075,     1039,      619
     760,      663,     1077,     1041,      621,      662,     1076,     1040,      620
     761,      664,     1078,     1042,      622,      663,     1077,     1041,      621
     762,     1043,     1079,     1078,     1042,      623,      665,      664,      622
     763,     1074,     1080,     1044,     1038,      100,      101,       52,       51
     764,     1075,     1081,     1045,     1039,     1074,     1080,     1044,     1038
     765,     1076,     1082,     1046,     1040,     1075,     1081,     1045,     1039
     766,     1077,     1083,     1047,     1041,     1076,     1082,     1046,     1040
     767,     1078,     1084,     1048,     1042,     1077,     1083,     1047,     1041
     768,     1049,     1085,     1084,     1048,     1043,     1079,     1078,     1042
     769,     1080,     1086,     1050,     1044,      101,      102,       53,       52
     770,     1081,     1087,     1051,     1045,     1080,     1086,     1050,     1044
     771,     1082,     1088,     1052,     1046,     1081,     1087,     1051,     1045
     772,     1083,     1089,     1053,     1047,     1082,     1088,     1052,     1046
     773,     1084,     1090,     1054,     1048,     1083,     1089,     1053,     1047
     774,     1055,     1091,     1090,     1054,     1049,     1085,     1084,     1048
     775,     1086,     1092,     1056,     1050,      102,      103,       54,       53
     776,     1087,     1093,     1057,     1051,     1086,     1092,     1056,     1050
     777,     1088,     1094,     1058,     1052,     1087,     1093,     1057,     1051
     778,     1089,     1095,     1059,     1053,     1088,     1094,     1058,     1052
     779,     1090,     1096,     1060,     1054,     1089,     1095,     1059,     1053
     780,     1061,     1097,     1096,     1060,     1055,     1091,     1090,     1054
     781,     1092,     1098,     1062,     1056,      103,      104,       55,       54
     782,     1093,     1099,     1063,     1057,     1092,     1098,     1062,     1056
     783,     1094,     1100,     1064,     1058,     1093,     1099,     1063,     1057
     784,     1095,     1101,     1065,     1059,     1094,     1100,     1064,     1058
     785,     1096,     1102,     1066,     1060,     1095,     1101,     1065,     1059
     786,     1067,     1103,     1102,     1066,     1061,     1097,     1096,     1060
     787,     1098,     1104,     1068,     1062,      104,      105,       56,       55
     788,     1099,     1105,     1069,     1063,     1098,     1104,     1068,     1062
     789,     1100,     1106,     1070,     1064,     1099,     1105,     1069,     1063
     790,     1101,     1107,     1071,     1065,     1100,     1106,     1070,     1064
     791,     1102,     1108,     1072,     1066,     1101,     1107,     1071,     1065
     792,     1108,     1109,     1103,     1102,     1072,     1073,     1067,     1066
     793,      702,     1110,     1074,      660,      148,      149,      100,       99
     794,      703,     1111,     1075,      661,      702,     1110,     1074,      660
     795,      704,     1112,     1076,      662,      703,     1111,     1075,      661
     796,      705,     1113,     1077,      663,      704,     1112,     1076,      662
     797,      706,     1114,     1078,      664,      705,     1113,     1077,      663
     798,     1079,     1115,     1114,     1078,      665,      707,      706,      664
     799,     1110,     1116,     1080,     1074,      149,      150,      101,      100
     800,     1111,     1117,     1081,     1075,     1110,     1116,     1080,     1074
     801,     1112,     1118,     1082,     1076,     1111,     1117,     1081,     1075
     802,     1113,     1119,     1083,     1077,     1112,     1118,     1082,     1076
     803,     1114,     1120,     1084,     1078,     1113,     1119,     1083,     1077
     804,     1085,     1121,     1120,     1084,     1079,     1115,     1114,     1078
     805,     1116,     1122,     1086,     1080,      150,      151,      102,      101
     806,     1117,     1123,     1087,     1081,     1116,     1122,     1086,     1080
     807,     1118,     1124,     1088,     1082,     1117,     1123,     1087,     1081
     808,     1119,     1125,     1089,     1083,     1118,     1124,     1088,     1082
     809,     1120,     1126,     1090,     1084,     1119,     1125,     1089,     1083
     810,     1091,     1127,     1126,     1090,     1085,     1121,     1120,     1084
     811,     1122,     1128,     1092,     1086,      151,      152,      103,      102
     812,     1123,     1129,     1093,     1087,     1122,     1128,     1092,     1086
     813,     1124,     1130,     1094,     1088,     1123,     1129,     1093,     1087
     814,     1125,     1131,     1095,     1089,     1124,     1130,     1094,     1088
     815,     1126,     1132,     1096,     1090,     1125,     1131,     1095,     1089
     816,     1097,     1133,     1132,     1096,     1091,     1127,     1126,     1090
     817,     1128,     1134,     1098,     1092,      152,      153,      104,      103
     818,     1129,     1135,     1099,     1093,     1128,     1134,     1098,     1092
     819,     1130,     1136,     1100,     1094,     1129,     1135,     1099,     1093
     820,     1131,     1137,     1101,     1095,     1130,     1136,     1100,     1094
     821,     1132,     1138,     1102,     1096,     1131,     1137,     1101,     1095
     822,     1103,     1139,     1138,     1102,     1097,     1133,     1132,     1096
     823,     1134,     1140,     1104,     1098,      153,      154,      105,      104
     824,     1135,     1141,     1105,     1099,     1134,     1140,     1104,     1098
     825,     1136,     1142,     1106,     1100,     1135,     1141,     1105,     1099
     826,     1137,     1143,     1107,     1101,     1136,     1142,     1106,     1100
     827,     1138,     1144,     1108,     1102,     1137,     1143,     1107,     1101
     828,     1144,     1145,     1139,     1138,     1108,     1109,     1103,     1102
     829,      744,     1146,     1110,      702,      197,      198,      149,      148
     830,      745,     1147,     1111,      703,      744,     1146,     1110,      702
     831,      746,     1148,     1112,      704,      745,     1147,     1111,      703
     832,      747,     1149,     1113,      705,      746,     1148,     1112,      704
     833,      748,     1150,     1114,      706,      747,     1149,     1113,      705
     834,     1115,     1151,     1150,     1114,      707,      749,      748,      706
     835,     1146,     1152,     1116,     1110,      198,      199,      150,      149
     836,     1147,     1153,     1117,     1111,     1146,     1152,     1116,     1110
     837,     1148,     1154,     1118,     1112,     1147,     1153,     1117,     1111
     838,     1149,     1155,     1119,     1113,     1148,     1154,     1118,     1112
     839,     1150,     1156,     1120,     1114,     1149,     1155,     1119,     1113
     840,     1121,     1157,     1156,     1120,     1115,     1151,     1150,     1114
     841,     1152,     1158,     1122,     1116,      199,      200,      151,      150
     842,     1153,     1159,     1123,     1117,     1152,     1158,     1122,     1116
     843,     1154,     1160,     1124,     1118,     1153,     1159,     1123,     1117
     844,     1155,     1161,     1125,     1119,     1154,     1160,     1124,     1118
     845,     1156,     1162,     1126,     1120,     1155,     1161,     1125,     1119
     846,     1127,     1163,     1162,     1126,     1121,     1157,     1156,     1120
     847,     1158,     1164,     1128,     1122,      200,      201,      152,      151
     848,     1159,     1165,     1129,     1123,     1158,     1164,     1128,     1122
     849,     1160,     1166,     1130,     1124,     1159,     1165,     1129,     1123
     850,     1161,     1167,     1131,     1125,     1160,     1166,     1130,     1124
     851,     1162,     1168,     1132,     1126,     1161,     1167,     1131,     1125
     852,     1133,     1169,     1168,     1132,     1127,     1163,     1162,     1126
     853,     1164,     1170,     1134,     1128,      201,      202,      153,      152
     854,     1165,     1171,     1135,     1129,     1164,     1170,     1134,     1128
     855,     1166,     1172,     1136,     1130,     1165,     1171,     1135,     1129
     856,     1167,     1173,     1137,     1131,     1166,     1172,     1136,     1130
     857,     1168,     1174,     1138,     1132,     1167,     1173,     1137,     1131
     858,     1139,     1175,     1174,     1138,     1133,     1169,     1168,     1132
     859,     1170,     1176,     1140,     1134,      202,      203,      154,      153
     860,     1171,     1177,     1141,     1135,     1170,     1176,     1140,     1134
     861,     1172,     1178,     1142,     1136,     1171,     1177,     1141,     1135
     862,     1173,     1179,     1143,     1137,     1172,     1178,     1142,     1136
     863,     1174,     1180,     1144,     1138,     1173,     1179,     1143,     1137
     864,     1180,     1181,     1175,     1174,     1144,     1145,     1139,     1138
     865,      786,     1182,     1146,      744,      246,      247,      198,      197
     866,      787,     1183,     1147,      745,      786,     1182,     1146,      744
     867,      788,     1184,     1148,      746,      787,     1183,     1147,      745
     868,      789,     1185,     1149,      747,      788,     1184,     1148,      746
     869,      790,     1186,     1150,      748,      789,     1185,     1149,      747
     870,     1151,     1187,     1186,     1150,      749,      791,      790,      748
     871,     1182,     1188,     1152,     1146,      247,      248,      199,      198
     872,     1183,     1189,     1153,     1147,     1182,     1188,     1152,     1146
     873,     1184,     1190,     1154,     1148,     1183,     1189,     1153,     1147
     874,     1185,     1191,     1155,     1149,     1184,     1190,     1154,     1148
     875,     1186,     1192,     1156,     1150,     1185,     1191,     1155,     1149
     876,     1157,     1193,     1192,     1156,     1151,     1187,     1186,     1150
     877,     1188,     1194,     1158,     1152,      248,      249,      200,      199
     878,     1189,     1195,     1159,     1153,     1188,     1194,     1158,     1152
     879,     1190,     1196,     1160,     1154,     1189,     1195,     1159,     1153
     880,     1191,     1197,     1161,     1155,     1190,     1196,     1160,     1154
     881,     1192,     1198,     1162,     1156,     1191,     1197,     1161,     1155
     882,     1163,     1199,     1198,     1162,     1157,     1193,     1192,     1156
     883,     1194,     1200,     1164,     1158,      249,      250,      201,      200
     884,     1195,     1201,     1165,     1159,     1194,     1200,     1164,     1158
     885,     1196,     1202,     1166,     1160,     1195,     1201,     1165,     1159
     886,     1197,     1203,     1167,     1161,     1196,     1202,     1166,     1160
     887,     1198,     1204,     1168,     1162,     1197,     1203,     1167,     1161
     888,     1169,     1205,     1204,     1168,     1163,     1199,     1198,     1162
     889,     1200,     1206,     1170,     1164,      250,      251,      202,      201
     890,     1201,     1207,     1171,     1165,     1200,     1206,     1170,     1164
     891,     1202,     1208,     1172,     1166,     1201,     1207,     1171,     1165
     892,     1203,     1209,     1173,     1167,     1202,     1208,     1172,     1166
     893,     1204,     1210,     1174,     1168,     1203,     1209,     1173,     1167
     894,     1175,     1211,     1210,     1174,     1169,     1205,     1204,     1168
     895,     1206,     1212,     1176,     1170,      251,      252,      203,      202
     896,     1207,     1213,     1177,     1171,     1206,     1212,     1176,     1170
     897,     1208,     1214,     1178,     1172,     1207,     1213,     1177,     1171
     898,     1209,     1215,     1179,     1173,     1208,     1214,     1178,     1172
     899,     1210,     1216,     1180,     1174,     1209,     1215,     1179,     1173
     900,     1216,     1217,     1211,     1210,     1180,     1181,     1175,     1174
     901,      828,     1218,     1182,      786,      295,      296,      247,      246
     902,      829,     1219,     1183,      787,      828,     1218,     1182,      786
     903,      830,     1220,     1184,      788,      829,     1219,     1183,      787
     904,      831,     1221,     1185,      789,      830,     1220,     1184,      788
     905,      832,     1222,     1186,      790,      831,     1221,     1185,      789
     906,     1187,     1223,     1222,     1186,      791,      833,      832,      790
     907,     1218,     1224,     1188,     1182,      296,      297,      248,      247
     908,     1219,     1225,     1189,     1183,     1218,     1224,     1188,     1182
     909,     1220,     1226,     1190,     1184,     1219,     1225,     1189,     1183
     910,     1221,     1227,     1191,     1185,     1220,     1226,     1190,     1184
     911,     1222,     1228,     1192,     1186,     1221,     1227,     1191,     1185
     912,     1193,     1229,     1228,     1192,     1187,     1223,     1222,     1186
     913,     1224,     1230,     1194,     1188,      297,      298,      249,      248
     914,     1225,     1231,     1195,     1189,     1224,     1230,     1194,     1188
     915,     1226,     1232,     1196,     1190,     1225,     1231,     1195,     1189
     916,     1227,     1233,     1197,     1191,     1226,     1232,     1196,     1190
     917,     1228,     1234,     1198,     1192,     1227,     1233,     1197,     1191
     918,     1199,     1235,     1234,     1198,     1193,     1229,     1228,     1192
     919,     1230,     1236,     1200,     1194,      298,      299,      250,      249
     920,     1231,     1237,     1201,     1195,     1230,     1236,     1200,     1194
     921,     1232,     1238,     1202,     1196,     1231,     1237,     1201,     1195
     922,     1233,     1239,     1203,     1197,     1232,     1238,     1202,     1196
     923,     1234,     1240,     1204,     1198,     1233,     1239,     1203,     1197
     924,     1205,     1241,     1240,     1204,     1199,     1235,     1234,     1198
     925,     1236,     1242,     1206,     1200,      299,      300,      251,      250
     926,     1237,     1243,     1207,     1201,     1236,     1242,     1206,     1200
     927,     1238,     1244,     1208,     1202,     1237,     1243,     1207,     1201
     928,     1239,     1245,     1209,     1203,     1238,     1244,     1208,     1202
     929,     1240,     1246,     1210,     1204,     1239,     1245,     1209,     1203
     930,     1211,     1247,     1246,     1210,     1205,     1241,     1240,     1204
     931,     1242,     1248,     1212,     1206,      300,      301,      252,      251
     932,     1243,     1249,     1213,     1207,     1242,     1248,     1212,     1206
     933,     1244,     1250,     1214,     1208,     1243,     1249,     1213,     1207
     934,     1245,     1251,     1215,     1209,     1244,     1250,     1214,     1208
     935,     1246,     1252,     1216,     1210,     1245,     1251,     1215,     1209
     936,     1252,     1253,     1247,     1246,     1216,     1217,     1211,     1210
     937,      870,     1254,     1218,      828,      344,      345,      296,      295
     938,      871,     1255,     1219,      829,      870,     1254,     1218,      828
     939,      872,     1256,     1220,      830,      871,     1255,     1219,      829
     940,      873,     1257,     1221,      831,      872,     1256,     1220,      830
     941,      874,     1258,     1222,      832,      873,     1257,     1221,      831
     942,     1223,     1259,     1258,     1222,      833,      875,      874,      832
     943,     1254,     1260,     1224,     1218,      345,      346,      297,      296
     944,     1255,     1261,     1225,     1219,     1254,     1260,     1224,     1218
     945,     1256,     1262,     1226,     1220,     1255,     1261,     1225,     1219
     946,     1257,     1263,     1227,     1221,     1256,     1262,     1226,     1220
     947,     1258,     1264,     1228,     1222,     1257,     1263,     1227,     1221
     948,     1229,     1265,     1264,     1228,     1223,     1259,     1258,     1222
     949,     1260,     1266,     1230,     1224,      346,      347,      298,      297
     950,     1261,     1267,     1231,     1225,     1260,     1266,     1230,     1224
     951,     1262,     1268,     1232,     1226,     1261,     1267,     1231,     1225
     952,     1263,     1269,     1233,     1227,     1262,     1268,     1232,     1226
     953,     1264,     1270,     1234,     1228,     1263,     1269,     1233,     1227
     954,     1235,     1271,     1270,     1234,     1229,     1265,     1264,     1228
     955,     1266,     1272,     1236,     1230,      347,      348,      299,      298
     956,     1267,     1273,     1237,     1231,     1266,     1272,     1236,     1230
     957,     1268,     1274,     1238,     1232,     1267,     1273,     1237,     1231
     958,     1269,     1275,     1239,     1233,     1268,     1274,     1238,     1232
     959,     1270,     1276,     1240,     1234,     1269,     1275,     1239,     1233
     960,     1241,     1277,     1276,     1240,     1235,     1271,     1270,     1234
     961,     1272,     1278,     1242,     1236,      348,      349,      300,      299
     962,     1273,     1279,     1243,     1237,     1272,     1278,     1242,     1236
     963,     1274,     1280,     1244,     1238,     1273,     1279,     1243,     1237
     964,     1275,     1281,     1245,     1239,     1274,     1280,     1244,     1238
     965,     1276,     1282,     1246,     1240,     1275,     1281,     1245,     1239
     966,     1247,     1283,     1282,     1246,     1241,     1277,     1276,     1240
     967,     1278,     1284,     1248,     1242,      349,      350,      301,      300
     968,     1279,     1285,     1249,     1243,     1278,     1284,     1248,     1242
     969,     1280,     1286,     1250,     1244,     1279,     1285,     1249,     1243
     970,     1281,     1287,     1251,     1245,     1280,     1286,     1250,     1244
     971,     1282,     1288,     1252,     1246,     1281,     1287,     1251,     1245
     972,     1288,     1289,     1283,     1282,     1252,     1253,     1247,     1246
     973,      912,     1290,     1254,      870,      393,      394,      345,      344
     974,      913,     1291,     1255,      871,      912,     1290,     1254,      870
     975,      914,     1292,     1256,      872,      913,     1291,     1255,      871
     976,      915,     1293,     1257,      873,      914,     1292,     1256,      872
     977,      916,     1294,     1258,      874,      915,     1293,     1257,      873
     978,     1259,     1295,     1294,     1258,      875,      917,      916,      874
     979,     1290,     1296,     1260,     1254,      394,      395,      346,      345
     980,     1291,     1297,     1261,     1255,     1290,     1296,     1260,     1254
     981,     1292,     1298,     1262,     1256,     1291,     1297,     1261,     1255
     982,     1293,     1299,     1263,     1257,     1292,     1298,     1262,     1256
     983,     1294,     1300,     1264,     1258,     1293,     1299,     1263,     1257
     984,     1265,     1301,     1300,     1264,     1259,     1295,     1294,     1258
     985,     1296,     1302,     1266,     1260,      395,      396,      347,      346
     986,     1297,     1303,     1267,     1261,     1296,     1302,     1266,     1260
     987,     1298,     1304,     1268,     1262,     1297,     1303,     1267,     1261
     988,     1299,     1305,     1269,     1263,     1298,     1304,     1268,     1262
     989,     1300,     1306,     1270,     1264,     1299,     1305,     1269,     1263
     990,     1271,     1307,     1306,     1270,     1265,     1301,     1300,     1264
     991,     1302,     1308,     1272,     1266,      396,      397,      348,      347
     992,     1303,     1309,     1273,     1267,     1302,     1308,     1272,     1266
     993,     1304,     1310,     1274,     1268,     1303,     1309,     1273,     1267
     994,     1305,     1311,     1275,     1269,     1304,     1310,     1274,     1268
     995,     1306,     1312,     1276,     1270,     1305,     1311,     1275,     1269
     996,     1277,     1313,     1312,     1276,     1271,     1307,     1306,     1270
     997,     1308,     1314,     1278,     1272,      397,      398,      349,      348
     998,     1309,     1315,     1279,     1273,     1308,     1314,     1278,     1272
     999,     1310,     1316,     1280,     1274,     1309,     1315,     1279,     1273
    1000,     1311,     1317,     1281,     1275,     1310,     1316,     1280,     1274
    1001,     1312,     1318,     1282,     1276,     1311,     1317,     1281,     1275
    1002,     1283,     1319,     1318,     1282,     1277,     1313,     1312,     1276
    1003,     1314,     1320,     1284,     1278,      398,      399,      350,      349
    1004,     1315,     1321,     1285,     1279,     1314,     1320,     1284,     1278
    1005,     1316,     1322,     1286,     1280,     1315,     1321,     1285,     1279
    1006,     1317,     1323,     1287,     1281,     1316,     1322,     1286,     1280
    1007,     1318,     1324,     1288,     1282,     1317,     1323,     1287,     1281
    1008,     1324,     1325,     1319,     1318,     1288,     1289,     1283,     1282
    1009,      954,     1326,     1290,      912,      442,      443,      394,      393
    1010,      955,     1327,     1291,      913,      954,     1326,     1290,      912
    1011,      956,     1328,     1292,      914,      955,     1327,     1291,      913
    1012,      957,     1329,     1293,      915,      956,     1328,     1292,      914
    1013,      958,     1330,     1294,      916,      957,     1329,     1293,      915
    1014,     1295,     1331,     1330,     1294,      917,      959,      958,      916
    1015,     1326,     1332,     1296,     1290,      443,      444,      395,      394
    1016,     1327,     1333,     1297,     1291,     1326,     1332,     1296,     1290
    1017,     1328,     1334,     1298,     1292,     1327,     1333,     1297,     1291
    1018,     1329,     1335,     1299,     1293,     1328,     1334,     1298,     1292
    1019,     1330,     1336,     1300,     1294,     1329,     1335,     1299,     1293
    1020,     1301,     1337,     1336,     1300,     1295,     1331,     1330,     1294
    1021,     1332,     1338,     1302,     1296,      444,      445,      396,      395
    1022,     1333,     1339,     1303,     1297,     1332,     1338,     1302,     1296
    1023,     1334,     1340,     1304,     1298,     1333,     1339,     1303,     1297
    1024,     1335,     1341,     1305,     1299,     1334,     1340,     1304,     1298
    1025,     1336,     1342,     1306,     1300,     1335,     1341,     1305,     1299
    1026,     1307,     1343,     1342,     1306,     1301,     1337,     1336,     1300
    1027,     1338,     1344,     1308,     1302,      445,      446,      397,      396
    1028,     1339,     1345,     1309,     1303,     1338,     1344,     1308,     1302
    1029,     1340,     1346,     1310,     1304,     1339,     1345,     1309,     1303
    1030,     1341,     1347,     1311,     1305,     1340,     1346,     1310,     1304
    1031,     1342,     1348,     1312,     1306,     1341,     1347,     1311,     1305
    1032,     1313,     1349,     1348,     1312,     1307,     1343,     1342,     1306
    1033,     1344,     1350,     1314,     1308,      446,      447,      398,      397
    1034,     1345,     1351,     1315,     1309,     1344,     1350,     1314,     1308
    1035,     1346,     1352,     1316,     1310,     1345,     1351,     1315,     1309
    1036,     1347,     1353,     1317,     1311,     1346,     1352,     1316,     1310
    1037,     1348,     1354,     1318,     1312,     1347,     1353,     1317,     1311
    1038,     1319,     1355,     1354,     1318,     1313,     1349,     1348,     1312
    1039,     1350,     1356,     1320,     1314,      447,      448,      399,      398
    1040,     1351,     1357,     1321,     1315,     1350,     1356,     1320,     1314
    1041,     1352,     1358,     1322,     1316,     1351,     1357,     1321,     1315
    1042,     1353,     1359,     1323,     1317,     1352,     1358,     1322,     1316
    1043,     1354,     1360,     1324,     1318,     1353,     1359,     1323,     1317
    1044,     1360,     1361,     1355,     1354,     1324,     1325,     1319,     1318
    1045,      996,     1362,     1326,      954,      491,      492,      443,      442
    1046,      997,     1363,     1327,      955,      996,     1362,     1326,      954
    1047,      998,     1364,     1328,      956,      997,     1363,     1327,      955
    1048,      999,     1365,     1329,      957,      998,     1364,     1328,      956
    1049,     1000,     1366,     1330,      958,      999,     1365,     1329,      957
    1050,     1331,     1367,     1366,     1330,      959,     1001,     1000,      958
    1051,     1362,     1368,     1332,     1326,      492,      493,      444,      443
    1052,     1363,     1369,     1333,     1327,     1362,     1368,     1332,     1326
    1053,     1364,     1370,     1334,     1328,     1363,     1369,     1333,     1327
    1054,     1365,     1371,     1335,     1329,     1364,     1370,     1334,     1328
    1055,     1366,     1372,     1336,     1330,     1365,     1371,     1335,     1329
    1056,     1337,     1373,     1372,     1336,     1331,     1367,     1366,     1330
    1057,     1368,     1374,     1338,     1332,      493,      494,      445,      444
    1058,     1369,     1375,     1339,     1333,     1368,     1374,     1338,     1332
    1059,     1370,     1376,     1340,     1334,     1369,     1375,     1339,     1333
    1060,     1371,     1377,     1341,     1335,     1370,     1376,     1340,     1334
    1061,     1372,     1378,     1342,     1336,     1371,     1377,     1341,     1335
    1062,     1343,     1379,     1378,     1342,     1337,     1373,     1372,     1336
    1063,     1374,     1380,     1344,     1338,      494,      495,      446,      445
    1064,     1375,     1381,     1345,     1339,     1374,     1380,     1344,     1338
    1065,     1376,     1382,     1346,     1340,     1375,     1381,     1345,     1339
    1066,     1377,     1383,     1347,     1341,     1376,     1382,     1346,     1340
    1067,     1378,     1384,     1348,     1342,     1377,     1383,     1347,     1341
    1068,     1349,     1385,     1384,     1348,     1343,     1379,     1378,     1342
    1069,     1380,     1386,     1350,     1344,      495,      496,      447,      446
    1070,     1381,     1387,     1351,     1345,     1380,     1386,     1350,     1344
    1071,     1382,     1388,     1352,     1346,     1381,     1387,     1351,     1345
    1072,     1383,     1389,     1353,     1347,     1382,     1388,     1352,     1346
    1073,     1384,     1390,     1354,     1348,     1383,     1389,     1353,     1347
    1074,     1355,     1391,     1390,     1354,     1349,     1385,     1384,     1348
    1075,     1386,     1392,     1356,     1350,      496,      497,      448,      447
    1076,     1387,     1393,     1357,     1351,     1386,     1392,     1356,     1350
    1077,     1388,     1394,     1358,     1352,     1387,     1393,     1357,     1351
    1078,     1389,     1395,     1359,     1353,     1388,     1394,     1358,     1352
    1079,     1390,     1396,     1360,     1354,     1389,     1395,     1359,     1353
    1080,     1361,     1397,     1396,     1360,     1355,     1391,     1390,     1354
    1081,     1068,     1434,     1398,     1032,       56,       63,       14,        7
    1082,     1069,     1435,     1399,     1033,     1068,     1434,     1398,     1032
    1083,     1070,     1436,     1400,     1034,     1069,     1435,     1399,     1033
    1084,     1071,     1437,     1401,     1035,     1070,     1436,     1400,     1034
    1085,     1072,     1438,     1402,     1036,     1071,     1437,     1401,     1035
    1086,     1403,     1439,     1438,     1402,     1037,     1073,     1072,     1036
    1087,     1434,     1440,     1404,     1398,       63,       70,       21,       14
    1088,     1435,     1441,     1405,     1399,     1434,     1440,     1404,     1398
    1089,     1436,     1442,     1406,     1400,     1435,     1441,     1405,     1399
    1090,     1437,     1443,     1407,     1401,     1436,     1442,     1406,     1400
    1091,     1438,     1444,     1408,     1402,     1437,     1443,     1407,     1401
    1092,     1409,     1445,     1444,     1408,     1403,     1439,     1438,     1402
    1093,     1440,     1446,     1410,     1404,       70,       77,       28,       21
    1094,     1441,     1447,     1411,     1405,     1440,     1446,     1410,     1404
    1095,     1442,     1448,     1412,     1406,     1441,     1447,     1411,     1405
    1096,     1443,     1449,     1413,     1407,     1442,     1448,     1412,     1406
    1097,     1444,     1450,     1414,     1408,     1443,     1449,     1413,     1407
    1098,     1415,     1451,     1450,     1414,     1409,     1445,     1444,     1408
    1099,     1446,     1452,     1416,     1410,       77,       84,       35,       28
    1100,     1447,     1453,     1417,     1411,     1446,     1452,     1416,     1410
    1101,     1448,     1454,     1418,     1412,     1447,     1453,     1417,     1411
    1102,     1449,     1455,     1419,     1413,     1448,     1454,     1418,     1412
    1103,     1450,     1456,     1420,     1414,     1449,     1455,     1419,     1413
    1104,     1421,     1457,     1456,     1420,     1415,     1451,     1450,     1414
    1105,     1452,     1458,     1422,     1416,       84,       91,       42,       35
    1106,     1453,     1459,     1423,     1417,     1452,     1458,     1422,     1416
    1107,     1454,     1460,     1424,     1418,     1453,     1459,     1423,     1417
    1108,     1455,     1461,     1425,     1419,     1454,     1460,     1424,     1418
    1109,     1456,     1462,     1426,     1420,     1455,     1461,     1425,     1419
    1110,     1427,     1463,     1462,     1426,     1421,     1457,     1456,     1420
    1111,     1458,     1464,     1428,     1422,       91,       98,       49,       42
    1112,     1459,     1465,     1429,     1423,     1458,     1464,     1428,     1422
    1113,     1460,     1466,     1430,     1424,     1459,     1465,     1429,     1423
    1114,     1461,     1467,     1431,     1425,     1460,     1466,     1430,     1424
    1115,     1462,     1468,     1432,     1426,     1461,     1467,     1431,     1425
    1116,     1468,     1469,     1463,     1462,     1432,     1433,     1427,     1426
    1117,     1104,     1470,     1434,     1068,      105,      112,       63,       56
    1118,     1105,     1471,     1435,     1069,     1104,     1470,     1434,     1068
    1119,     1106,     1472,     1436,     1070,     1105,     1471,     1435,     1069
    1120,     1107,     1473,     1437,     1071,     1106,     1472,     1436,     1070
    1121,     1108,     1474,     1438,     1072,     1107,     1473,     1437,     1071
    1122,     1439,     1475,     1474,     1438,     1073,     1109,     1108,     1072
    1123,     1470,     1476,     1440,     1434,      112,      119,       70,       63
    1124,     1471,     1477,     1441,     1435,     1470,     1476,     1440,     1434
    1125,     1472,     1478,     1442,     1436,     1471,     1477,     1441,     1435
    1126,     1473,     1479,     1443,     1437,     1472,     1478,     1442,     1436
    1127,     1474,     1480,     1444,     1438,     1473,     1479,     1443,     1437
    1128,     1445,     1481,     1480,     1444,     1439,     1475,     1474,     1438
    1129,     1476,     1482,     1446,     1440,      119,      126,       77,       70
    1130,     1477,     1483,     1447,     1441,     1476,     1482,     1446,     1440
    1131,     1478,     1484,     1448,     1442,     1477,     1483,     1447,     1441
    1132,     1479,     1485,     1449,     1443,     1478,     1484,     1448,     1442
    1133,     1480,     1486,     1450,     1444,     1479,     1485,     1449,     1443
    1134,     1451,     1487,     1486,     1450,     1445,     1481,     1480,     1444
    1135,     1482,     1488,     1452,     1446,      126,      133,       84,       77
    1136,     1483,     1489,     1453,     1447,     1482,     1488,     1452,     1446
    1137,     1484,     1490,     1454,     1448,     1483,     1489,     1453,     1447
    1138,     1485,     1491,     1455,     1449,     1484,     1490,     1454,     1448
    1139,     1486,     1492,     1456,     1450,     1485,     1491,     1455,     1449
    1140,     1457,     1493,     1492,     1456,     1451,     1487,     1486,     1450
    1141,     1488,     1494,     1458,     1452,      133,      140,       91,       84
    1142,     1489,     1495,     1459,     1453,     1488,     1494,     1458,     1452
    1143,     1490,     1496,     1460,     1454,     1489,     1495,     1459,     1453
    1144,     1491,     1497,     1461,     1455,     1490,     1496,     1460,     1454
    1145,     1492,     1498,     1462,     1456,     1491,     1497,     1461,     1455
    1146,     1463,     1499,     1498,     1462,     1457,     1493,     1492,     1456
    1147,     1494,     1500,     1464,     1458,      140,      147,       98,       91
    1148,     1495,     1501,     1465,     1459,     1494,     1500,     1464,     1458
    1149,     1496,     1502,     1466,     1460,     1495,     1501,     1465,     1459
    1150,     1497,     1503,     1467,     1461,     1496,     1502,     1466,     1460
    1151,     1498,     1504,     1468,     1462,     1497,     1503,     1467,     1461
    1152,     1504,     1505,     1499,     1498,     1468,     1469,     1463,     1462
    1153,     1140,     1506,     1470,     1104,      154,      161,      112,      105
    1154,     1141,     1507,     1471,     1105,     1140,     1506,     1470,     1104
    1155,     1142,     1508,     1472,     1106,     1141,     1507,     1471,     1105
    1156,     1143,     1509,     1473,     1107,     1142,     1508,     1472,     1106
    1157,     1144,     1510,     1474,     1108,     1143,     1509,     1473,     1107
    1158,     1475,     1511,     1510,     1474,     1109,     1145,     1144,     1108
    1159,     1506,     1512,     1476,     1470,      161,      168,      119,      112
    1160,     1507,     1513,     1477,     1471,     1506,     1512,     1476,     1470
    1161,     1508,     1514,     1478,     1472,     1507,     1513,     1477,     1471
    1162,     1509,     1515,     1479,     1473,     1508,     1514,     1478,     1472
    1163,     1510,     1516,     1480,     1474,     1509,     1515,     1479,     1473
    1164,     1481,     1517,     1516,     1480,     1475,     1511,     1510,     1474
    1165,     1512,     1518,     1482,     1476,      168,      175,      126,      119
    1166,     1513,     1519,     1483,     1477,     1512,     1518,     1482,     1476
    1167,     1514,     1520,     1484,     1478,     1513,     1519,     1483,     1477
    1168,     1515,     1521,     1485,     1479,     1514,     1520,     1484,     1478
    1169,     1516,     1522,     1486,     1480,     1515,     1521,     1485,     1479
    1170,     1487,     1523,     1522,     1486,     1481,     1517,     1516,     1480
    1171,     1518,     1524,     1488,     1482,      175,      182,      133,      126
    1172,     1519,     1525,     1489,     1483,     1518,     1524,     1488,     1482
    1173,     1520,     1526,     1490,     1484,     1519,     1525,     1489,     1483
    1174,     1521,     1527,     1491,     1485,     1520,     1526,     1490,     1484
    1175,     1522,     1528,     1492,     1486,     1521,     1527,     1491,     1485
    1176,     1493,     1529,     1528,     1492,     1487,     1523,     1522,     1486
    1177,     1524,     1530,     1494,     1488,      182,      189,      140,      133
    1178,     1525,     1531,     1495,     1489,     1524,     1530,     1494,     1488
    1179,     1526,     1532,     1496,     1490,     1525,     1531,     1495,     1489
    1180,     1527,     1533,     1497,     1491,     1526,     1532,     1496,     1490
    1181,     1528,     1534,     1498,     1492,     1527,     1533,     1497,     1491
    1182,     1499,     1535,     1534,     1498,     1493,     1529,     1528,     1492
    1183,     1530,     1536,     1500,     1494,      189,      196,      147,      140
    1184,     1531,     1537,     1501,     1495,     1530,     1536,     1500,     1494
    1185,     1532,     1538,     1502,     1496,     1531,     1537,     1501,     1495
    1186,     1533,     1539,     1503,     1497,     1532,     1538,     1502,     1496
    1187,     1534,     1540,     1504,     1498,     1533,     1539,     1503,     1497
    1188,     1540,     1541,     1535,     1534,     1504,     1505,     1499,     1498
    1189,     1176,     1542,     1506,     1140,      203,      210,      161,      154
    1190,     1177,     1543,     1507,     1141,     1176,     1542,     1506,     1140
    1191,     1178,     1544,     1508,     1142,     1177,     1543,     1507,     1141
    1192,     1179,     1545,     1509,     1143,     1178,     1544,     1508,     1142
    1193,     1180,     1546,     1510,     1144,     1179,     1545,     1509,     1143
    1194,     1511,     1547,     1546,     1510,     1145,     1181,     1180,     1144
    1195,     1542,     1548,     1512,     1506,      210,      217,      168,      161
    1196,     1543,     1549,     1513,     1507,     1542,     1548,     1512,     1506
    1197,     1544,     1550,     1514,     1508,     1543,     1549,     1513,     1507
    1198,     1545,     1551,     1515,     1509,     1544,     1550,     1514,     1508
    1199,     1546,     1552,     1516,     1510,     1545,     1551,     1515,     1509
    1200,     1517,     1553,     1552,     1516,     1511,     1547,     1546,     1510
    1201,     1548,     1554,     1518,     1512,      217,      224,      175,      168
    1202,     1549,     1555,     1519,     1513,     1548,     1554,     1518,     1512
    1203,     1550,     1556,     1520,     1514,     1549,     1555,     1519,     1513
    1204,     1551,     1557,     1521,     1515,     1550,     1556,     1520,     1514
    1205,     1552,     1558,     1522,     1516,     1551,     1557,     1521,     1515
    1206,     1523,     1559,     1558,     1522,     1517,     1553,     1552,     1516
    1207,     1554,     1560,     1524,     1518,      224,      231,      182,      175
    1208,     1555,     1561,     1525,     1519,     1554,     1560,     1524,     1518
    1209,     1556,     1562,     1526,     1520,     1555,     1561,     1525,     1519
    1210,     1557,     1563,     1527,     1521,     1556,     1562,     1526,     1520
    1211,     1558,     1564,     1528,     1522,     1557,     1563,     1527,     1521
    1212,     1529,     1565,     1564,     1528,     1523,     1559,     1558,     1522
    1213,     1560,     1566,     1530,     1524,      231,      238,      189,      182
    1214,     1561,     1567,     1531,     1525,     1560,     1566,     1530,     1524
    1215,     1562,     1568,     1532,     1526,     1561,     1567,     1531,     1525
    1216,     1563,     1569,     1533,     1527,     1562,     1568,     1532,     1526
    1217,     1564,     1570,     1534,     1528,     1563,     1569,     1533,     1527
    1218,     1535,     1571,     1570,     1534,     1529,     1565,     1564,     1528
    1219,     1566,     1572,     1536,     1530,      238,      245,      196,      189
    1220,     1567,     1573,     1537,     1531,     1566,     1572,     1536,     1530
    1221,     1568,     1574,     1538,     1532,     1567,     1573,     1537,     1531
    1222,     1569,     1575,     1539,     1533,     1568,     1574,     1538,     1532
    1223,     1570,     1576,     1540,     1534,     1569,     1575,     1539,     1533
    1224,     1576,     1577,     1571,     1570,     1540,     1541,     1535,     1534
    1225,     1212,     1578,     1542,     1176,      252,      259,      210,      203
    1226,     1213,     1579,     1543,     1177,     1212,     1578,     1542,     1176
    1227,     1214,     1580,     1544,     1178,     1213,     1579,     1543,     1177
    1228,     1215,     1581,     1545,     1179,     1214,     1580,     1544,     1178
    1229,     1216,     1582,     1546,     1180,     1215,     1581,     1545,     1179
    1230,     1547,     1583,     1582,     1546,     1181,     1217,     1216,     1180
    1231,     1578,     1584,     1548,     1542,      259,      266,      217,      210
    1232,     1579,     1585,     1549,     1543,     1578,     1584,     1548,     1542
    1233,     1580,     1586,     1550,     1544,     1579,     1585,     1549,     1543
    1234,     1581,     1587,     1551,     1545,     1580,     1586,     1550,     1544
    1235,     1582,     1588,     1552,     1546,     1581,     1587,     1551,     1545
    1236,     1553,     1589,     1588,     1552,     1547,     1583,     1582,     1546
    1237,     1584,     1590,     1554,     1548,      266,      273,      224,      217
    1238,     1585,     1591,     1555,     1549,     1584,     1590,     1554,     1548
    1239,     1586,     1592,     1556,     1550,     1585,     1591,     1555,     1549
    1240,     1587,     1593,     1557,     1551,     1586,     1592,     1556,     1550
    1241,     1588,     1594,     1558,     1552,     1587,     1593,     1557,     1551
    1242,     1559,     1595,     1594,     1558,     1553,     1589,     1588,     1552
    1243,     1590,     1596,     1560,     1554,      273,      280,      231,      224
    1244,     1591,     1597,     1561,     1555,     1590,     1596,     1560,     1554
    1245,     1592,     1598,     1562,     1556,     1591,     1597,     1561,     1555
    1246,     1593,     1599,     1563,     1557,     1592,     1598,     1562,     1556
    1247,     1594,     1600,     1564,     1558,     1593,     1599,     1563,     1557
    1248,     1565,     1601,     1600,     1564,     1559,     1595,     1594,     1558
    1249,     1596,     1602,     1566,     1560,      280,      287,      238,      231
    1250,     1597,     1603,     1567,     1561,     1596,     1602,     1566,     1560
    1251,     1598,     1604,     1568,     1562,     1597,     1603,     1567,     1561
    1252,     1599,     1605,     1569,     1563,     1598,     1604,     1568,     1562
    1253,     1600,     1606,     1570,     1564,     1599,     1605,     1569,     1563
    1254,     1571,     1607,     1606,     1570,     1565,     1601,     1600,     1564
    1255,     1602,     1608,     1572,     1566,      287,      294,      245,      238
    1256,     1603,     1609,     1573,     1567,     1602,     1608,     1572,     1566
    1257,     1604,     1610,     1574,     1568,     1603,     1609,     1573,     1567
    1258,     1605,     1611,     1575,     1569,     1604,     1610,     1574,     1568
    1259,     1606,     1612,     1576,     1570,     1605,     1611,     1575,     1569
    1260,     1612,     1613,     1607,     1606,     1576,     1577,     1571,     1570
    1261,     1248,     1614,     1578,     1212,      301,      308,      259,      252
    1262,     1249,     1615,     1579,     1213,     1248,     1614,     1578,     1212
    1263,     1250,     1616,     1580,     1214,     1249,     1615,     1579,     1213
    1264,     1251,     1617,     1581,     1215,     1250,     1616,     1580,     1214
    1265,     1252,     1618,     1582,     1216,     1251,     1617,     1581,     1215
    1266,     1583,     1619,     1618,     1582,     1217,     1253,     1252,     1216
    1267,     1614,     1620,     1584,     1578,      308,      315,      266,      259
    1268,     1615,     1621,     1585,     1579,     1614,     1620,     1584,     1578
    1269,     1616,     1622,     1586,     1580,     1615,     1621,     1585,     1579
    1270,     1617,     1623,     1587,     1581,     1616,     1622,     1586,     1580
    1271,     1618,     1624,     1588,     1582,     1617,     1623,     1587,     1581
    1272,     1589,     1625,     1624,     1588,     1583,     1619,     1618,     1582
    1273,     1620,     1626,     1590,     1584,      315,      322,      273,      266
    1274,     1621,     1627,     1591,     1585,     1620,     1626,     1590,     1584
    1275,     1622,     1628,     1592,     1586,     1621,     1627,     1591,     1585
    1276,     1623,     1629,     1593,     1587,     1622,     1628,     1592,     1586
    1277,     1624,     1630,     1594,     1588,     1623,     1629,     1593,     1587
    1278,     1595,     1631,     1630,     1594,     1589,     1625,     1624,     1588
    1279,     1626,     1632,     1596,     1590,      322,      329,      280,      273
    1280,     1627,     1633,     1597,     1591,     1626,     1632,     1596,     1590
    1281,     1628,     1634,     1598,     1592,     1627,     1633,     1597,     1591
    1282,     1629,     1635,     1599,     1593,     1628,     1634,     1598,     1592
    1283,     1630,     1636,     1600,     1594,     1629,     1635,     1599,     1593
    1284,     1601,     1637,     1636,     1600,     1595,     1631,     1630,     1594
    1285,     1632,     1638,     1602,     1596,      329,      336,      287,      280
    1286,     1633,     1639,     1603,     1597,     1632,     1638,     1602,     1596
    1287,     1634,     1640,     1604,     1598,     1633,     1639,     1603,     1597
    1288,     1635,     1641,     1605,     1599,     1634,     1640,     1604,     1598
    1289,     1636,     1642,     1606,     1600,     1635,     1641,     1605,     1599
    1290,     1607,     1643,     1642,     1606,     1601,     1637,     1636,     1600
    1291,     1638,     1644,     1608,     1602,      336,      343,      294,      287
    1292,     1639,     1645,     1609,     1603,     1638,     1644,     1608,     1602
    1293,     1640,     1646,     1610,     1604,     1639,     1645,     1609,     1603
    1294,     1641,     1647,     1611,     1605,     1640,     1646,     1610,     1604
    1295,     1642,     1648,     1612,     1606,     1641,     1647,     1611,     1605
    1296,     1648,     1649,     1643,     1642,     1612,     1613,     1607,     1606
    1297,     1284,     1650,     1614,     1248,      350,      357,      308,      301
    1298,     1285,     1651,     1615,     1249,     1284,     1650,     1614,     1248
    1299,     1286,     1652,     1616,     1250,     1285,     1651,     1615,     1249
    1300,     1287,     1653,     1617,     1251,     1286,     1652,     1616,     1250
    1301,     1288,     1654,     1618,     1252,     1287,     1653,     1617,     1251
    1302,     1619,     1655,     1654,     1618,     1253,     1289,     1288,     1252
    1303,     1650,     1656,     1620,     1614,      357,      364,      315,      308
    1304,     1651,     1657,     1621,     1615,     1650,     1656,     1620,     1614
    1305,     1652,     1658,     1622,     1616,     1651,     1657,     1621,     1615
    1306,     1653,     1659,     1623,     1617,     1652,     1658,     1622,     1616
    1307,     1654,     1660,     1624,     1618,     1653,     1659,     1623,     1617
    1308,     1625,     1661,     1660,     1624,     1619,     1655,     1654,     1618
    1309,     1656,     1662,     1626,     1620,      364,      371,      322,      315
    1310,     1657,     1663,     1627,     1621,     1656,     1662,     1626,     1620
    1311,     1658,     1664,     1628,     1622,     1657,     1663,     1627,     1621
    1312,     1659,     1665,     1629,     1623,     1658,     1664,     1628,     1622
    1313,     1660,     1666,     1630,     1624,     1659,     1665,     1629,     1623
    1314,     1631,     1667,     1666,     1630,     1625,     1661,     1660,     1624
    1315,     1662,     1668,     1632,     1626,      371,      378,      329,      322
    1316,     1663,     1669,     1633,     1627,     1662,     1668,     1632,     1626
    1317,     1664,     1670,     1634,     1628,     1663,     1669,     1633,     1627
    1318,     1665,     1671,     1635,     1629,     1664,     1670,     1634,     1628
    1319,     1666,     1672,     1636,     1630,     1665,     1671,     1635,     1629
    1320,     1637,     1673,     1672,     1636,     1631,     1667,     1666,     1630
    1321,     1668,     1674,     1638,     1632,      378,      385,      336,      329
    1322,     1669,     1675,     1639,     1633,     1668,     1674,     1638,     1632
    1323,     1670,     1676,     1640,     1634,     1669,     1675,     1639,     1633
    1324,     1671,     1677,     1641,     1635,     1670,     1676,     1640,     1634
    1325,     1672,     1678,     1642,     1636,     1671,     1677,     1641,     1635
    1326,     1643,     1679,     1678,     1642,     1637,     1673,     1672,     1636
    1327,     1674,     1680,     1644,     1638,      385,      392,      343,      336
    1328,     1675,     1681,     1645,     1639,     1674,     1680,     1644,     1638
    1329,     1676,     1682,     1646,     1640,     1675,     1681,     1645,     1639
    1330,     1677,     1683,     1647,     1641,     1676,     1682,     1646,     1640
    1331,     1678,     1684,     1648,     1642,     1677,     1683,     1647,     1641
    1332,     1684,     1685,     1679,     1678,     1648,     1649,     1643,     1642
    1333,     1320,     1686,     1650,     1284,      399,      406,      357,      350
    1334,     1321,     1687,     1651,     1285,     1320,     1686,     1650,     1284
    1335,     1322,     1688,     1652,     1286,     1321,     1687,     1651,     1285
    1336,     1323,     1689,     1653,     1287,     1322,     1688,     1652,     1286
    1337,     1324,     1690,     1654,     1288,     1323,     1689,     1653,     1287
    1338,     1655,     1691,     1690,     1654,     1289,     1325,     1324,     1288
    1339,     1686,     1692,     1656,     1650,      406,      413,      364,      357
    1340,     1687,     1693,     1657,     1651,     1686,     1692,     1656,     1650
    1341,     1688,     1694,     1658,     1652,     1687,     1693,     1657,     1651
    1342,     1689,     1695,     1659,     1653,     1688,     1694,     1658,     1652
    1343,     1690,     1696,     1660,     1654,     1689,     1695,     1659,     1653
    1344,     1661,     1697,     1696,     1660,     1655,     1691,     1690,     1654
    1345,     1692,     1698,     1662,     1656,      413,      420,      371,      364
    1346,     1693,     1699,     1663,     1657,     1692,     1698,     1662,     1656
    1347,     1694,     1700,     1664,     1658,     1693,     1699,     1663,     1657
    1348,     1695,     1701,     1665,     1659,     1694,     1700,     1664,     1658
    1349,     1696,     1702,     1666,     1660,     1695,     1701,     1665,     1659
    1350,     1667,     1703,     1702,     1666,     1661,     1697,     1696,     1660
    1351,     1698,     1704,     1668,     1662,      420,      427,      378,      371
    1352,     1699,     1705,     1669,     1663,     1698,     1704,     1668,     1662
    1353,     1700,     1706,     1670,     1664,     1699,     1705,     1669,     1663
    1354,     1701,     1707,     1671,     1665,     1700,     1706,     1670,     1664
    1355,     1702,     1708,     1672,     1666,     1701,     1707,     1671,     1665
    1356,     1673,     1709,     1708,     1672,     1667,     1703,     1702,     1666
    1357,     1704,     1710,     1674,     1668,      427,      434,      385,      378
    1358,     1705,     1711,     1675,     1669,     1704,     1710,     1674,     1668
    1359,     1706,     1712,     1676,     1670,     1705,     1711,     1675,     1669
    1360,     1707,     1713,     1677,     1671,     1706,     1712,     1676,     1670
    1361,     1708,     1714,     1678,     1672,     1707,     1713,     1677,     1671
    1362,     1679,     1715,     1714,     1678,     1673,     1709,     1708,     1672
    1363,     1710,     1716,     1680,     1674,      434,      441,      392,      385
    1364,     1711,     1717,     1681,     1675,     1710,     1716,     1680,     1674
    1365,     1712,     1718,     1682,     1676,     1711,     1717,     1681,     1675
    1366,     1713,     1719,     1683,     1677,     1712,     1718,     1682,     1676
    1367,     1714,     1720,     1684,     1678,     1713,     1719,     1683,     1677
    1368,     1720,     1721,     1715,     1714,     1684,     1685,     1679,     1678
    1369,     1356,     1722,     1686,     1320,      448,      455,      406,      399
    1370,     1357,     1723,     1687,     1321,     1356,     1722,     1686,     1320
    1371,     1358,     1724,     1688,     1322,     1357,     1723,     1687,     1321
    1372,     1359,     1725,     1689,     1323,     1358,     1724,     1688,     1322
    1373,     1360,     1726,     1690,     1324,     1359,     1725,     1689,     1323
    1374,     1691,     1727,     1726,     1690,     1325,     1361,     1360,     1324
    1375,     1722,     1728,     1692,     1686,      455,      462,      413,      406
    1376,     1723,     1729,     1693,     1687,     1722,     1728,     1692,     1686
    1377,     1724,     1730,     1694,     1688,     1723,     1729,     1693,     1687
    1378,     1725,     1731,     1695,     1689,     1724,     1730,     1694,     1688
    1379,     1726,     1732,     1696,     1690,     1725,     1731,     1695,     1689
    1380,     1697,     1733,     1732,     1696,     1691,     1727,     1726,     1690
    1381,     1728,     1734,     1698,     1692,      462,      469,      420,      413
    1382,     1729,     1735,     1699,     1693,     1728,     1734,     1698,     1692
    1383,     1730,     1736,     1700,     1694,     1729,     1735,     1699,     1693
    1384,     1731,     1737,     1701,     1695,     1730,     1736,     1700,     1694
    1385,     1732,     1738,     1702,     1696,     1731,     1737,     1701,     1695
    1386,     1703,     1739,     1738,     1702,     1697,     1733,     1732,     1696
    1387,     1734,     1740,     1704,     1698,      469,      476,      427,      420
    1388,     1735,     1741,     1705,     1699,     1734,     1740,     1704,     1698
    1389,     1736,     1742,     1706,     1700,     1735,     1741,     1705,     1699
    1390,     1737,     1743,     1707,     1701,     1736,     1742,     1706,     1700
    1391,     1738,     1744,     1708,     1702,     1737,     1743,     1707,     1701
    1392,     1709,     1745,     1744,     1708,     1703,     1739,     1738,     1702
    1393,     1740,     1746,     1710,     1704,      476,      483,      434,      427
    1394,     1741,     1747,     1711,     1705,     1740,     1746,     1710,     1704
    1395,     1742,     1748,     1712,     1706,     1741,     1747,     1711,     1705
    1396,     1743,     1749,     1713,     1707,     1742,     1748,     1712,     1706
    1397,     1744,     1750,     1714,     1708,     1743,     1749,     1713,     1707
    1398,     1715,     1751,     1750,     1714,     1709,     1745,     1744,     1708
    1399,     1746,     1752,     1716,     1710,      483,      490,      441,      434
    1400,     1747,     1753,     1717,     1711,     1746,     1752,     1716,     1710
    1401,     1748,     1754,     1718,     1712,     1747,     1753,     1717,     1711
    1402,     1749,     1755,     1719,     1713,     1748,     1754,     1718,     1712
    1403,     1750,     1756,     1720,     1714,     1749,     1755,     1719,     1713
    1404,     1756,     1757,     1751,     1750,     1720,     1721,     1715,     1714
    1405,     1392,     1758,     1722,     1356,      497,      504,      455,      448
    1406,     1393,     1759,     1723,     1357,     1392,     1758,     1722,     1356
    1407,     1394,     1760,     1724,     1358,     1393,     1759,     1723,     1357
    1408,     1395,     1761,     1725,     1359,     1394,     1760,     1724,     1358
    1409,     1396,     1762,     1726,     1360,     1395,     1761,     1725,     1359
    1410,     1727,     1763,     1762,     1726,     1361,     1397,     1396,     1360
    1411,     1758,     1764,     1728,     1722,      504,      511,      462,      455
    1412,     1759,     1765,     1729,     1723,     1758,     1764,     1728,     1722
    1413,     1760,     1766,     1730,     1724,     1759,     1765,     1729,     1723
    1414,     1761,     1767,     1731,     1725,     1760,     1766,     1730,     1724
    1415,     1762,     1768,     1732,     1726,     1761,     1767,     1731,     1725
    1416,     1733,     1769,     1768,     1732,     1727,     1763,     1762,     1726
    1417,     1764,     1770,     1734,     1728,      511,      518,      469,      462
    1418,     1765,     1771,     1735,     1729,     1764,     1770,     1734,     1728
    1419,     1766,     1772,     1736,     1730,     1765,     1771,     1735,     1729
    1420,     1767,     1773,     1737,     1731,     1766,     1772,     1736,     1730
    1421,     1768,     1774,     1738,     1732,     1767,     1773,     1737,     1731
    1422,     1739,     1775,     1774,     1738,     1733,     1769,     1768,     1732
    1423,     1770,     1776,     1740,     1734,      518,      525,      476,      469
    1424,     1771,     1777,     1741,     1735,     1770,     1776,     1740,     1734
    1425,     1772,     1778,     1742,     1736,     1771,     1777,     1741,     1735
    1426,     1773,     1779,     1743,     1737,     1772,     1778,     1742,     1736
    1427,     1774,     1780,     1744,     1738,     1773,     1779,     1743,     1737
    1428,     1745,     1781,     1780,     1744,     1739,     1775,     1774,     1738
    1429,     1776,     1782,     1746,     1740,      525,      532,      483,      476
    1430,     1777,     1783,     1747,     1741,     1776,     1782,     1746,     1740
    1431,     1778,     1784,     1748,     1742,     1777,     1783,     1747,     1741
    1432,     1779,     1785,     1749,     1743,     1778,     1784,     1748,     1742
    1433,     1780,     1786,     1750,     1744,     1779,     1785,     1749,     1743
    1434,     1751,     1787,     1786,     1750,     1745,     1781,     1780,     1744
    1435,     1782,     1788,     1752,     1746,      532,      539,      490,      483
    1436,     1783,     1789,     1753,     1747,     1782,     1788,     1752,     1746
    1437,     1784,     1790,     1754,     1748,     1783,     1789,     1753,     1747
    1438,     1785,     1791,     1755,     1749,     1784,     1790,     1754,     1748
    1439,     1786,     1792,     1756,     1750,     1785,     1791,     1755,     1749
    1440,     1757,     1793,     1792,     1756,     1751,     1787,     1786,     1750
    1441,     1464,     1824,     1794,     1428,       98,       97,       48,       49
    1442,     1465,     1825,     1795,     1429,     1464,     1824,     1794,     1428
    1443,     1466,     1826,     1796,     1430,     1465,     1825,     1795,     1429
    1444,     1467,     1827,     1797,     1431,     1466,     1826,     1796,     1430
    1445,     1468,     1828,     1798,     1432,     1467,     1827,     1797,     1431
    1446,     1799,     1829,     1828,     1798,     1433,     1469,     1468,     1432
    1447,     1824,     1830,     1800,     1794,       97,       96,       47,       48
    1448,     1825,     1831,     1801,     1795,     1824,     1830,     1800,     1794
    1449,     1826,     1832,     1802,     1796,     1825,     1831,     1801,     1795
    1450,     1827,     1833,     1803,     1797,     1826,     1832,     1802,     1796
    1451,     1828,     1834,     1804,     1798,     1827,     1833,     1803,     1797
    1452,     1805,     1835,     1834,     1804,     1799,     1829,     1828,     1798
    1453,     1830,     1836,     1806,     1800,       96,       95,       46,       47
    1454,     1831,     1837,     1807,     1801,     1830,     1836,     1806,     1800
    1455,     1832,     1838,     1808,     1802,     1831,     1837,     1807,     1801
    1456,     1833,     1839,     1809,     1803,     1832,     1838,     1808,     1802
    1457,     1834,     1840,     1810,     1804,     1833,     1839,     1809,     1803
    1458,     1811,     1841,     1840,     1810,     1805,     1835,     1834,     1804
    1459,     1836,     1842,     1812,     1806,       95,       94,       45,       46
    1460,     1837,     1843,     1813,     1807,     1836,     1842,     1812,     1806
    1461,     1838,     1844,     1814,     1808,     1837,     1843,     1813,     1807
    1462,     1839,     1845,     1815,     1809,     1838,     1844,     1814,     1808
    1463,     1840,     1846,     1816,     1810,     1839,     1845,     1815,     1809
    1464,     1817,     1847,     1846,     1816,     1811,     1841,     1840,     1810
    1465,     1842,     1848,     1818,     1812,       94,       93,       44,       45
    1466,     1843,     1849,     1819,     1813,     1842,     1848,     1818,     1812
    1467,     1844,     1850,     1820,     1814,     1843,     1849,     1819,     1813
    1468,     1845,     1851,     1821,     1815,     1844,     1850,     1820,     1814
    1469,     1846,     1852,     1822,     1816,     1845,     1851,     1821,     1815
    1470,     1823,     1853,     1852,     1822,     1817,     1847,     1846,     1816
    1471,     1848,      582,      540,     1818,       93,       92,       43,       44
    1472,     1849,      583,      541,     1819,     1848,      582,      540,     1818
    1473,     1850,      584,      542,     1820,     1849,      583,      541,     1819
    1474,     1851,      585,      543,     1821,     1850,      584,      542,     1820
    1475,     1852,      586,      544,     1822,     1851,      585,      543,     1821
    1476,      586,      587,     1853,     1852,      544,      545,     1823,     1822
    1477,     1500,     1854,     1824,     1464,      147,      146,       97,       98
    1478,     1501,     1855,     1825,     1465,     1500,     1854,     1824,     1464
    1479,     1502,     1856,     1826,     1466,     1501,     1855,     1825,     1465
    1480,     1503,     1857,     1827,     1467,     1502,     1856,     1826,     1466
    1481,     1504,     1858,     1828,     1468,     1503,     1857,     1827,     1467
    1482,     1829,     1859,     1858,     1828,     1469,     1505,     1504,     1468
    1483,     1854,     1860,     1830,     1824,      146,      145,       96,       97
    1484,     1855,     1861,     1831,     1825,     1854,     1860,     1830,     1824
    1485,     1856,     1862,     1832,     1826,     1855,     1861,     1831,     1825
    1486,     1857,     1863,     1833,     1827,     1856,     1862,     1832,     1826
    1487,     1858,     1864,     1834,     1828,     1857,     1863,     1833,     1827
    1488,     1835,     1865,     1864,     1834,     1829,     1859,     1858,     1828
    1489,     1860,     1866,     1836,     1830,      145,      144,       95,       96
    1490,     1861,     1867,     1837,     1831,     1860,     1866,     1836,     1830
    1491,     1862,     1868,     1838,     1832,     1861,     1867,     1837,     1831
    1492,     1863,     1869,     1839,     1833,     1862,     1868,     1838,     1832
    1493,     1864,     1870,     1840,     1834,     1863,     1869,     1839,     1833
    1494,     1841,     1871,     1870,     1840,     1835,     1865,     1864,     1834
    1495,     1866,     1872,     1842,     1836,      144,      143,       94,       95
    1496,     1867,     1873,     1843,     1837,     1866,     1872,     1842,     1836
    1497,     1868,     1874,     1844,     1838,     1867,     1873,     1843,     1837
    1498,     1869,     1875,     1845,     1839,     1868,     1874,     1844,     1838
    1499,     1870,     1876,     1846,     1840,     1869,     1875,     1845,     1839
    1500,     1847,     1877,     1876,     1846,     1841,     1871,     1870,     1840
    1501,     1872,     1878,     1848,     1842,      143,      142,       93,       94
    1502,     1873,     1879,     1849,     1843,     1872,     1878,     1848,     1842
    1503,     1874,     1880,     1850,     1844,     1873,     1879,     1849,     1843
    1504,     1875,     1881,     1851,     1845,     1874,     1880,     1850,     1844
    1505,     1876,     1882,     1852,     1846,     1875,     1881,     1851,     1845
    1506,     1853,     1883,     1882,     1852,     1847,     1877,     1876,     1846
    1507,     1878,      624,      582,     1848,      142,      141,       92,       93
    1508,     1879,      625,      583,     1849,     1878,      624,      582,     1848
    1509,     1880,      626,      584,     1850,     1879,      625,      583,     1849
    1510,     1881,      627,      585,     1851,     1880,      626,      584,     1850
    1511,     1882,      628,      586,     1852,     1881,      627,      585,     1851
    1512,      628,      629,     1883,     1882,      586,      587,     1853,     1852
    1513,     1536,     1884,     1854,     1500,      196,      195,      146,      147
    1514,     1537,     1885,     1855,     1501,     1536,     1884,     1854,     1500
    1515,     1538,     1886,     1856,     1502,     1537,     1885,     1855,     1501
    1516,     1539,     1887,     1857,     1503,     1538,     1886,     1856,     1502
    1517,     1540,     1888,     1858,     1504,     1539,     1887,     1857,     1503
    1518,     1859,     1889,     1888,     1858,     1505,     1541,     1540,     1504
    1519,     1884,     1890,     1860,     1854,      195,      194,      145,      146
    1520,     1885,     1891,     1861,     1855,     1884,     1890,     1860,     1854
    1521,     1886,     1892,     1862,     1856,     1885,     1891,     1861,     1855
    1522,     1887,     1893,     1863,     1857,     1886,     1892,     1862,     1856
    1523,     1888,     1894,     1864,     1858,     1887,     1893,     1863,     1857
    1524,     1865,     1895,     1894,     1864,     1859,     1889,     1888,     1858
    1525,     1890,     1896,     1866,     1860,      194,      193,      144,      145
    1526,     1891,     1897,     1867,     1861,     1890,     1896,     1866,     1860
    1527,     1892,     1898,     1868,     1862,     1891,     1897,     1867,     1861
    1528,     1893,     1899,     1869,     1863,     1892,     1898,     1868,     1862
    1529,     1894,     1900,     1870,     1864,     1893,     1899,     1869,     1863
    1530,     1871,     1901,     1900,     1870,     1865,     1895,     1894,     1864
    1531,     1896,     1902,     1872,     1866,      193,      192,      143,      144
    1532,     1897,     1903,     1873,     1867,     1896,     1902,     1872,     1866
    1533,     1898,     1904,     1874,     1868,     1897,     1903,     1873,     1867
    1534,     1899,     1905,     1875,     1869,     1898,     1904,     1874,     1868
    1535,     1900,     1906,     1876,     1870,     1899,     1905,     1875,     1869
    1536,     1877,     1907,     1906,     1876,     1871,     1901,     1900,     1870
    1537,     1902,     1908,     1878,     1872,      192,      191,      142,      143
    1538,     1903,     1909,     1879,     1873,     1902,     1908,     1878,     1872
    1539,     1904,     1910,     1880,     1874,     1903,     1909,     1879,     1873
    1540,     1905,     1911,     1881,     1875,     1904,     1910,     1880,     1874
    1541,     1906,     1912,     1882,     1876,     1905,     1911,     1881,     1875
    1542,     1883,     1913,     1912,     1882,     1877,     1907,     1906,     1876
    1543,     1908,      666,      624,     1878,      191,      190,      141,      142
    1544,     1909,      667,      625,     1879,     1908,      666,      624,     1878
    1545,     1910,      668,      626,     1880,     1909,      667,      625,     1879
    1546,     1911,      669,      627,     1881,     1910,      668,      626,     1880
    1547,     1912,      670,      628,     1882,     1911,      669,      627,     1881
    1548,      670,      671,     1913,     1912,      628,      629,     1883,     1882
    1549,     1572,     1914,     1884,     1536,      245,      244,      195,      196
    1550,     1573,     1915,     1885,     1537,     1572,     1914,     1884,     1536
    1551,     1574,     1916,     1886,     1538,     1573,     1915,     1885,     1537
    1552,     1575,     1917,     1887,     1539,     1574,     1916,     1886,     1538
    1553,     1576,     1918,     1888,     1540,     1575,     1917,     1887,     1539
    1554,     1889,     1919,     1918,     1888,     1541,     1577,     1576,     1540
    1555,     1914,     1920,     1890,     1884,      244,      243,      194,      195
    1556,     1915,     1921,     1891,     1885,     1914,     1920,     1890,     1884
    1557,     1916,     1922,     1892,     1886,     1915,     1921,     1891,     1885
    1558,     1917,     1923,     1893,     1887,     1916,     1922,     1892,     1886
    1559,     1918,     1924,     1894,     1888,     1917,     1923,     1893,     1887
    1560,     1895,     1925,     1924,     1894,     1889,     1919,     1918,     1888
    1561,     1920,     1926,     1896,     1890,      243,      242,      193,      194
    1562,     1921,     1927,     1897,     1891,     1920,     1926,     1896,     1890
    1563,     1922,     1928,     1898,     1892,     1921,     1927,     1897,     1891
    1564,     1923,     1929,     1899,     1893,     1922,     1928,     1898,     1892
    1565,     1924,     1930,     1900,     1894,     1923,     1929,     1899,     1893
    1566,     1901,     1931,     1930,     1900,     1895,     1925,     1924,     1894
    1567,     1926,     1932,     1902,     1896,      242,      241,      192,      193
    1568,     1927,     1933,     1903,     1897,     1926,     1932,     1902,     1896
    1569,     1928,     1934,     1904,     1898,     1927,     1933,     1903,     1897
    1570,     1929,     1935,     1905,     1899,     1928,     1934,     1904,     1898
    1571,     1930,     1936,     1906,     1900,     1929,     1935,     1905,     1899
    1572,     1907,     1937,     1936,     1906,     1901,     1931,     1930,     1900
    1573,     1932,     1938,     1908,     1902,      241,      240,      191,      192
    1574,     1933,     1939,     1909,     1903,     1932,     1938,     1908,     1902
    1575,     1934,     1940,     1910,     1904,     1933,     1939,     1909,     1903
    1576,     1935,     1941,     1911,     1905,     1934,     1940,     1910,     1904
    1577,     1936,     1942,     1912,     1906,     1935,     1941,     1911,     1905
    1578,     1913,     1943,     1942,     1912,     1907,     1937,     1936,     1906
    1579,     1938,      708,      666,     1908,      240,      239,      190,      191
    1580,     1939,      709,      667,     1909,     1938,      708,      666,     1908
    1581,     1940,      710,      668,     1910,     1939,      709,      667,     1909
    1582,     1941,      711,      669,     1911,     1940,      710,      668,     1910
    1583,     1942,      712,      670,     1912,     1941,      711,      669,     1911
    1584,      712,      713,     1943,     1942,      670,      671,     1913,     1912
    1585,     1608,     1944,     1914,     1572,      294,      293,      244,      245
    1586,     1609,     1945,     1915,     1573,     1608,     1944,     1914,     1572
    1587,     1610,     1946,     1916,     1574,     1609,     1945,     1915,     1573
    1588,     1611,     1947,     1917,     1575,     1610,     1946,     1916,     1574
    1589,     1612,     1948,     1918,     1576,     1611,     1947,     1917,     1575
    1590,     1919,     1949,     1948,     1918,     1577,     1613,     1612,     1576
    1591,     1944,     1950,     1920,     1914,      293,      292,      243,      244
    1592,     1945,     1951,     1921,     1915,     1944,     1950,     1920,     1914
    1593,     1946,     1952,     1922,     1916,     1945,     1951,     1921,     1915
    1594,     1947,     1953,     1923,     1917,     1946,     1952,     1922,     1916
    1595,     1948,     1954,     1924,     1918,     1947,     1953,     1923,     1917
    1596,     1925,     1955,     1954,     1924,     1919,     1949,     1948,     1918
    1597,     1950,     1956,     1926,     1920,      292,      291,      242,      243
    1598,     1951,     1957,     1927,     1921,     1950,     1956,     1926,     1920
    1599,     1952,     1958,     1928,     1922,     1951,     1957,     1927,     1921
    1600,     1953,     1959,     1929,     1923,     1952,     1958,     1928,     1922
    1601,     1954,     1960,     1930,     1924,     1953,     1959,     1929,     1923
    1602,     1931,     1961,     1960,     1930,     1925,     1955,     1954,     1924
    1603,     1956,     1962,     1932,     1926,      291,      290,      241,      242
    1604,     1957,     1963,     1933,     1927,     1956,     1962,     1932,     1926
    1605,     1958,     1964,     1934,     1928,     1957,     1963,     1933,     1927
    1606,     1959,     1965,     1935,     1929,     1958,     1964,     1934,     1928
    1607,     1960,     1966,     1936,     1930,     1959,     1965,     1935,     1929
    1608,     1937,     1967,     1966,     1936,     1931,     1961,     1960,     1930
    1609,     1962,     1968,     1938,     1932,      290,      289,      240,      241
    1610,     1963,     1969,     1939,     1933,     1962,     1968,     1938,     1932
    1611,     1964,     1970,     1940,     1934,     1963,     1969,     1939,     1933
    1612,     1965,     1971,     1941,     1935,     1964,     1970,     1940,     1934
    1613,     1966,     1972,     1942,     1936,     1965,     1971,     1941,     1935
    1614,     1943,     1973,     1972,     1942,     1937,     1967,     1966,     1936
    1615,     1968,      750,      708,     1938,      289,      288,      239,      240
    1616,     1969,      751,      709,     1939,     1968,      750,      708,     1938
    1617,     1970,      752,      710,     1940,     1969,      751,      709,     1939
    1618,     1971,      753,      711,     1941,     1970,      752,      710,     1940
    1619,     1972,      754,      712,     1942,     1971,      753,      711,     1941
    1620,      754,      755,     1973,     1972,      712,      713,     1943,     1942
    1621,     1644,     1974,     1944,     1608,      343,      342,      293,      294
    1622,     1645,     1975,     1945,     1609,     1644,     1974,     1944,     1608
    1623,     1646,     1976,     1946,     1610,     1645,     1975,     1945,     1609
    1624,     1647,     1977,     1947,     1611,     1646,     1976,     1946,     1610
    1625,     1648,     1978,     1948,     1612,     1647,     1977,     1947,     1611
    1626,     1949,     1979,     1978,     1948,     1613,     1649,     1648,     1612
    1627,     1974,     1980,     1950,     1944,      342,      341,      292,      293
    1628,     1975,     1981,     1951,     1945,     1974,     1980,     1950,     1944
    1629,     1976,     1982,     1952,     1946,     1975,     1981,     1951,     1945
    1630,     1977,     1983,     1953,     1947,     1976,     1982,     1952,     1946
    1631,     1978,     1984,     1954,     1948,     1977,     1983,     1953,     1947
    1632,     1955,     1985,     1984,     1954,     1949,     1979,     1978,     1948
    1633,     1980,     1986,     1956,     1950,      341,      340,      291,      292
    1634,     1981,     1987,     1957,     1951,     1980,     1986,     1956,     1950
    1635,     1982,     1988,     1958,     1952,     1981,     1987,     1957,     1951
    1636,     1983,     1989,     1959,     1953,     1982,     1988,     1958,     1952
    1637,     1984,     1990,     1960,     1954,     1983,     1989,     1959,     1953
    1638,     1961,     1991,     1990,     1960,     1955,     1985,     1984,     1954
    1639,     1986,     1992,     1962,     1956,      340,      339,      290,      291
    1640,     1987,     1993,     1963,     1957,     1986,     1992,     1962,     1956
    1641,     1988,     1994,     1964,     1958,     1987,     1993,     1963,     1957
    1642,     1989,     1995,     1965,     1959,     1988,     1994,     1964,     1958
    1643,     1990,     1996,     1966,     1960,     1989,     1995,     1965,     1959
    1644,     1967,     1997,     1996,     1966,     1961,     1991,     1990,     1960
    1645,     1992,     1998,     1968,     1962,      339,      338,      289,      290
    1646,     1993,     1999,     1969,     1963,     1992,     1998,     1968,     1962
    1647,     1994,     2000,     1970,     1964,     1993,     1999,     1969,     1963
    1648,     1995,     2001,     1971,     1965,     1994,     2000,     1970,     1964
    1649,     1996,     2002,     1972,     1966,     1995,     2001,     1971,     1965
    1650,     1973,     2003,     2002,     1972,     1967,     1997,     1996,     1966
    1651,     1998,      792,      750,     1968,      338,      337,      288,      289
    1652,     1999,      793,      751,     1969,     1998,      792,      750,     1968
    1653,     2000,      794,      752,     1970,     1999,      793,      751,     1969
    1654,     2001,      795,      753,     1971,     2000,      794,      752,     1970
    1655,     2002,      796,      754,     1972,     2001,      795,      753,     1971
    1656,      796,      797,     2003,     2002,      754,      755,     1973,     1972
    1657,     1680,     2004,     1974,     1644,      392,      391,      342,      343
    1658,     1681,     2005,     1975,     1645,     1680,     2004,     1974,     1644
    1659,     1682,     2006,     1976,     1646,     1681,     2005,     1975,     1645
    1660,     1683,     2007,     1977,     1647,     1682,     2006,     1976,     1646
    1661,     1684,     2008,     1978,     1648,     1683,     2007,     1977,     1647
    1662,     1979,     2009,     2008,     1978,     1649,     1685,     1684,     1648
    1663,     2004,     2010,     1980,     1974,      391,      390,      341,      342
    1664,     2005,     2011,     1981,     1975,     2004,     2010,     1980,     1974
    1665,     2006,     2012,     1982,     1976,     2005,     2011,     1981,     1975
    1666,     2007,     2013,     1983,     1977,     2006,     2012,     1982,     1976
    1667,     2008,     2014,     1984,     1978,     2007,     2013,     1983,     1977
    1668,     1985,     2015,     2014,     1984,     1979,     2009,     2008,     1978
    1669,     2010,     2016,     1986,     1980,      390,      389,      340,      341
    1670,     2011,     2017,     1987,     1981,     2010,     2016,     1986,     1980
    1671,     2012,     2018,     1988,     1982,     2011,     2017,     1987,     1981
    1672,     2013,     2019,     1989,     1983,     2012,     2018,     1988,     1982
    1673,     2014,     2020,     1990,     1984,     2013,     2019,     1989,     1983
    1674,     1991,     2021,     2020,     1990,     1985,     2015,     2014,     1984
    1675,     2016,     2022,     1992,     1986,      389,      388,      339,      340
    1676,     2017,     2023,     1993,     1987,     2016,     2022,     1992,     1986
    1677,     2018,     2024,     1994,     1988,     2017,     2023,     1993,     1987
    1678,     2019,     2025,     1995,     1989,     2018,     2024,     1994,     1988
    1679,     2020,     2026,     1996,     1990,     2019,     2025,     1995,     1989
    1680,     1997,     2027,     2026,     1996,     1991,     2021,     2020,     1990
    1681,     2022,     2028,     1998,     1992,      388,      387,      338,      339
    1682,     2023,     2029,     1999,     1993,     2022,     2028,     1998,     1992
    1683,     2024,     2030,     2000,     1994,     2023,     2029,     1999,     1993
    1684,     2025,     2031,     2001,     1995,     2024,     2030,     2000,     1994
    1685,     2026,     2032,     2002,     1996,     2025,     2031,     2001,     1995
    1686,     2003,     2033,     2032,     2002,     1997,     2027,     2026,     1996
    1687,     2028,      834,      792,     1998,      387,      386,      337,      338
    1688,     2029,      835,      793,     1999,     2028,      834,      792,     1998
    1689,     2030,      836,      794,     2000,     2029,      835,      793,     1999
    1690,     2031,      837,      795,     2001,     2030,      836,      794,     2000
    1691,     2032,      838,      796,     2002,     2031,      837,      795,     2001
    1692,      838,      839,     2033,     2032,      796,      797,     2003,     2002
    1693,     1716,     2034,     2004,     1680,      441,      440,      391,      392
    1694,     1717,     2035,     2005,     1681,     1716,     2034,     2004,     1680
    1695,     1718,     2036,     2006,     1682,     1717,     2035,     2005,     1681
    1696,     1719,     2037,     2007,     1683,     1718,     2036,     2006,     1682
    1697,     1720,     2038,     2008,     1684,     1719,     2037,     2007,     1683
    1698,     2009,     2039,     2038,     2008,     1685,     1721,     1720,     1684
    1699,     2034,     2040,     2010,     2004,      440,      439,      390,      391
    1700,     2035,     2041,     2011,     2005,     2034,     2040,     2010,     2004
    1701,     2036,     2042,     2012,     2006,     2035,     2041,     2011,     2005
    1702,     2037,     2043,     2013,     2007,     2036,     2042,     2012,     2006
    1703,     2038,     2044,     2014,     2008,     2037,     2043,     2013,     2007
    1704,     2015,     2045,     2044,     2014,     2009,     2039,     2038,     2008
    1705,     2040,     2046,     2016,     2010,      439,      438,      389,      390
    1706,     2041,     2047,     2017,     2011,     2040,     2046,     2016,     2010
    1707,     2042,     2048,     2018,     2012,     2041,     2047,     2017,     2011
    1708,     2043,     2049,     2019,     2013,     2042,     2048,     2018,     2012
    1709,     2044,     2050,     2020,     2014,     2043,     2049,     2019,     2013
    1710,     2021,     2051,     2050,     2020,     2015,     2045,     2044,     2014
    1711,     2046,     2052,     2022,     2016,      438,      437,      388,      389
    1712,     2047,     2053,     2023,     2017,     2046,     2052,     2022,     2016
    1713,     2048,     2054,     2024,     2018,     2047,     2053,     2023,     2017
    1714,     2049,     2055,     2025,     2019,     2048,     2054,     2024,     2018
    1715,     2050,     2056,     2026,     2020,     2049,     2055,     2025,     2019
    1716,     2027,     2057,     2056,     2026,     2021,     2051,     2050,     2020
    1717,     2052,     2058,     2028,     2022,      437,      436,      387,      388
    1718,     2053,     2059,     2029,     2023,     2052,     2058,     2028,     2022
    1719,     2054,     2060,     2030,     2024,     2053,     2059,     2029,     2023
    1720,     2055,     2061,     2031,     2025,     2054,     2060,     2030,     2024
    1721,     2056,     2062,     2032,     2026,     2055,     2061,     2031,     2025
    1722,     2033,     2063,     2062,     2032,     2027,     2057,     2056,     2026
    1723,     2058,      876,      834,     2028,      436,      435,      386,      387
    1724,     2059,      877,      835,     2029,     2058,      876,      834,     2028
    1725,     2060,      878,      836,     2030,     2059,      877,      835,     2029
    1726,     2061,      879,      837,     2031,     2060,      878,      836,     2030
    1727,     2062,      880,      838,     2032,     2061,      879,      837,     2031
    1728,      880,      881,     2063,     2062,      838,      839,     2033,     2032
    1729,     1752,     2064,     2034,     1716,      490,      489,      440,      441
    1730,     1753,     2065,     2035,     1717,     1752,     2064,     2034,     1716
    1731,     1754,     2066,     2036,     1718,     1753,     2065,     2035,     1717
    1732,     1755,     2067,     2037,     1719,     1754,     2066,     2036,     1718
    1733,     1756,     2068,     2038,     1720,     1755,     2067,     2037,     1719
    1734,     2039,     2069,     2068,     2038,     1721,     1757,     1756,     1720
    1735,     2064,     2070,     2040,     2034,      489,      488,      439,      440
    1736,     2065,     2071,     2041,     2035,     2064,     2070,     2040,     2034
    1737,     2066,     2072,     2042,     2036,     2065,     2071,     2041,     2035
    1738,     2067,     2073,     2043,     2037,     2066,     2072,     2042,     2036
    1739,     2068,     2074,     2044,     2038,     2067,     2073,     2043,     2037
    1740,     2045,     2075,     2074,     2044,     2039,     2069,     2068,     2038
    1741,     2070,     2076,     2046,     2040,      488,      487,      438,      439
    1742,     2071,     2077,     2047,     2041,     2070,     2076,     2046,     2040
    1743,     2072,     2078,     2048,     2042,     2071,     2077,     2047,     2041
    1744,     2073,     2079,     2049,     2043,     2072,     2078,     2048,     2042
    1745,     2074,     2080,     2050,     2044,     2073,     2079,     2049,     2043
    1746,     2051,     2081,     2080,     2050,     2045,     2075,     2074,     2044
    1747,     2076,     2082,     2052,     2046,      487,      486,      437,      438
    1748,     2077,     2083,     2053,     2047,     2076,     2082,     2052,     2046
    1749,     2078,     2084,     2054,     2048,     2077,     2083,     2053,     2047
    1750,     2079,     2085,     2055,     2049,     2078,     2084,     2054,     2048
    1751,     2080,     2086,     2056,     2050,     2079,     2085,     2055,     2049
    1752,     2057,     2087,     2086,     2056,     2051,     2081,     2080,     2050
    1753,     2082,     2088,     2058,     2052,      486,      485,      436,      437
    1754,     2083,     2089,     2059,     2053,     2082,     2088,     2058,     2052
    1755,     2084,     2090,     2060,     2054,     2083,     2089,     2059,     2053
    1756,     2085,     2091,     2061,     2055,     2084,     2090,     2060,     2054
    1757,     2086,     2092,     2062,     2056,     2085,     2091,     2061,     2055
    1758,     2063,     2093,     2092,     2062,     2057,     2087,     2086,     2056
    1759,     2088,      918,      876,     2058,      485,      484,      435,      436
    1760,     2089,      919,      877,     2059,     2088,      918,      876,     2058
    1761,     2090,      920,      878,     2060,     2089,      919,      877,     2059
    1762,     2091,      921,      879,     2061,     2090,      920,      878,     2060
    1763,     2092,      922,      880,     2062,     2091,      921,      879,     2061
    1764,      922,      923,     2093,     2092,      880,      881,     2063,     2062
    1765,     1788,     2094,     2064,     1752,      539,      538,      489,      490
    1766,     1789,     2095,     2065,     1753,     1788,     2094,     2064,     1752
    1767,     1790,     2096,     2066,     1754,     1789,     2095,     2065,     1753
    1768,     1791,     2097,     2067,     1755,     1790,     2096,     2066,     1754
    1769,     1792,     2098,     2068,     1756,     1791,     2097,     2067,     1755
    1770,     2069,     2099,     2098,     2068,     1757,     1793,     1792,     1756
    1771,     2094,     2100,     2070,     2064,      538,      537,      488,      489
    1772,     2095,     2101,     2071,     2065,     2094,     2100,     2070,     2064
    1773,     2096,     2102,     2072,     2066,     2095,     2101,     2071,     2065
    1774,     2097,     2103,     2073,     2067,     2096,     2102,     2072,     2066
    1775,     2098,     2104,     2074,     2068,     2097,     2103,     2073,     2067
    1776,     2075,     2105,     2104,     2074,     2069,     2099,     2098,     2068
    1777,     2100,     2106,     2076,     2070,      537,      536,      487,      488
    1778,     2101,     2107,     2077,     2071,     2100,     2106,     2076,     2070
    1779,     2102,     2108,     2078,     2072,     2101,     2107,     2077,     2071
    1780,     2103,     2109,     2079,     2073,     2102,     2108,     2078,     2072
    1781,     2104,     2110,     2080,     2074,     2103,     2109,     2079,     2073
    1782,     2081,     2111,     2110,     2080,     2075,     2105,     2104,     2074
    1783,     2106,     2112,     2082,     2076,      536,      535,      486,      487
    1784,     2107,     2113,     2083,     2077,     2106,     2112,     2082,     2076
    1785,     2108,     2114,     2084,     2078,     2107,     2113,     2083,     2077
    1786,     2109,     2115,     2085,     2079,     2108,     2114,     2084,     2078
    1787,     2110,     2116,     2086,     2080,     2109,     2115,     2085,     2079
    1788,     2087,     2117,     2116,     2086,     2081,     2111,     2110,     2080
    1789,     2112,     2118,     2088,     2082,      535,      534,      485,      486
    1790,     2113,     2119,     2089,     2083,     2112,     2118,     2088,     2082
    1791,     2114,     2120,     2090,     2084,     2113,     2119,     2089,     2083
    1792,     2115,     2121,     2091,     2085,     2114,     2120,     2090,     2084
    1793,     2116,     2122,     2092,     2086,     2115,     2121,     2091,     2085
    1794,     2093,     2123,     2122,     2092,     2087,     2117,     2116,     2086
    1795,     2118,      960,      918,     2088,      534,      533,      484,      485
    1796,     2119,      961,      919,     2089,     2118,      960,      918,     2088
    1797,     2120,      962,      920,     2090,     2119,      961,      919,     2089
    1798,     2121,      963,      921,     2091,     2120,      962,      920,     2090
    1799,     2122,      964,      922,     2092,     2121,      963,      921,     2091
    1800,     2123,      965,      923,     2093,     2122,      964,      922,     2092
*ELEMENT, TYPE=C3D8I, ELSET=PIA
    1801,     2138,     2140,     2126,     2124,      587,      593,      551,      545
    1802,     2127,     2141,     2140,     2126,     2125,     2139,     2138,     2124
    1803,     2140,     2142,     2128,     2126,      593,      599,      557,      551
    1804,     2129,     2143,     2142,     2128,     2127,     2141,     2140,     2126
    1805,     2142,     2144,     2130,     2128,      599,      605,      563,      557
    1806,     2131,     2145,     2144,     2130,     2129,     2143,     2142,     2128
    1807,     2144,     2146,     2132,     2130,      605,      611,      569,      563
    1808,     2133,     2147,     2146,     2132,     2131,     2145,     2144,     2130
    1809,     2146,     2148,     2134,     2132,      611,      617,      575,      569
    1810,     2135,     2149,     2148,     2134,     2133,     2147,     2146,     2132
    1811,     2148,     2150,     2136,     2134,      617,      623,      581,      575
    1812,     2150,     2151,     2149,     2148,     2136,     2137,     2135,     2134
    1813,     2152,     2154,     2140,     2138,      629,      635,      593,      587
    1814,     2141,     2155,     2154,     2140,     2139,     2153,     2152,     2138
    1815,     2154,     2156,     2142,     2140,      635,      641,      599,      593
    1816,     2143,     2157,     2156,     2142,     2141,     2155,     2154,     2140
    1817,     2156,     2158,     2144,     2142,      641,      647,      605,      599
    1818,     2145,     2159,     2158,     2144,     2143,     2157,     2156,     2142
    1819,     2158,     2160,     2146,     2144,      647,      653,      611,      605
    1820,     2147,     2161,     2160,     2146,     2145,     2159,     2158,     2144
    1821,     2160,     2162,     2148,     2146,      653,      659,      617,      611
    1822,     2149,     2163,     2162,     2148,     2147,     2161,     2160,     2146
    1823,     2162,     2164,     2150,     2148,      659,      665,      623,      617
    1824,     2164,     2165,     2163,     2162,     2150,     2151,     2149,     2148
    1825,     2166,     2168,     2154,     2152,      671,      677,      635,      629
    1826,     2155,     2169,     2168,     2154,     2153,     2167,     2166,     2152
    1827,     2168,     2170,     2156,     2154,      677,      683,      641,      635
    1828,     2157,     2171,     2170,     2156,     2155,     2169,     2168,     2154
    1829,     2170,     2172,     2158,     2156,      683,      689,      647,      641
    1830,     2159,     2173,     2172,     2158,     2157,     2171,     2170,     2156
    1831,     2172,     2174,     2160,     2158,      689,      695,      653,      647
    1832,     2161,     2175,     2174,     2160,     2159,     2173,     2172,     2158
    1833,     2174,     2176,     2162,     2160,      695,      701,      659,      653
    1834,     2163,     2177,     2176,     2162,     2161,     2175,     2174,     2160
    1835,     2176,     2178,     2164,     2162,      701,      707,      665,      659
    1836,     2178,     2179,     2177,     2176,     2164,     2165,     2163,     2162
    1837,     2180,     2182,     2168,     2166,      713,      719,      677,      671
    1838,     2169,     2183,     2182,     2168,     2167,     2181,     2180,     2166
    1839,     2182,     2184,     2170,     2168,      719,      725,      683,      677
    1840,     2171,     2185,     2184,     2170,     2169,     2183,     2182,     2168
    1841,     2184,     2186,     2172,     2170,      725,      731,      689,      683
    1842,     2173,     2187,     2186,     2172,     2171,     2185,     2184,     2170
    1843,     2186,     2188,     2174,     2172,      731,      737,      695,      689
    1844,     2175,     2189,     2188,     2174,     2173,     2187,     2186,     2172
    1845,     2188,     2190,     2176,     2174,      737,      743,      701,      695
    1846,     2177,     2191,     2190,     2176,     2175,     2189,     2188,     2174
    1847,     2190,     2192,     2178,     2176,      743,      749,      707,      701
    1848,     2192,     2193,     2191,     2190,     2178,     2179,     2177,     2176
    1849,     2194,     2196,     2182,     2180,      755,      761,      719,      713
    1850,     2183,     2197,     2196,     2182,     2181,     2195,     2194,     2180
    1851,     2196,     2198,     2184,     2182,      761,      767,      725,      719
    1852,     2185,     2199,     2198,     2184,     2183,     2197,     2196,     2182
    1853,     2198,     2200,     2186,     2184,      767,      773,      731,      725
    1854,     2187,     2201,     2200,     2186,     2185,     2199,     2198,     2184
    1855,     2200,     2202,     2188,     2186,      773,      779,      737,      731
    1856,     2189,     2203,     2202,     2188,     2187,     2201,     2200,     2186
    1857,     2202,     2204,     2190,     2188,      779,      785,      743,      737
    1858,     2191,     2205,     2204,     2190,     2189,     2203,     2202,     2188
    1859,     2204,     2206,     2192,     2190,      785,      791,      749,      743
    1860,     2206,     2207,     2205,     2204,     2192,     2193,     2191,     2190
    1861,     2208,     2210,     2196,     2194,      797,      803,      761,      755
    1862,     2197,     2211,     2210,     2196,     2195,     2209,     2208,     2194
    1863,     2210,     2212,     2198,     2196,      803,      809,      767,      761
    1864,     2199,     2213,     2212,     2198,     2197,     2211,     2210,     2196
    1865,     2212,     2214,     2200,     2198,      809,      815,      773,      767
    1866,     2201,     2215,     2214,     2200,     2199,     2213,     2212,     2198
    1867,     2214,     2216,     2202,     2200,      815,      821,      779,      773
    1868,     2203,     2217,     2216,     2202,     2201,     2215,     2214,     2200
    1869,     2216,     2218,     2204,     2202,      821,      827,      785,      779
    1870,     2205,     2219,     2218,     2204,     2203,     2217,     2216,     2202
    1871,     2218,     2220,     2206,     2204,      827,      833,      791,      785
    1872,     2220,     2221,     2219,     2218,     2206,     2207,     2205,     2204
    1873,     2222,     2224,     2210,     2208,      839,      845,      803,      797
    1874,     2211,     2225,     2224,     2210,     2209,     2223,     2222,     2208
    1875,     2224,     2226,     2212,     2210,      845,      851,      809,      803
    1876,     2213,     2227,     2226,     2212,     2211,     2225,     2224,     2210
    1877,     2226,     2228,     2214,     2212,      851,      857,      815,      809
    1878,     2215,     2229,     2228,     2214,     2213,     2227,     2226,     2212
    1879,     2228,     2230,     2216,     2214,      857,      863,      821,      815
    1880,     2217,     2231,     2230,     2216,     2215,     2229,     2228,     2214
    1881,     2230,     2232,     2218,     2216,      863,      869,      827,      821
    1882,     2219,     2233,     2232,     2218,     2217,     2231,     2230,     2216
    1883,     2232,     2234,     2220,     2218,      869,      875,      833,      827
    1884,     2234,     2235,     2233,     2232,     2220,     2221,     2219,     2218
    1885,     2236,     2238,     2224,     2222,      881,      887,      845,      839
    1886,     2225,     2239,     2238,     2224,     2223,     2237,     2236,     2222
    1887,     2238,     2240,     2226,     2224,      887,      893,      851,      845
    1888,     2227,     2241,     2240,     2226,     2225,     2239,     2238,     2224
    1889,     2240,     2242,     2228,     2226,      893,      899,      857,      851
    1890,     2229,     2243,     2242,     2228,     2227,     2241,     2240,     2226
    1891,     2242,     2244,     2230,     2228,      899,      905,      863,      857
    1892,     2231,     2245,     2244,     2230,     2229,     2243,     2242,     2228
    1893,     2244,     2246,     2232,     2230,      905,      911,      869,      863
    1894,     2233,     2247,     2246,     2232,     2231,     2245,     2244,     2230
    1895,     2246,     2248,     2234,     2232,      911,      917,      875,      869
    1896,     2248,     2249,     2247,     2246,     2234,     2235,     2233,     2232
    1897,     2250,     2252,     2238,     2236,      923,      929,      887,      881
    1898,     2239,     2253,     2252,     2238,     2237,     2251,     2250,     2236
    1899,     2252,     2254,     2240,     2238,      929,      935,      893,      887
    1900,     2241,     2255,     2254,     2240,     2239,     2253,     2252,     2238
    1901,     2254,     2256,     2242,     2240,      935,      941,      899,      893
    1902,     2243,     2257,     2256,     2242,     2241,     2255,     2254,     2240
    1903,     2256,     2258,     2244,     2242,      941,      947,      905,      899
    1904,     2245,     2259,     2258,     2244,     2243,     2257,     2256,     2242
    1905,     2258,     2260,     2246,     2244,      947,      953,      911,      905
    1906,     2247,     2261,     2260,     2246,     2245,     2259,     2258,     2244
    1907,     2260,     2262,     2248,     2246,      953,      959,      917,      911
    1908,     2262,     2263,     2261,     2260,     2248,     2249,     2247,     2246
    1909,     2264,     2266,     2252,     2250,      965,      971,      929,      923
    1910,     2253,     2267,     2266,     2252,     2251,     2265,     2264,     2250
    1911,     2266,     2268,     2254,     2252,      971,      977,      935,      929
    1912,     2255,     2269,     2268,     2254,     2253,     2267,     2266,     2252
    1913,     2268,     2270,     2256,     2254,      977,      983,      941,      935
    1914,     2257,     2271,     2270,     2256,     2255,     2269,     2268,     2254
    1915,     2270,     2272,     2258,     2256,      983,      989,      947,      941
    1916,     2259,     2273,     2272,     2258,     2257,     2271,     2270,     2256
    1917,     2272,     2274,     2260,     2258,      989,      995,      953,      947
    1918,     2261,     2275,     2274,     2260,     2259,     2273,     2272,     2258
    1919,     2274,     2276,     2262,     2260,      995,     1001,      959,      953
    1920,     2263,     2277,     2276,     2262,     2261,     2275,     2274,     2260
    1921,     2150,     2290,     2278,     2136,      623,     1043,     1007,      581
    1922,     2279,     2291,     2290,     2278,     2137,     2151,     2150,     2136
    1923,     2290,     2292,     2280,     2278,     1043,     1049,     1013,     1007
    1924,     2281,     2293,     2292,     2280,     2279,     2291,     2290,     2278
    1925,     2292,     2294,     2282,     2280,     1049,     1055,     1019,     1013
    1926,     2283,     2295,     2294,     2282,     2281,     2293,     2292,     2280
    1927,     2294,     2296,     2284,     2282,     1055,     1061,     1025,     1019
    1928,     2285,     2297,     2296,     2284,     2283,     2295,     2294,     2282
    1929,     2296,     2298,     2286,     2284,     1061,     1067,     1031,     1025
    1930,     2287,     2299,     2298,     2286,     2285,     2297,     2296,     2284
    1931,     2298,     2300,     2288,     2286,     1067,     1073,     1037,     1031
    1932,     2300,     2301,     2299,     2298,     2288,     2289,     2287,     2286
    1933,     2164,     2302,     2290,     2150,      665,     1079,     1043,      623
    1934,     2291,     2303,     2302,     2290,     2151,     2165,     2164,     2150
    1935,     2302,     2304,     2292,     2290,     1079,     1085,     1049,     1043
    1936,     2293,     2305,     2304,     2292,     2291,     2303,     2302,     2290
    1937,     2304,     2306,     2294,     2292,     1085,     1091,     1055,     1049
    1938,     2295,     2307,     2306,     2294,     2293,     2305,     2304,     2292
    1939,     2306,     2308,     2296,     2294,     1091,     1097,     1061,     1055
    1940,     2297,     2309,     2308,     2296,     2295,     2307,     2306,     2294
    1941,     2308,     2310,     2298,     2296,     1097,     1103,     1067,     1061
    1942,     2299,     2311,     2310,     2298,     2297,     2309,     2308,     2296
    1943,     2310,     2312,     2300,     2298,     1103,     1109,     1073,     1067
    1944,     2312,     2313,     2311,     2310,     2300,     2301,     2299,     2298
    1945,     2178,     2314,     2302,     2164,      707,     1115,     1079,      665
    1946,     2303,     2315,     2314,     2302,     2165,     2179,     2178,     2164
    1947,     2314,     2316,     2304,     2302,     1115,     1121,     1085,     1079
    1948,     2305,     2317,     2316,     2304,     2303,     2315,     2314,     2302
    1949,     2316,     2318,     2306,     2304,     1121,     1127,     1091,     1085
    1950,     2307,     2319,     2318,     2306,     2305,     2317,     2316,     2304
    1951,     2318,     2320,     2308,     2306,     1127,     1133,     1097,     1091
    1952,     2309,     2321,     2320,     2308,     2307,     2319,     2318,     2306
    1953,     2320,     2322,     2310,     2308,     1133,     1139,     1103,     1097
    1954,     2311,     2323,     2322,     2310,     2309,     2321,     2320,     2308
    1955,     2322,     2324,     2312,     2310,     1139,     1145,     1109,     1103
    1956,     2324,     2325,     2323,     2322,     2312,     2313,     2311,     2310
    1957,     2192,     2326,     2314,     2178,      749,     1151,     1115,      707
    1958,     2315,     2327,     2326,     2314,     2179,     2193,     2192,     2178
    1959,     2326,     2328,     2316,     2314,     1151,     1157,     1121,     1115
    1960,     2317,     2329,     2328,     2316,     2315,     2327,     2326,     2314
    1961,     2328,     2330,     2318,     2316,     1157,     1163,     1127,     1121
    1962,     2319,     2331,     2330,     2318,     2317,     2329,     2328,     2316
    1963,     2330,     2332,     2320,     2318,     1163,     1169,     1133,     1127
    1964,     2321,     2333,     2332,     2320,     2319,     2331,     2330,     2318
    1965,     2332,     2334,     2322,     2320,     1169,     1175,     1139,     1133
    1966,     2323,     2335,     2334,     2322,     2321,     2333,     2332,     2320
    1967,     2334,     2336,     2324,     2322,     1175,     1181,     1145,     1139
    1968,     2336,     2337,     2335,     2334,     2324,     2325,     2323,     2322
    1969,     2206,     2338,     2326,     2192,      791,     1187,     1151,      749
    1970,     2327,     2339,     2338,     2326,     2193,     2207,     2206,     2192
    1971,     2338,     2340,     2328,     2326,     1187,     1193,     1157,     1151
    1972,     2329,     2341,     2340,     2328,     2327,     2339,     2338,     2326
    1973,     2340,     2342,     2330,     2328,     1193,     1199,     1163,     1157
    1974,     2331,     2343,     2342,     2330,     2329,     2341,     2340,     2328
    1975,     2342,     2344,     2332,     2330,     1199,     1205,     1169,     1163
    1976,     2333,     2345,     2344,     2332,     2331,     2343,     2342,     2330
    1977,     2344,     2346,     2334,     2332,     1205,     1211,     1175,     1169
    1978,     2335,     2347,     2346,     2334,     2333,     2345,     2344,     2332
    1979,     2346,     2348,     2336,     2334,     1211,     1217,     1181,     1175
    1980,     2348,     2349,     2347,     2346,     2336,     2337,     2335,     2334
    1981,     2220,     2350,     2338,     2206,      833,     1223,     1187,      791
    1982,     2339,     2351,     2350,     2338,     2207,     2221,     2220,     2206
    1983,     2350,     2352,     2340,     2338,     1223,     1229,     1193,     1187
    1984,     2341,     2353,     2352,     2340,     2339,     2351,     2350,     2338
    1985,     2352,     2354,     2342,     2340,     1229,     1235,     1199,     1193
    1986,     2343,     2355,     2354,     2342,     2341,     2353,     2352,     2340
    1987,     2354,     2356,     2344,     2342,     1235,     1241,     1205,     1199
    1988,     2345,     2357,     2356,     2344,     2343,     2355,     2354,     2342
    1989,     2356,     2358,     2346,     2344,     1241,     1247,     1211,     1205
    1990,     2347,     2359,     2358,     2346,     2345,     2357,     2356,     2344
    1991,     2358,     2360,     2348,     2346,     1247,     1253,     1217,     1211
    1992,     2360,     2361,     2359,     2358,     2348,     2349,     2347,     2346
    1993,     2234,     2362,     2350,     2220,      875,     1259,     1223,      833
    1994,     2351,     2363,     2362,     2350,     2221,     2235,     2234,     2220
    1995,     2362,     2364,     2352,     2350,     1259,     1265,     1229,     1223
    1996,     2353,     2365,     2364,     2352,     2351,     2363,     2362,     2350
    1997,     2364,     2366,     2354,     2352,     1265,     1271,     1235,     1229
    1998,     2355,     2367,     2366,     2354,     2353,     2365,     2364,     2352
    1999,     2366,     2368,     2356,     2354,     1271,     1277,     1241,     1235
    2000,     2357,     2369,     2368,     2356,     2355,     2367,     2366,     2354
    2001,     2368,     2370,     2358,     2356,     1277,     1283,     1247,     1241
    2002,     2359,     2371,     2370,     2358,     2357,     2369,     2368,     2356
    2003,     2370,     2372,     2360,     2358,     1283,     1289,     1253,     1247
    2004,     2372,     2373,     2371,     2370,     2360,     2361,     2359,     2358
    2005,     2248,     2374,     2362,     2234,      917,     1295,     1259,      875
    2006,     2363,     2375,     2374,     2362,     2235,     2249,     2248,     2234
    2007,     2374,     2376,     2364,     2362,     1295,     1301,     1265,     1259
    2008,     2365,     2377,     2376,     2364,     2363,     2375,     2374,     2362
    2009,     2376,     2378,     2366,     2364,     1301,     1307,     1271,     1265
    2010,     2367,     2379,     2378,     2366,     2365,     2377,     2376,     2364
    2011,     2378,     2380,     2368,     2366,     1307,     1313,     1277,     1271
    2012,     2369,     2381,     2380,     2368,     2367,     2379,     2378,     2366
    2013,     2380,     2382,     2370,     2368,     1313,     1319,     1283,     1277
    2014,     2371,     2383,     2382,     2370,     2369,     2381,     2380,     2368
    2015,     2382,     2384,     2372,     2370,     1319,     1325,     1289,     1283
    2016,     2384,     2385,     2383,     2382,     2372,     2373,     2371,     2370
    2017,     2262,     2386,     2374,     2248,      959,     1331,     1295,      917
    2018,     2375,     2387,     2386,     2374,     2249,     2263,     2262,     2248
    2019,     2386,     2388,     2376,     2374,     1331,     1337,     1301,     1295
    2020,     2377,     2389,     2388,     2376,     2375,     2387,     2386,     2374
    2021,     2388,     2390,     2378,     2376,     1337,     1343,     1307,     1301
    2022,     2379,     2391,     2390,     2378,     2377,     2389,     2388,     2376
    2023,     2390,     2392,     2380,     2378,     1343,     1349,     1313,     1307
    2024,     2381,     2393,     2392,     2380,     2379,     2391,     2390,     2378
    2025,     2392,     2394,     2382,     2380,     1349,     1355,     1319,     1313
    2026,     2383,     2395,     2394,     2382,     2381,     2393,     2392,     2380
    2027,     2394,     2396,     2384,     2382,     1355,     1361,     1325,     1319
    2028,     2396,     2397,     2395,     2394,     2384,     2385,     2383,     2382
    2029,     2276,     2398,     2386,     2262,     1001,     1367,     1331,      959
    2030,     2387,     2399,     2398,     2386,     2263,     2277,     2276,     2262
    2031,     2398,     2400,     2388,     2386,     1367,     1373,     1337,     1331
    2032,     2389,     2401,     2400,     2388,     2387,     2399,     2398,     2386
    2033,     2400,     2402,     2390,     2388,     1373,     1379,     1343,     1337
    2034,     2391,     2403,     2402,     2390,     2389,     2401,     2400,     2388
    2035,     2402,     2404,     2392,     2390,     1379,     1385,     1349,     1343
    2036,     2393,     2405,     2404,     2392,     2391,     2403,     2402,     2390
    2037,     2404,     2406,     2394,     2392,     1385,     1391,     1355,     1349
    2038,     2395,     2407,     2406,     2394,     2393,     2405,     2404,     2392
    2039,     2406,     2408,     2396,     2394,     1391,     1397,     1361,     1355
    2040,     2397,     2409,     2408,     2396,     2395,     2407,     2406,     2394
    2041,     2300,     2422,     2410,     2288,     1073,     1439,     1403,     1037
    2042,     2411,     2423,     2422,     2410,     2289,     2301,     2300,     2288
    2043,     2422,     2424,     2412,     2410,     1439,     1445,     1409,     1403
    2044,     2413,     2425,     2424,     2412,     2411,     2423,     2422,     2410
    2045,     2424,     2426,     2414,     2412,     1445,     1451,     1415,     1409
    2046,     2415,     2427,     2426,     2414,     2413,     2425,     2424,     2412
    2047,     2426,     2428,     2416,     2414,     1451,     1457,     1421,     1415
    2048,     2417,     2429,     2428,     2416,     2415,     2427,     2426,     2414
    2049,     2428,     2430,     2418,     2416,     1457,     1463,     1427,     1421
    2050,     2419,     2431,     2430,     2418,     2417,     2429,     2428,     2416
    2051,     2430,     2432,     2420,     2418,     1463,     1469,     1433,     1427
    2052,     2432,     2433,     2431,     2430,     2420,     2421,     2419,     2418
    2053,     2312,     2434,     2422,     2300,     1109,     1475,     1439,     1073
    2054,     2423,     2435,     2434,     2422,     2301,     2313,     2312,     2300
    2055,     2434,     2436,     2424,     2422,     1475,     1481,     1445,     1439
    2056,     2425,     2437,     2436,     2424,     2423,     2435,     2434,     2422
    2057,     2436,     2438,     2426,     2424,     1481,     1487,     1451,     1445
    2058,     2427,     2439,     2438,     2426,     2425,     2437,     2436,     2424
    2059,     2438,     2440,     2428,     2426,     1487,     1493,     1457,     1451
    2060,     2429,     2441,     2440,     2428,     2427,     2439,     2438,     2426
    2061,     2440,     2442,     2430,     2428,     1493,     1499,     1463,     1457
    2062,     2431,     2443,     2442,     2430,     2429,     2441,     2440,     2428
    2063,     2442,     2444,     2432,     2430,     1499,     1505,     1469,     1463
    2064,     2444,     2445,     2443,     2442,     2432,     2433,     2431,     2430
    2065,     2324,     2446,     2434,     2312,     1145,     1511,     1475,     1109
    2066,     2435,     2447,     2446,     2434,     2313,     2325,     2324,     2312
    2067,     2446,     2448,     2436,     2434,     1511,     1517,     1481,     1475
    2068,     2437,     2449,     2448,     2436,     2435,     2447,     2446,     2434
    2069,     2448,     2450,     2438,     2436,     1517,     1523,     1487,     1481
    2070,     2439,     2451,     2450,     2438,     2437,     2449,     2448,     2436
    2071,     2450,     2452,     2440,     2438,     1523,     1529,     1493,     1487
    2072,     2441,     2453,     2452,     2440,     2439,     2451,     2450,     2438
    2073,     2452,     2454,     2442,     2440,     1529,     1535,     1499,     1493
    2074,     2443,     2455,     2454,     2442,     2441,     2453,     2452,     2440
    2075,     2454,     2456,     2444,     2442,     1535,     1541,     1505,     1499
    2076,     2456,     2457,     2455,     2454,     2444,     2445,     2443,     2442
    2077,     2336,     2458,     2446,     2324,     1181,     1547,     1511,     1145
    2078,     2447,     2459,     2458,     2446,     2325,     2337,     2336,     2324
    2079,     2458,     2460,     2448,     2446,     1547,     1553,     1517,     1511
    2080,     2449,     2461,     2460,     2448,     2447,     2459,     2458,     2446
    2081,     2460,     2462,     2450,     2448,     1553,     1559,     1523,     1517
    2082,     2451,     2463,     2462,     2450,     2449,     2461,     2460,     2448
    2083,     2462,     2464,     2452,     2450,     1559,     1565,     1529,     1523
    2084,     2453,     2465,     2464,     2452,     2451,     2463,     2462,     2450
    2085,     2464,     2466,     2454,     2452,     1565,     1571,     1535,     1529
    2086,     2455,     2467,     2466,     2454,     2453,     2465,     2464,     2452
    2087,     2466,     2468,     2456,     2454,     1571,     1577,     1541,     1535
    2088,     2468,     2469,     2467,     2466,     2456,     2457,     2455,     2454
    2089,     2348,     2470,     2458,     2336,     1217,     1583,     1547,     1181
    2090,     2459,     2471,     2470,     2458,     2337,     2349,     2348,     2336
    2091,     2470,     2472,     2460,     2458,     1583,     1589,     1553,     1547
    2092,     2461,     2473,     2472,     2460,     2459,     2471,     2470,     2458
    2093,     2472,     2474,     2462,     2460,     1589,     1595,     1559,     1553
    2094,     2463,     2475,     2474,     2462,     2461,     2473,     2472,     2460
    2095,     2474,     2476,     2464,     2462,     1595,     1601,     1565,     1559
    2096,     2465,     2477,     2476,     2464,     2463,     2475,     2474,     2462
    2097,     2476,     2478,     2466,     2464,     1601,     1607,     1571,     1565
    2098,     2467,     2479,     2478,     2466,     2465,     2477,     2476,     2464
    2099,     2478,     2480,     2468,     2466,     1607,     1613,     1577,     1571
    2100,     2480,     2481,     2479,     2478,     2468,     2469,     2467,     2466
    2101,     2360,     2482,     2470,     2348,     1253,     1619,     1583,     1217
    2102,     2471,     2483,     2482,     2470,     2349,     2361,     2360,     2348
    2103,     2482,     2484,     2472,     2470,     1619,     1625,     1589,     1583
    2104,     2473,     2485,     2484,     2472,     2471,     2483,     2482,     2470
    2105,     2484,     2486,     2474,     2472,     1625,     1631,     1595,     1589
    2106,     2475,     2487,     2486,     2474,     2473,     2485,     2484,     2472
    2107,     2486,     2488,     2476,     2474,     1631,     1637,     1601,     1595
    2108,     2477,     2489,     2488,     2476,     2475,     2487,     2486,     2474
    2109,     2488,     2490,     2478,     2476,     1637,     1643,     1607,     1601
    2110,     2479,     2491,     2490,     2478,     2477,     2489,     2488,     2476
    2111,     2490,     2492,     2480,     2478,     1643,     1649,     1613,     1607
    2112,     2492,     2493,     2491,     2490,     2480,     2481,     2479,     2478
    2113,     2372,     2494,     2482,     2360,     1289,     1655,     1619,     1253
    2114,     2483,     2495,     2494,     2482,     2361,     2373,     2372,     2360
    2115,     2494,     2496,     2484,     2482,     1655,     1661,     1625,     1619
    2116,     2485,     2497,     2496,     2484,     2483,     2495,     2494,     2482
    2117,     2496,     2498,     2486,     2484,     1661,     1667,     1631,     1625
    2118,     2487,     2499,     2498,     2486,     2485,     2497,     2496,     2484
    2119,     2498,     2500,     2488,     2486,     1667,     1673,     1637,     1631
    2120,     2489,     2501,     2500,     2488,     2487,     2499,     2498,     2486
    2121,     2500,     2502,     2490,     2488,     1673,     1679,     1643,     1637
    2122,     2491,     2503,     2502,     2490,     2489,     2501,     2500,     2488
    2123,     2502,     2504,     2492,     2490,     1679,     1685,     1649,     1643
    2124,     2504,     2505,     2503,     2502,     2492,     2493,     2491,     2490
    2125,     2384,     2506,     2494,     2372,     1325,     1691,     1655,     1289
    2126,     2495,     2507,     2506,     2494,     2373,     2385,     2384,     2372
    2127,     2506,     2508,     2496,     2494,     1691,     1697,     1661,     1655
    2128,     2497,     2509,     2508,     2496,     2495,     2507,     2506,     2494
    2129,     2508,     2510,     2498,     2496,     1697,     1703,     1667,     1661
    2130,     2499,     2511,     2510,     2498,     2497,     2509,     2508,     2496
    2131,     2510,     2512,     2500,     2498,     1703,     1709,     1673,     1667
    2132,     2501,     2513,     2512,     2500,     2499,     2511,     2510,     2498
    2133,     2512,     2514,     2502,     2500,     1709,     1715,     1679,     1673
    2134,     2503,     2515,     2514,     2502,     2501,     2513,     2512,     2500
    2135,     2514,     2516,     2504,     2502,     1715,     1721,     1685,     1679
    2136,     2516,     2517,     2515,     2514,     2504,     2505,     2503,     2502
    2137,     2396,     2518,     2506,     2384,     1361,     1727,     1691,     1325
    2138,     2507,     2519,     2518,     2506,     2385,     2397,     2396,     2384
    2139,     2518,     2520,     2508,     2506,     1727,     1733,     1697,     1691
    2140,     2509,     2521,     2520,     2508,     2507,     2519,     2518,     2506
    2141,     2520,     2522,     2510,     2508,     1733,     1739,     1703,     1697
    2142,     2511,     2523,     2522,     2510,     2509,     2521,     2520,     2508
    2143,     2522,     2524,     2512,     2510,     1739,     1745,     1709,     1703
    2144,     2513,     2525,     2524,     2512,     2511,     2523,     2522,     2510
    2145,     2524,     2526,     2514,     2512,     1745,     1751,     1715,     1709
    2146,     2515,     2527,     2526,     2514,     2513,     2525,     2524,     2512
    2147,     2526,     2528,     2516,     2514,     1751,     1757,     1721,     1715
    2148,     2528,     2529,     2527,     2526,     2516,     2517,     2515,     2514
    2149,     2408,     2530,     2518,     2396,     1397,     1763,     1727,     1361
    2150,     2519,     2531,     2530,     2518,     2397,     2409,     2408,     2396
    2151,     2530,     2532,     2520,     2518,     1763,     1769,     1733,     1727
    2152,     2521,     2533,     2532,     2520,     2519,     2531,     2530,     2518
    2153,     2532,     2534,     2522,     2520,     1769,     1775,     1739,     1733
    2154,     2523,     2535,     2534,     2522,     2521,     2533,     2532,     2520
    2155,     2534,     2536,     2524,     2522,     1775,     1781,     1745,     1739
    2156,     2525,     2537,     2536,     2524,     2523,     2535,     2534,     2522
    2157,     2536,     2538,     2526,     2524,     1781,     1787,     1751,     1745
    2158,     2527,     2539,     2538,     2526,     2525,     2537,     2536,     2524
    2159,     2538,     2540,     2528,     2526,     1787,     1793,     1757,     1751
    2160,     2529,     2541,     2540,     2528,     2527,     2539,     2538,     2526
    2161,     2432,     2552,     2542,     2420,     1469,     1829,     1799,     1433
    2162,     2543,     2553,     2552,     2542,     2421,     2433,     2432,     2420
    2163,     2552,     2554,     2544,     2542,     1829,     1835,     1805,     1799
    2164,     2545,     2555,     2554,     2544,     2543,     2553,     2552,     2542
    2165,     2554,     2556,     2546,     2544,     1835,     1841,     1811,     1805
    2166,     2547,     2557,     2556,     2546,     2545,     2555,     2554,     2544
    2167,     2556,     2558,     2548,     2546,     1841,     1847,     1817,     1811
    2168,     2549,     2559,     2558,     2548,     2547,     2557,     2556,     2546
    2169,     2558,     2560,     2550,     2548,     1847,     1853,     1823,     1817
    2170,     2551,     2561,     2560,     2550,     2549,     2559,     2558,     2548
    2171,     2560,     2138,     2124,     2550,     1853,      587,      545,     1823
    2172,     2138,     2139,     2561,     2560,     2124,     2125,     2551,     2550
    2173,     2444,     2562,     2552,     2432,     1505,     1859,     1829,     1469
    2174,     2553,     2563,     2562,     2552,     2433,     2445,     2444,     2432
    2175,     2562,     2564,     2554,     2552,     1859,     1865,     1835,     1829
    2176,     2555,     2565,     2564,     2554,     2553,     2563,     2562,     2552
    2177,     2564,     2566,     2556,     2554,     1865,     1871,     1841,     1835
    2178,     2557,     2567,     2566,     2556,     2555,     2565,     2564,     2554
    2179,     2566,     2568,     2558,     2556,     1871,     1877,     1847,     1841
    2180,     2559,     2569,     2568,     2558,     2557,     2567,     2566,     2556
    2181,     2568,     2570,     2560,     2558,     1877,     1883,     1853,     1847
    2182,     2561,     2571,     2570,     2560,     2559,     2569,     2568,     2558
    2183,     2570,     2152,     2138,     2560,     1883,      629,      587,     1853
    2184,     2152,     2153,     2571,     2570,     2138,     2139,     2561,     2560
    2185,     2456,     2572,     2562,     2444,     1541,     1889,     1859,     1505
    2186,     2563,     2573,     2572,     2562,     2445,     2457,     2456,     2444
    2187,     2572,     2574,     2564,     2562,     1889,     1895,     1865,     1859
    2188,     2565,     2575,     2574,     2564,     2563,     2573,     2572,     2562
    2189,     2574,     2576,     2566,     2564,     1895,     1901,     1871,     1865
    2190,     2567,     2577,     2576,     2566,     2565,     2575,     2574,     2564
    2191,     2576,     2578,     2568,     2566,     1901,     1907,     1877,     1871
    2192,     2569,     2579,     2578,     2568,     2567,     2577,     2576,     2566
    2193,     2578,     2580,     2570,     2568,     1907,     1913,     1883,     1877
    2194,     2571,     2581,     2580,     2570,     2569,     2579,     2578,     2568
    2195,     2580,     2166,     2152,     2570,     1913,      671,      629,     1883
    2196,     2166,     2167,     2581,     2580,     2152,     2153,     2571,     2570
    2197,     2468,     2582,     2572,     2456,     1577,     1919,     1889,     1541
    2198,     2573,     2583,     2582,     2572,     2457,     2469,     2468,     2456
    2199,     2582,     2584,     2574,     2572,     1919,     1925,     1895,     1889
    2200,     2575,     2585,     2584,     2574,     2573,     2583,     2582,     2572
    2201,     2584,     2586,     2576,     2574,     1925,     1931,     1901,     1895
    2202,     2577,     2587,     2586,     2576,     2575,     2585,     2584,     2574
    2203,     2586,     2588,     2578,     2576,     1931,     1937,     1907,     1901
    2204,     2579,     2589,     2588,     2578,     2577,     2587,     2586,     2576
    2205,     2588,     2590,     2580,     2578,     1937,     1943,     1913,     1907
    2206,     2581,     2591,     2590,     2580,     2579,     2589,     2588,     2578
    2207,     2590,     2180,     2166,     2580,     1943,      713,      671,     1913
    2208,     2180,     2181,     2591,     2590,     2166,     2167,     2581,     2580
    2209,     2480,     2592,     2582,     2468,     1613,     1949,     1919,     1577
    2210,     2583,     2593,     2592,     2582,     2469,     2481,     2480,     2468
    2211,     2592,     2594,     2584,     2582,     1949,     1955,     1925,     1919
    2212,     2585,     2595,     2594,     2584,     2583,     2593,     2592,     2582
    2213,     2594,     2596,     2586,     2584,     1955,     1961,     1931,     1925
    2214,     2587,     2597,     2596,     2586,     2585,     2595,     2594,     2584
    2215,     2596,     2598,     2588,     2586,     1961,     1967,     1937,     1931
    2216,     2589,     2599,     2598,     2588,     2587,     2597,     2596,     2586
    2217,     2598,     2600,     2590,     2588,     1967,     1973,     1943,     1937
    2218,     2591,     2601,     2600,     2590,     2589,     2599,     2598,     2588
    2219,     2600,     2194,     2180,     2590,     1973,      755,      713,     1943
    2220,     2194,     2195,     2601,     2600,     2180,     2181,     2591,     2590
    2221,     2492,     2602,     2592,     2480,     1649,     1979,     1949,     1613
    2222,     2593,     2603,     2602,     2592,     2481,     2493,     2492,     2480
    2223,     2602,     2604,     2594,     2592,     1979,     1985,     1955,     1949
    2224,     2595,     2605,     2604,     2594,     2593,     2603,     2602,     2592
    2225,     2604,     2606,     2596,     2594,     1985,     1991,     1961,     1955
    2226,     2597,     2607,     2606,     2596,     2595,     2605,     2604,     2594
    2227,     2606,     2608,     2598,     2596,     1991,     1997,     1967,     1961
    2228,     2599,     2609,     2608,     2598,     2597,     2607,     2606,     2596
    2229,     2608,     2610,     2600,     2598,     1997,     2003,     1973,     1967
    2230,     2601,     2611,     2610,     2600,     2599,     2609,     2608,     2598
    2231,     2610,     2208,     2194,     2600,     2003,      797,      755,     1973
    2232,     2208,     2209,     2611,     2610,     2194,     2195,     2601,     2600
    2233,     2504,     2612,     2602,     2492,     1685,     2009,     1979,     1649
    2234,     2603,     2613,     2612,     2602,     2493,     2505,     2504,     2492
    2235,     2612,     2614,     2604,     2602,     2009,     2015,     1985,     1979
    2236,     2605,     2615,     2614,     2604,     2603,     2613,     2612,     2602
    2237,     2614,     2616,     2606,     2604,     2015,     2021,     1991,     1985
    2238,     2607,     2617,     2616,     2606,     2605,     2615,     2614,     2604
    2239,     2616,     2618,     2608,     2606,     2021,     2027,     1997,     1991
    2240,     2609,     2619,     2618,     2608,     2607,     2617,     2616,     2606
    2241,     2618,     2620,     2610,     2608,     2027,     2033,     2003,     1997
    2242,     2611,     2621,     2620,     2610,     2609,     2619,     2618,     2608
    2243,     2620,     2222,     2208,     2610,     2033,      839,      797,     2003
    2244,     2222,     2223,     2621,     2620,     2208,     2209,     2611,     2610
    2245,     2516,     2622,     2612,     2504,     1721,     2039,     2009,     1685
    2246,     2613,     2623,     2622,     2612,     2505,     2517,     2516,     2504
    2247,     2622,     2624,     2614,     2612,     2039,     2045,     2015,     2009
    2248,     2615,     2625,     2624,     2614,     2613,     2623,     2622,     2612
    2249,     2624,     2626,     2616,     2614,     2045,     2051,     2021,     2015
    2250,     2617,     2627,     2626,     2616,     2615,     2625,     2624,     2614
    2251,     2626,     2628,     2618,     2616,     2051,     2057,     2027,     2021
    2252,     2619,     2629,     2628,     2618,     2617,     2627,     2626,     2616
    2253,     2628,     2630,     2620,     2618,     2057,     2063,     2033,     2027
    2254,     2621,     2631,     2630,     2620,     2619,     2629,     2628,     2618
    2255,     2630,     2236,     2222,     2620,     2063,      881,      839,     2033
    2256,     2236,     2237,     2631,     2630,     2222,     2223,     2621,     2620
    2257,     2528,     2632,     2622,     2516,     1757,     2069,     2039,     1721
    2258,     2623,     2633,     2632,     2622,     2517,     2529,     2528,     2516
    2259,     2632,     2634,     2624,     2622,     2069,     2075,     2045,     2039
    2260,     2625,     2635,     2634,     2624,     2623,     2633,     2632,     2622
    2261,     2634,     2636,     2626,     2624,     2075,     2081,     2051,     2045
    2262,     2627,     2637,     2636,     2626,     2625,     2635,     2634,     2624
    2263,     2636,     2638,     2628,     2626,     2081,     2087,     2057,     2051
    2264,     2629,     2639,     2638,     2628,     2627,     2637,     2636,     2626
    2265,     2638,     2640,     2630,     2628,     2087,     2093,     2063,     2057
    2266,     2631,     2641,     2640,     2630,     2629,     2639,     2638,     2628
    2267,     2640,     2250,     2236,     2630,     2093,      923,      881,     2063
    2268,     2250,     2251,     2641,     2640,     2236,     2237,     2631,     2630
    2269,     2540,     2642,     2632,     2528,     1793,     2099,     2069,     1757
    2270,     2633,     2643,     2642,     2632,     2529,     2541,     2540,     2528
    2271,     2642,     2644,     2634,     2632,     2099,     2105,     2075,     2069
    2272,     2635,     2645,     2644,     2634,     2633,     2643,     2642,     2632
    2273,     2644,     2646,     2636,     2634,     2105,     2111,     2081,     2075
    2274,     2637,     2647,     2646,     2636,     2635,     2645,     2644,     2634
    2275,     2646,     2648,     2638,     2636,     2111,     2117,     2087,     2081
    2276,     2639,     2649,     2648,     2638,     2637,     2647,     2646,     2636
    2277,     2648,     2650,     2640,     2638,     2117,     2123,     2093,     2087
    2278,     2641,     2651,     2650,     2640,     2639,     2649,     2648,     2638
    2279,     2650,     2264,     2250,     2640,     2123,      965,      923,     2093
    2280,     2651,     2265,     2251,     2641,     2650,     2264,     2250,     2640
*ELEMENT, TYPE=C3D8I, ELSET=SAS
    2281,     2673,     2676,     2655,     2652,     2139,     2141,     2127,     2125
    2282,     2674,     2677,     2656,     2653,     2673,     2676,     2655,     2652
    2283,     2657,     2678,     2677,     2656,     2654,     2675,     2674,     2653
    2284,     2676,     2679,     2658,     2655,     2141,     2143,     2129,     2127
    2285,     2677,     2680,     2659,     2656,     2676,     2679,     2658,     2655
    2286,     2660,     2681,     2680,     2659,     2657,     2678,     2677,     2656
    2287,     2679,     2682,     2661,     2658,     2143,     2145,     2131,     2129
    2288,     2680,     2683,     2662,     2659,     2679,     2682,     2661,     2658
    2289,     2663,     2684,     2683,     2662,     2660,     2681,     2680,     2659
    2290,     2682,     2685,     2664,     2661,     2145,     2147,     2133,     2131
    2291,     2683,     2686,     2665,     2662,     2682,     2685,     2664,     2661
    2292,     2666,     2687,     2686,     2665,     2663,     2684,     2683,     2662
    2293,     2685,     2688,     2667,     2664,     2147,     2149,     2135,     2133
    2294,     2686,     2689,     2668,     2665,     2685,     2688,     2667,     2664
    2295,     2669,     2690,     2689,     2668,     2666,     2687,     2686,     2665
    2296,     2688,     2691,     2670,     2667,     2149,     2151,     2137,     2135
    2297,     2689,     2692,     2671,     2668,     2688,     2691,     2670,     2667
    2298,     2692,     2693,     2690,     2689,     2671,     2672,     2669,     2668
    2299,     2694,     2697,     2676,     2673,     2153,     2155,     2141,     2139
    2300,     2695,     2698,     2677,     2674,     2694,     2697,     2676,     2673
    2301,     2678,     2699,     2698,     2677,     2675,     2696,     2695,     2674
    2302,     2697,     2700,     2679,     2676,     2155,     2157,     2143,     2141
    2303,     2698,     2701,     2680,     2677,     2697,     2700,     2679,     2676
    2304,     2681,     2702,     2701,     2680,     2678,     2699,     2698,     2677
    2305,     2700,     2703,     2682,     2679,     2157,     2159,     2145,     2143
    2306,     2701,     2704,     2683,     2680,     2700,     2703,     2682,     2679
    2307,     2684,     2705,     2704,     2683,     2681,     2702,     2701,     2680
    2308,     2703,     2706,     2685,     2682,     2159,     2161,     2147,     2145
    2309,     2704,     2707,     2686,     2683,     2703,     2706,     2685,     2682
    2310,     2687,     2708,     2707,     2686,     2684,     2705,     2704,     2683
    2311,     2706,     2709,     2688,     2685,     2161,     2163,     2149,     2147
    2312,     2707,     2710,     2689,     2686,     2706,     2709,     2688,     2685
    2313,     2690,     2711,     2710,     2689,     2687,     2708,     2707,     2686
    2314,     2709,     2712,     2691,     2688,     2163,     2165,     2151,     2149
    2315,     2710,     2713,     2692,     2689,     2709,     2712,     2691,     2688
    2316,     2713,     2714,     2711,     2710,     2692,     2693,     2690,     2689
    2317,     2715,     2718,     2697,     2694,     2167,     2169,     2155,     2153
    2318,     2716,     2719,     2698,     2695,     2715,     2718,     2697,     2694
    2319,     2699,     2720,     2719,     2698,     2696,     2717,     2716,     2695
    2320,     2718,     2721,     2700,     2697,     2169,     2171,     2157,     2155
    2321,     2719,     2722,     2701,     2698,     2718,     2721,     2700,     2697
    2322,     2702,     2723,     2722,     2701,     2699,     2720,     2719,     2698
    2323,     2721,     2724,     2703,     2700,     2171,     2173,     2159,     2157
    2324,     2722,     2725,     2704,     2701,     2721,     2724,     2703,     2700
    2325,     2705,     2726,     2725,     2704,     2702,     2723,     2722,     2701
    2326,     2724,     2727,     2706,     2703,     2173,     2175,     2161,     2159
    2327,     2725,     2728,     2707,     2704,     2724,     2727,     2706,     2703
    2328,     2708,     2729,     2728,     2707,     2705,     2726,     2725,     2704
    2329,     2727,     2730,     2709,     2706,     2175,     2177,     2163,     2161
    2330,     2728,     2731,     2710,     2707,     2727,     2730,     2709,     2706
    2331,     2711,     2732,     2731,     2710,     2708,     2729,     2728,     2707
    2332,     2730,     2733,     2712,     2709,     2177,     2179,     2165,     2163
    2333,     2731,     2734,     2713,     2710,     2730,     2733,     2712,     2709
    2334,     2734,     2735,     2732,     2731,     2713,     2714,     2711,     2710
    2335,     2736,     2739,     2718,     2715,     2181,     2183,     2169,     2167
    2336,     2737,     2740,     2719,     2716,     2736,     2739,     2718,     2715
    2337,     2720,     2741,     2740,     2719,     2717,     2738,     2737,     2716
    2338,     2739,     2742,     2721,     2718,     2183,     2185,     2171,     2169
    2339,     2740,     2743,     2722,     2719,     2739,     2742,     2721,     2718
    2340,     2723,     2744,     2743,     2722,     2720,     2741,     2740,     2719
    2341,     2742,     2745,     2724,     2721,     2185,     2187,     2173,     2171
    2342,     2743,     2746,     2725,     2722,     2742,     2745,     2724,     2721
    2343,     2726,     2747,     2746,     2725,     2723,     2744,     2743,     2722
    2344,     2745,     2748,     2727,     2724,     2187,     2189,     2175,     2173
    2345,     2746,     2749,     2728,     2725,     2745,     2748,     2727,     2724
    2346,     2729,     2750,     2749,     2728,     2726,     2747,     2746,     2725
    2347,     2748,     2751,     2730,     2727,     2189,     2191,     2177,     2175
    2348,     2749,     2752,     2731,     2728,     2748,     2751,     2730,     2727
    2349,     2732,     2753,     2752,     2731,     2729,     2750,     2749,     2728
    2350,     2751,     2754,     2733,     2730,     2191,     2193,     2179,     2177
    2351,     2752,     2755,     2734,     2731,     2751,     2754,     2733,     2730
    2352,     2755,     2756,     2753,     2752,     2734,     2735,     2732,     2731
    2353,     2757,     2760,     2739,     2736,     2195,     2197,     2183,     2181
    2354,     2758,     2761,     2740,     2737,     2757,     2760,     2739,     2736
    2355,     2741,     2762,     2761,     2740,     2738,     2759,     2758,     2737
    2356,     2760,     2763,     2742,     2739,     2197,     2199,     2185,     2183
    2357,     2761,     2764,     2743,     2740,     2760,     2763,     2742,     2739
    2358,     2744,     2765,     2764,     2743,     2741,     2762,     2761,     2740
    2359,     2763,     2766,     2745,     2742,     2199,     2201,     2187,     2185
    2360,     2764,     2767,     2746,     2743,     2763,     2766,     2745,     2742
    2361,     2747,     2768,     2767,     2746,     2744,     2765,     2764,     2743
    2362,     2766,     2769,     2748,     2745,     2201,     2203,     2189,     2187
    2363,     2767,     2770,     2749,     2746,     2766,     2769,     2748,     2745
    2364,     2750,     2771,     2770,     2749,     2747,     2768,     2767,     2746
    2365,     2769,     2772,     2751,     2748,     2203,     2205,     2191,     2189
    2366,     2770,     2773,     2752,     2749,     2769,     2772,     2751,     2748
    2367,     2753,     2774,     2773,     2752,     2750,     2771,     2770,     2749
    2368,     2772,     2775,     2754,     2751,     2205,     2207,     2193,     2191
    2369,     2773,     2776,     2755,     2752,     2772,     2775,     2754,     2751
    2370,     2776,     2777,     2774,     2773,     2755,     2756,     2753,     2752
    2371,     2778,     2781,     2760,     2757,     2209,     2211,     2197,     2195
    2372,     2779,     2782,     2761,     2758,     2778,     2781,     2760,     2757
    2373,     2762,     2783,     2782,     2761,     2759,     2780,     2779,     2758
    2374,     2781,     2784,     2763,     2760,     2211,     2213,     2199,     2197
    2375,     2782,     2785,     2764,     2761,     2781,     2784,     2763,     2760
    2376,     2765,     2786,     2785,     2764,     2762,     2783,     2782,     2761
    2377,     2784,     2787,     2766,     2763,     2213,     2215,     2201,     2199
    2378,     2785,     2788,     2767,     2764,     2784,     2787,     2766,     2763
    2379,     2768,     2789,     2788,     2767,     2765,     2786,     2785,     2764
    2380,     2787,     2790,     2769,     2766,     2215,     2217,     2203,     2201
    2381,     2788,     2791,     2770,     2767,     2787,     2790,     2769,     2766
    2382,     2771,     2792,     2791,     2770,     2768,     2789,     2788,     2767
    2383,     2790,     2793,     2772,     2769,     2217,     2219,     2205,     2203
    2384,     2791,     2794,     2773,     2770,     2790,     2793,     2772,     2769
    2385,     2774,     2795,     2794,     2773,     2771,     2792,     2791,     2770
    2386,     2793,     2796,     2775,     2772,     2219,     2221,     2207,     2205
    2387,     2794,     2797,     2776,     2773,     2793,     2796,     2775,     2772
    2388,     2797,     2798,     2795,     2794,     2776,     2777,     2774,     2773
    2389,     2799,     2802,     2781,     2778,     2223,     2225,     2211,     2209
    2390,     2800,     2803,     2782,     2779,     2799,     2802,     2781,     2778
    2391,     2783,     2804,     2803,     2782,     2780,     2801,     2800,     2779
    2392,     2802,     2805,     2784,     2781,     2225,     2227,     2213,     2211
    2393,     2803,     2806,     2785,     2782,     2802,     2805,     2784,     2781
    2394,     2786,     2807,     2806,     2785,     2783,     2804,     2803,     2782
    2395,     2805,     2808,     2787,     2784,     2227,     2229,     2215,     2213
    2396,     2806,     2809,     2788,     2785,     2805,     2808,     2787,     2784
    2397,     2789,     2810,     2809,     2788,     2786,     2807,     2806,     2785
    2398,     2808,     2811,     2790,     2787,     2229,     2231,     2217,     2215
    2399,     2809,     2812,     2791,     2788,     2808,     2811,     2790,     2787
    2400,     2792,     2813,     2812,     2791,     2789,     2810,     2809,     2788
    2401,     2811,     2814,     2793,     2790,     2231,     2233,     2219,     2217
    2402,     2812,     2815,     2794,     2791,     2811,     2814,     2793,     2790
    2403,     2795,     2816,     2815,     2794,     2792,     2813,     2812,     2791
    2404,     2814,     2817,     2796,     2793,     2233,     2235,     2221,     2219
    2405,     2815,     2818,     2797,     2794,     2814,     2817,     2796,     2793
    2406,     2818,     2819,     2816,     2815,     2797,     2798,     2795,     2794
    2407,     2820,     2823,     2802,     2799,     2237,     2239,     2225,     2223
    2408,     2821,     2824,     2803,     2800,     2820,     2823,     2802,     2799
    2409,     2804,     2825,     2824,     2803,     2801,     2822,     2821,     2800
    2410,     2823,     2826,     2805,     2802,     2239,     2241,     2227,     2225
    2411,     2824,     2827,     2806,     2803,     2823,     2826,     2805,     2802
    2412,     2807,     2828,     2827,     2806,     2804,     2825,     2824,     2803
    2413,     2826,     2829,     2808,     2805,     2241,     2243,     2229,     2227
    2414,     2827,     2830,     2809,     2806,     2826,     2829,     2808,     2805
    2415,     2810,     2831,     2830,     2809,     2807,     2828,     2827,     2806
    2416,     2829,     2832,     2811,     2808,     2243,     2245,     2231,     2229
    2417,     2830,     2833,     2812,     2809,     2829,     2832,     2811,     2808
    2418,     2813,     2834,     2833,     2812,     2810,     2831,     2830,     2809
    2419,     2832,     2835,     2814,     2811,     2245,     2247,     2233,     2231
    2420,     2833,     2836,     2815,     2812,     2832,     2835,     2814,     2811
    2421,     2816,     2837,     2836,     2815,     2813,     2834,     2833,     2812
    2422,     2835,     2838,     2817,     2814,     2247,     2249,     2235,     2233
    2423,     2836,     2839,     2818,     2815,     2835,     2838,     2817,     2814
    2424,     2839,     2840,     2837,     2836,     2818,     2819,     2816,     2815
    2425,     2841,     2844,     2823,     2820,     2251,     2253,     2239,     2237
    2426,     2842,     2845,     2824,     2821,     2841,     2844,     2823,     2820
    2427,     2825,     2846,     2845,     2824,     2822,     2843,     2842,     2821
    2428,     2844,     2847,     2826,     2823,     2253,     2255,     2241,     2239
    2429,     2845,     2848,     2827,     2824,     2844,     2847,     2826,     2823
    2430,     2828,     2849,     2848,     2827,     2825,     2846,     2845,     2824
    2431,     2847,     2850,     2829,     2826,     2255,     2257,     2243,     2241
    2432,     2848,     2851,     2830,     2827,     2847,     2850,     2829,     2826
    2433,     2831,     2852,     2851,     2830,     2828,     2849,     2848,     2827
    2434,     2850,     2853,     2832,     2829,     2257,     2259,     2245,     2243
    2435,     2851,     2854,     2833,     2830,     2850,     2853,     2832,     2829
    2436,     2834,     2855,     2854,     2833,     2831,     2852,     2851,     2830
    2437,     2853,     2856,     2835,     2832,     2259,     2261,     2247,     2245
    2438,     2854,     2857,     2836,     2833,     2853,     2856,     2835,     2832
    2439,     2837,     2858,     2857,     2836,     2834,     2855,     2854,     2833
    2440,     2856,     2859,     2838,     2835,     2261,     2263,     2249,     2247
    2441,     2857,     2860,     2839,     2836,     2856,     2859,     2838,     2835
    2442,     2860,     2861,     2858,     2857,     2839,     2840,     2837,     2836
    2443,     2862,     2865,     2844,     2841,     2265,     2267,     2253,     2251
    2444,     2863,     2866,     2845,     2842,     2862,     2865,     2844,     2841
    2445,     2846,     2867,     2866,     2845,     2843,     2864,     2863,     2842
    2446,     2865,     2868,     2847,     2844,     2267,     2269,     2255,     2253
    2447,     2866,     2869,     2848,     2845,     2865,     2868,     2847,     2844
    2448,     2849,     2870,     2869,     2848,     2846,     2867,     2866,     2845
    2449,     2868,     2871,     2850,     2847,     2269,     2271,     2257,     2255
    2450,     2869,     2872,     2851,     2848,     2868,     2871,     2850,     2847
    2451,     2852,     2873,     2872,     2851,     2849,     2870,     2869,     2848
    2452,     2871,     2874,     2853,     2850,     2271,     2273,     2259,     2257
    2453,     2872,     2875,     2854,     2851,     2871,     2874,     2853,     2850
    2454,     2855,     2876,     2875,     2854,     2852,     2873,     2872,     2851
    2455,     2874,     2877,     2856,     2853,     2273,     2275,     2261,     2259
    2456,     2875,     2878,     2857,     2854,     2874,     2877,     2856,     2853
    2457,     2858,     2879,     2878,     2857,     2855,     2876,     2875,     2854
    2458,     2877,     2880,     2859,     2856,     2275,     2277,     2263,     2261
    2459,     2878,     2881,     2860,     2857,     2877,     2880,     2859,     2856
    2460,     2861,     2882,     2881,     2860,     2858,     2879,     2878,     2857
    2461,     2691,     2901,     2883,     2670,     2151,     2291,     2279,     2137
    2462,     2692,     2902,     2884,     2671,     2691,     2901,     2883,     2670
    2463,     2885,     2903,     2902,     2884,     2672,     2693,     2692,     2671
    2464,     2901,     2904,     2886,     2883,     2291,     2293,     2281,     2279
    2465,     2902,     2905,     2887,     2884,     2901,     2904,     2886,     2883
    2466,     2888,     2906,     2905,     2887,     2885,     2903,     2902,     2884
    2467,     2904,     2907,     2889,     2886,     2293,     2295,     2283,     2281
    2468,     2905,     2908,     2890,     2887,     2904,     2907,     2889,     2886
    2469,     2891,     2909,     2908,     2890,     2888,     2906,     2905,     2887
    2470,     2907,     2910,     2892,     2889,     2295,     2297,     2285,     2283
    2471,     2908,     2911,     2893,     2890,     2907,     2910,     2892,     2889
    2472,     2894,     2912,     2911,     2893,     2891,     2909,     2908,     2890
    2473,     2910,     2913,     2895,     2892,     2297,     2299,     2287,     2285
    2474,     2911,     2914,     2896,     2893,     2910,     2913,     2895,     2892
    2475,     2897,     2915,     2914,     2896,     2894,     2912,     2911,     2893
    2476,     2913,     2916,     2898,     2895,     2299,     2301,     2289,     2287
    2477,     2914,     2917,     2899,     2896,     2913,     2916,     2898,     2895
    2478,     2917,     2918,     2915,     2914,     2899,     2900,     2897,     2896
    2479,     2712,     2919,     2901,     2691,     2165,     2303,     2291,     2151
    2480,     2713,     2920,     2902,     2692,     2712,     2919,     2901,     2691
    2481,     2903,     2921,     2920,     2902,     2693,     2714,     2713,     2692
    2482,     2919,     2922,     2904,     2901,     2303,     2305,     2293,     2291
    2483,     2920,     2923,     2905,     2902,     2919,     2922,     2904,     2901
    2484,     2906,     2924,     2923,     2905,     2903,     2921,     2920,     2902
    2485,     2922,     2925,     2907,     2904,     2305,     2307,     2295,     2293
    2486,     2923,     2926,     2908,     2905,     2922,     2925,     2907,     2904
    2487,     2909,     2927,     2926,     2908,     2906,     2924,     2923,     2905
    2488,     2925,     2928,     2910,     2907,     2307,     2309,     2297,     2295
    2489,     2926,     2929,     2911,     2908,     2925,     2928,     2910,     2907
    2490,     2912,     2930,     2929,     2911,     2909,     2927,     2926,     2908
    2491,     2928,     2931,     2913,     2910,     2309,     2311,     2299,     2297
    2492,     2929,     2932,     2914,     2911,     2928,     2931,     2913,     2910
    2493,     2915,     2933,     2932,     2914,     2912,     2930,     2929,     2911
    2494,     2931,     2934,     2916,     2913,     2311,     2313,     2301,     2299
    2495,     2932,     2935,     2917,     2914,     2931,     2934,     2916,     2913
    2496,     2935,     2936,     2933,     2932,     2917,     2918,     2915,     2914
    2497,     2733,     2937,     2919,     2712,     2179,     2315,     2303,     2165
    2498,     2734,     2938,     2920,     2713,     2733,     2937,     2919,     2712
    2499,     2921,     2939,     2938,     2920,     2714,     2735,     2734,     2713
    2500,     2937,     2940,     2922,     2919,     2315,     2317,     2305,     2303
    2501,     2938,     2941,     2923,     2920,     2937,     2940,     2922,     2919
    2502,     2924,     2942,     2941,     2923,     2921,     2939,     2938,     2920
    2503,     2940,     2943,     2925,     2922,     2317,     2319,     2307,     2305
    2504,     2941,     2944,     2926,     2923,     2940,     2943,     2925,     2922
    2505,     2927,     2945,     2944,     2926,     2924,     2942,     2941,     2923
    2506,     2943,     2946,     2928,     2925,     2319,     2321,     2309,     2307
    2507,     2944,     2947,     2929,     2926,     2943,     2946,     2928,     2925
    2508,     2930,     2948,     2947,     2929,     2927,     2945,     2944,     2926
    2509,     2946,     2949,     2931,     2928,     2321,     2323,     2311,     2309
    2510,     2947,     2950,     2932,     2929,     2946,     2949,     2931,     2928
    2511,     2933,     2951,     2950,     2932,     2930,     2948,     2947,     2929
    2512,     2949,     2952,     2934,     2931,     2323,     2325,     2313,     2311
    2513,     2950,     2953,     2935,     2932,     2949,     2952,     2934,     2931
    2514,     2953,     2954,     2951,     2950,     2935,     2936,     2933,     2932
    2515,     2754,     2955,     2937,     2733,     2193,     2327,     2315,     2179
    2516,     2755,     2956,     2938,     2734,     2754,     2955,     2937,     2733
    2517,     2939,     2957,     2956,     2938,     2735,     2756,     2755,     2734
    2518,     2955,     2958,     2940,     2937,     2327,     2329,     2317,     2315
    2519,     2956,     2959,     2941,     2938,     2955,     2958,     2940,     2937
    2520,     2942,     2960,     2959,     2941,     2939,     2957,     2956,     2938
    2521,     2958,     2961,     2943,     2940,     2329,     2331,     2319,     2317
    2522,     2959,     2962,     2944,     2941,     2958,     2961,     2943,     2940
    2523,     2945,     2963,     2962,     2944,     2942,     2960,     2959,     2941
    2524,     2961,     2964,     2946,     2943,     2331,     2333,     2321,     2319
    2525,     2962,     2965,     2947,     2944,     2961,     2964,     2946,     2943
    2526,     2948,     2966,     2965,     2947,     2945,     2963,     2962,     2944
    2527,     2964,     2967,     2949,     2946,     2333,     2335,     2323,     2321
    2528,     2965,     2968,     2950,     2947,     2964,     2967,     2949,     2946
    2529,     2951,     2969,     2968,     2950,     2948,     2966,     2965,     2947
    2530,     2967,     2970,     2952,     2949,     2335,     2337,     2325,     2323
    2531,     2968,     2971,     2953,     2950,     2967,     2970,     2952,     2949
    2532,     2971,     2972,     2969,     2968,     2953,     2954,     2951,     2950
    2533,     2775,     2973,     2955,     2754,     2207,     2339,     2327,     2193
    2534,     2776,     2974,     2956,     2755,     2775,     2973,     2955,     2754
    2535,     2957,     2975,     2974,     2956,     2756,     2777,     2776,     2755
    2536,     2973,     2976,     2958,     2955,     2339,     2341,     2329,     2327
    2537,     2974,     2977,     2959,     2956,     2973,     2976,     2958,     2955
    2538,     2960,     2978,     2977,     2959,     2957,     2975,     2974,     2956
    2539,     2976,     2979,     2961,     2958,     2341,     2343,     2331,     2329
    2540,     2977,     2980,     2962,     2959,     2976,     2979,     2961,     2958
    2541,     2963,     2981,     2980,     2962,     2960,     2978,     2977,     2959
    2542,     2979,     2982,     2964,     2961,     2343,     2345,     2333,     2331
    2543,     2980,     2983,     2965,     2962,     2979,     2982,     2964,     2961
    2544,     2966,     2984,     2983,     2965,     2963,     2981,     2980,     2962
    2545,     2982,     2985,     2967,     2964,     2345,     2347,     2335,     2333
    2546,     2983,     2986,     2968,     2965,     2982,     2985,     2967,     2964
    2547,     2969,     2987,     2986,     2968,     2966,     2984,     2983,     2965
    2548,     2985,     2988,     2970,     2967,     2347,     2349,     2337,     2335
    2549,     2986,     2989,     2971,     2968,     2985,     2988,     2970,     2967
    2550,     2989,     2990,     2987,     2986,     2971,     2972,     2969,     2968
    2551,     2796,     2991,     2973,     2775,     2221,     2351,     2339,     2207
    2552,     2797,     2992,     2974,     2776,     2796,     2991,     2973,     2775
    2553,     2975,     2993,     2992,     2974,     2777,     2798,     2797,     2776
    2554,     2991,     2994,     2976,     2973,     2351,     2353,     2341,     2339
    2555,     2992,     2995,     2977,     2974,     2991,     2994,     2976,     2973
    2556,     2978,     2996,     2995,     2977,     2975,     2993,     2992,     2974
    2557,     2994,     2997,     2979,     2976,     2353,     2355,     2343,     2341
    2558,     2995,     2998,     2980,     2977,     2994,     2997,     2979,     2976
    2559,     2981,     2999,     2998,     2980,     2978,     2996,     2995,     2977
    2560,     2997,     3000,     2982,     2979,     2355,     2357,     2345,     2343
    2561,     2998,     3001,     2983,     2980,     2997,     3000,     2982,     2979
    2562,     2984,     3002,     3001,     2983,     2981,     2999,     2998,     2980
    2563,     3000,     3003,     2985,     2982,     2357,     2359,     2347,     2345
    2564,     3001,     3004,     2986,     2983,     3000,     3003,     2985,     2982
    2565,     2987,     3005,     3004,     2986,     2984,     3002,     3001,     2983
    2566,     3003,     3006,     2988,     2985,     2359,     2361,     2349,     2347
    2567,     3004,     3007,     2989,     2986,     3003,     3006,     2988,     2985
    2568,     3007,     3008,     3005,     3004,     2989,     2990,     2987,     2986
    2569,     2817,     3009,     2991,     2796,     2235,     2363,     2351,     2221
    2570,     2818,     3010,     2992,     2797,     2817,     3009,     2991,     2796
    2571,     2993,     3011,     3010,     2992,     2798,     2819,     2818,     2797
    2572,     3009,     3012,     2994,     2991,     2363,     2365,     2353,     2351
    2573,     3010,     3013,     2995,     2992,     3009,     3012,     2994,     2991
    2574,     2996,     3014,     3013,     2995,     2993,     3011,     3010,     2992
    2575,     3012,     3015,     2997,     2994,     2365,     2367,     2355,     2353
    2576,     3013,     3016,     2998,     2995,     3012,     3015,     2997,     2994
    2577,     2999,     3017,     3016,     2998,     2996,     3014,     3013,     2995
    2578,     3015,     3018,     3000,     2997,     2367,     2369,     2357,     2355
    2579,     3016,     3019,     3001,     2998,     3015,     3018,     3000,     2997
    2580,     3002,     3020,     3019,     3001,     2999,     3017,     3016,     2998
    2581,     3018,     3021,     3003,     3000,     2369,     2371,     2359,     2357
    2582,     3019,     3022,     3004,     3001,     3018,     3021,     3003,     3000
    2583,     3005,     3023,     3022,     3004,     3002,     3020,     3019,     3001
    2584,     3021,     3024,     3006,     3003,     2371,     2373,     2361,     2359
    2585,     3022,     3025,     3007,     3004,     3021,     3024,     3006,     3003
    2586,     3025,     3026,     3023,     3022,     3007,     3008,     3005,     3004
    2587,     2838,     3027,     3009,     2817,     2249,     2375,     2363,     2235
    2588,     2839,     3028,     3010,     2818,     2838,     3027,     3009,     2817
    2589,     3011,     3029,     3028,     3010,     2819,     2840,     2839,     2818
    2590,     3027,     3030,     3012,     3009,     2375,     2377,     2365,     2363
    2591,     3028,     3031,     3013,     3010,     3027,     3030,     3012,     3009
    2592,     3014,     3032,     3031,     3013,     3011,     3029,     3028,     3010
    2593,     3030,     3033,     3015,     3012,     2377,     2379,     2367,     2365
    2594,     3031,     3034,     3016,     3013,     3030,     3033,     3015,     3012
    2595,     3017,     3035,     3034,     3016,     3014,     3032,     3031,     3013
    2596,     3033,     3036,     3018,     3015,     2379,     2381,     2369,     2367
    2597,     3034,     3037,     3019,     3016,     3033,     3036,     3018,     3015
    2598,     3020,     3038,     3037,     3019,     3017,     3035,     3034,     3016
    2599,     3036,     3039,     3021,     3018,     2381,     2383,     2371,     2369
    2600,     3037,     3040,     3022,     3019,     3036,     3039,     3021,     3018
    2601,     3023,     3041,     3040,     3022,     3020,     3038,     3037,     3019
    2602,     3039,     3042,     3024,     3021,     2383,     2385,     2373,     2371
    2603,     3040,     3043,     3025,     3022,     3039,     3042,     3024,     3021
    2604,     3043,     3044,     3041,     3040,     3025,     3026,     3023,     3022
    2605,     2859,     3045,     3027,     2838,     2263,     2387,     2375,     2249
    2606,     2860,     3046,     3028,     2839,     2859,     3045,     3027,     2838
    2607,     3029,     3047,     3046,     3028,     2840,     2861,     2860,     2839
    2608,     3045,     3048,     3030,     3027,     2387,     2389,     2377,     2375
    2609,     3046,     3049,     3031,     3028,     3045,     3048,     3030,     3027
    2610,     3032,     3050,     3049,     3031,     3029,     3047,     3046,     3028
    2611,     3048,     3051,     3033,     3030,     2389,     2391,     2379,     2377
    2612,     3049,     3052,     3034,     3031,     3048,     3051,     3033,     3030
    2613,     3035,     3053,     3052,     3034,     3032,     3050,     3049,     3031
    2614,     3051,     3054,     3036,     3033,     2391,     2393,     2381,     2379
    2615,     3052,     3055,     3037,     3034,     3051,     3054,     3036,     3033
    2616,     3038,     3056,     3055,     3037,     3035,     3053,     3052,     3034
    2617,     3054,     3057,     3039,     3036,     2393,     2395,     2383,     2381
    2618,     3055,     3058,     3040,     3037,     3054,     3057,     3039,     3036
    2619,     3041,     3059,     3058,     3040,     3038,     3056,     3055,     3037
    2620,     3057,     3060,     3042,     3039,     2395,     2397,     2385,     2383
    2621,     3058,     3061,     3043,     3040,     3057,     3060,     3042,     3039
    2622,     3061,     3062,     3059,     3058,     3043,     3044,     3041,     3040
    2623,     2880,     3063,     3045,     2859,     2277,     2399,     2387,     2263
    2624,     2881,     3064,     3046,     2860,     2880,     3063,     3045,     2859
    2625,     3047,     3065,     3064,     3046,     2861,     2882,     2881,     2860
    2626,     3063,     3066,     3048,     3045,     2399,     2401,     2389,     2387
    2627,     3064,     3067,     3049,     3046,     3063,     3066,     3048,     3045
    2628,     3050,     3068,     3067,     3049,     3047,     3065,     3064,     3046
    2629,     3066,     3069,     3051,     3048,     2401,     2403,     2391,     2389
    2630,     3067,     3070,     3052,     3049,     3066,     3069,     3051,     3048
    2631,     3053,     3071,     3070,     3052,     3050,     3068,     3067,     3049
    2632,     3069,     3072,     3054,     3051,     2403,     2405,     2393,     2391
    2633,     3070,     3073,     3055,     3052,     3069,     3072,     3054,     3051
    2634,     3056,     3074,     3073,     3055,     3053,     3071,     3070,     3052
    2635,     3072,     3075,     3057,     3054,     2405,     2407,     2395,     2393
    2636,     3073,     3076,     3058,     3055,     3072,     3075,     3057,     3054
    2637,     3059,     3077,     3076,     3058,     3056,     3074,     3073,     3055
    2638,     3075,     3078,     3060,     3057,     2407,     2409,     2397,     2395
    2639,     3076,     3079,     3061,     3058,     3075,     3078,     3060,     3057
    2640,     3062,     3080,     3079,     3061,     3059,     3077,     3076,     3058
    2641,     2916,     3099,     3081,     2898,     2301,     2423,     2411,     2289
    2642,     2917,     3100,     3082,     2899,     2916,     3099,     3081,     2898
    2643,     3083,     3101,     3100,     3082,     2900,     2918,     2917,     2899
    2644,     3099,     3102,     3084,     3081,     2423,     2425,     2413,     2411
    2645,     3100,     3103,     3085,     3082,     3099,     3102,     3084,     3081
    2646,     3086,     3104,     3103,     3085,     3083,     3101,     3100,     3082
    2647,     3102,     3105,     3087,     3084,     2425,     2427,     2415,     2413
    2648,     3103,     3106,     3088,     3085,     3102,     3105,     3087,     3084
    2649,     3089,     3107,     3106,     3088,     3086,     3104,     3103,     3085
    2650,     3105,     3108,     3090,     3087,     2427,     2429,     2417,     2415
    2651,     3106,     3109,     3091,     3088,     3105,     3108,     3090,     3087
    2652,     3092,     3110,     3109,     3091,     3089,     3107,     3106,     3088
    2653,     3108,     3111,     3093,     3090,     2429,     2431,     2419,     2417
    2654,     3109,     3112,     3094,     3091,     3108,     3111,     3093,     3090
    2655,     3095,     3113,     3112,     3094,     3092,     3110,     3109,     3091
    2656,     3111,     3114,     3096,     3093,     2431,     2433,     2421,     2419
    2657,     3112,     3115,     3097,     3094,     3111,     3114,     3096,     3093
    2658,     3115,     3116,     3113,     3112,     3097,     3098,     3095,     3094
    2659,     2934,     3117,     3099,     2916,     2313,     2435,     2423,     2301
    2660,     2935,     3118,     3100,     2917,     2934,     3117,     3099,     2916
    2661,     3101,     3119,     3118,     3100,     2918,     2936,     2935,     2917
    2662,     3117,     3120,     3102,     3099,     2435,     2437,     2425,     2423
    2663,     3118,     3121,     3103,     3100,     3117,     3120,     3102,     3099
    2664,     3104,     3122,     3121,     3103,     3101,     3119,     3118,     3100
    2665,     3120,     3123,     3105,     3102,     2437,     2439,     2427,     2425
    2666,     3121,     3124,     3106,     3103,     3120,     3123,     3105,     3102
    2667,     3107,     3125,     3124,     3106,     3104,     3122,     3121,     3103
    2668,     3123,     3126,     3108,     3105,     2439,     2441,     2429,     2427
    2669,     3124,     3127,     3109,     3106,     3123,     3126,     3108,     3105
    2670,     3110,     3128,     3127,     3109,     3107,     3125,     3124,     3106
    2671,     3126,     3129,     3111,     3108,     2441,     2443,     2431,     2429
    2672,     3127,     3130,     3112,     3109,     3126,     3129,     3111,     3108
    2673,     3113,     3131,     3130,     3112,     3110,     3128,     3127,     3109
    2674,     3129,     3132,     3114,     3111,     2443,     2445,     2433,     2431
    2675,     3130,     3133,     3115,     3112,     3129,     3132,     3114,     3111
    2676,     3133,     3134,     3131,     3130,     3115,     3116,     3113,     3112
    2677,     2952,     3135,     3117,     2934,     2325,     2447,     2435,     2313
    2678,     2953,     3136,     3118,     2935,     2952,     3135,     3117,     2934
    2679,     3119,     3137,     3136,     3118,     2936,     2954,     2953,     2935
    2680,     3135,     3138,     3120,     3117,     2447,     2449,     2437,     2435
    2681,     3136,     3139,     3121,     3118,     3135,     3138,     3120,     3117
    2682,     3122,     3140,     3139,     3121,     3119,     3137,     3136,     3118
    2683,     3138,     3141,     3123,     3120,     2449,     2451,     2439,     2437
    2684,     3139,     3142,     3124,     3121,     3138,     3141,     3123,     3120
    2685,     3125,     3143,     3142,     3124,     3122,     3140,     3139,     3121
    2686,     3141,     3144,     3126,     3123,     2451,     2453,     2441,     2439
    2687,     3142,     3145,     3127,     3124,     3141,     3144,     3126,     3123
    2688,     3128,     3146,     3145,     3127,     3125,     3143,     3142,     3124
    2689,     3144,     3147,     3129,     3126,     2453,     2455,     2443,     2441
    2690,     3145,     3148,     3130,     3127,     3144,     3147,     3129,     3126
    2691,     3131,     3149,     3148,     3130,     3128,     3146,     3145,     3127
    2692,     3147,     3150,     3132,     3129,     2455,     2457,     2445,     2443
    2693,     3148,     3151,     3133,     3130,     3147,     3150,     3132,     3129
    2694,     3151,     3152,     3149,     3148,     3133,     3134,     3131,     3130
    2695,     2970,     3153,     3135,     2952,     2337,     2459,     2447,     2325
    2696,     2971,     3154,     3136,     2953,     2970,     3153,     3135,     2952
    2697,     3137,     3155,     3154,     3136,     2954,     2972,     2971,     2953
    2698,     3153,     3156,     3138,     3135,     2459,     2461,     2449,     2447
    2699,     3154,     3157,     3139,     3136,     3153,     3156,     3138,     3135
    2700,     3140,     3158,     3157,     3139,     3137,     3155,     3154,     3136
    2701,     3156,     3159,     3141,     3138,     2461,     2463,     2451,     2449
    2702,     3157,     3160,     3142,     3139,     3156,     3159,     3141,     3138
    2703,     3143,     3161,     3160,     3142,     3140,     3158,     3157,     3139
    2704,     3159,     3162,     3144,     3141,     2463,     2465,     2453,     2451
    2705,     3160,     3163,     3145,     3142,     3159,     3162,     3144,     3141
    2706,     3146,     3164,     3163,     3145,     3143,     3161,     3160,     3142
    2707,     3162,     3165,     3147,     3144,     2465,     2467,     2455,     2453
    2708,     3163,     3166,     3148,     3145,     3162,     3165,     3147,     3144
    2709,     3149,     3167,     3166,     3148,     3146,     3164,     3163,     3145
    2710,     3165,     3168,     3150,     3147,     2467,     2469,     2457,     2455
    2711,     3166,     3169,     3151,     3148,     3165,     3168,     3150,     3147
    2712,     3169,     3170,     3167,     3166,     3151,     3152,     3149,     3148
    2713,     2988,     3171,     3153,     2970,     2349,     2471,     2459,     2337
    2714,     2989,     3172,     3154,     2971,     2988,     3171,     3153,     2970
    2715,     3155,     3173,     3172,     3154,     2972,     2990,     2989,     2971
    2716,     3171,     3174,     3156,     3153,     2471,     2473,     2461,     2459
    2717,     3172,     3175,     3157,     3154,     3171,     3174,     3156,     3153
    2718,     3158,     3176,     3175,     3157,     3155,     3173,     3172,     3154
    2719,     3174,     3177,     3159,     3156,     2473,     2475,     2463,     2461
    2720,     3175,     3178,     3160,     3157,     3174,     3177,     3159,     3156
    2721,     3161,     3179,     3178,     3160,     3158,     3176,     3175,     3157
    2722,     3177,     3180,     3162,     3159,     2475,     2477,     2465,     2463
    2723,     3178,     3181,     3163,     3160,     3177,     3180,     3162,     3159
    2724,     3164,     3182,     3181,     3163,     3161,     3179,     3178,     3160
    2725,     3180,     3183,     3165,     3162,     2477,     2479,     2467,     2465
    2726,     3181,     3184,     3166,     3163,     3180,     3183,     3165,     3162
    2727,     3167,     3185,     3184,     3166,     3164,     3182,     3181,     3163
    2728,     3183,     3186,     3168,     3165,     2479,     2481,     2469,     2467
    2729,     3184,     3187,     3169,     3166,     3183,     3186,     3168,     3165
    2730,     3187,     3188,     3185,     3184,     3169,     3170,     3167,     3166
    2731,     3006,     3189,     3171,     2988,     2361,     2483,     2471,     2349
    2732,     3007,     3190,     3172,     2989,     3006,     3189,     3171,     2988
    2733,     3173,     3191,     3190,     3172,     2990,     3008,     3007,     2989
    2734,     3189,     3192,     3174,     3171,     2483,     2485,     2473,     2471
    2735,     3190,     3193,     3175,     3172,     3189,     3192,     3174,     3171
    2736,     3176,     3194,     3193,     3175,     3173,     3191,     3190,     3172
    2737,     3192,     3195,     3177,     3174,     2485,     2487,     2475,     2473
    2738,     3193,     3196,     3178,     3175,     3192,     3195,     3177,     3174
    2739,     3179,     3197,     3196,     3178,     3176,     3194,     3193,     3175
    2740,     3195,     3198,     3180,     3177,     2487,     2489,     2477,     2475
    2741,     3196,     3199,     3181,     3178,     3195,     3198,     3180,     3177
    2742,     3182,     3200,     3199,     3181,     3179,     3197,     3196,     3178
    2743,     3198,     3201,     3183,     3180,     2489,     2491,     2479,     2477
    2744,     3199,     3202,     3184,     3181,     3198,     3201,     3183,     3180
    2745,     3185,     3203,     3202,     3184,     3182,     3200,     3199,     3181
    2746,     3201,     3204,     3186,     3183,     2491,     2493,     2481,     2479
    2747,     3202,     3205,     3187,     3184,     3201,     3204,     3186,     3183
    2748,     3205,     3206,     3203,     3202,     3187,     3188,     3185,     3184
    2749,     3024,     3207,     3189,     3006,     2373,     2495,     2483,     2361
    2750,     3025,     3208,     3190,     3007,     3024,     3207,     3189,     3006
    2751,     3191,     3209,     3208,     3190,     3008,     3026,     3025,     3007
    2752,     3207,     3210,     3192,     3189,     2495,     2497,     2485,     2483
    2753,     3208,     3211,     3193,     3190,     3207,     3210,     3192,     3189
    2754,     3194,     3212,     3211,     3193,     3191,     3209,     3208,     3190
    2755,     3210,     3213,     3195,     3192,     2497,     2499,     2487,     2485
    2756,     3211,     3214,     3196,     3193,     3210,     3213,     3195,     3192
    2757,     3197,     3215,     3214,     3196,     3194,     3212,     3211,     3193
    2758,     3213,     3216,     3198,     3195,     2499,     2501,     2489,     2487
    2759,     3214,     3217,     3199,     3196,     3213,     3216,     3198,     3195
    2760,     3200,     3218,     3217,     3199,     3197,     3215,     3214,     3196
    2761,     3216,     3219,     3201,     3198,     2501,     2503,     2491,     2489
    2762,     3217,     3220,     3202,     3199,     3216,     3219,     3201,     3198
    2763,     3203,     3221,     3220,     3202,     3200,     3218,     3217,     3199
    2764,     3219,     3222,     3204,     3201,     2503,     2505,     2493,     2491
    2765,     3220,     3223,     3205,     3202,     3219,     3222,     3204,     3201
    2766,     3223,     3224,     3221,     3220,     3205,     3206,     3203,     3202
    2767,     3042,     3225,     3207,     3024,     2385,     2507,     2495,     2373
    2768,     3043,     3226,     3208,     3025,     3042,     3225,     3207,     3024
    2769,     3209,     3227,     3226,     3208,     3026,     3044,     3043,     3025
    2770,     3225,     3228,     3210,     3207,     2507,     2509,     2497,     2495
    2771,     3226,     3229,     3211,     3208,     3225,     3228,     3210,     3207
    2772,     3212,     3230,     3229,     3211,     3209,     3227,     3226,     3208
    2773,     3228,     3231,     3213,     3210,     2509,     2511,     2499,     2497
    2774,     3229,     3232,     3214,     3211,     3228,     3231,     3213,     3210
    2775,     3215,     3233,     3232,     3214,     3212,     3230,     3229,     3211
    2776,     3231,     3234,     3216,     3213,     2511,     2513,     2501,     2499
    2777,     3232,     3235,     3217,     3214,     3231,     3234,     3216,     3213
    2778,     3218,     3236,     3235,     3217,     3215,     3233,     3232,     3214
    2779,     3234,     3237,     3219,     3216,     2513,     2515,     2503,     2501
    2780,     3235,     3238,     3220,     3217,     3234,     3237,     3219,     3216
    2781,     3221,     3239,     3238,     3220,     3218,     3236,     3235,     3217
    2782,     3237,     3240,     3222,     3219,     2515,     2517,     2505,     2503
    2783,     3238,     3241,     3223,     3220,     3237,     3240,     3222,     3219
    2784,     3241,     3242,     3239,     3238,     3223,     3224,     3221,     3220
    2785,     3060,     3243,     3225,     3042,     2397,     2519,     2507,     2385
    2786,     3061,     3244,     3226,     3043,     3060,     3243,     3225,     3042
    2787,     3227,     3245,     3244,     3226,     3044,     3062,     3061,     3043
    2788,     3243,     3246,     3228,     3225,     2519,     2521,     2509,     2507
    2789,     3244,     3247,     3229,     3226,     3243,     3246,     3228,     3225
    2790,     3230,     3248,     3247,     3229,     3227,     3245,     3244,     3226
    2791,     3246,     3249,     3231,     3228,     2521,     2523,     2511,     2509
    2792,     3247,     3250,     3232,     3229,     3246,     3249,     3231,     3228
    2793,     3233,     3251,     3250,     3232,     3230,     3248,     3247,     3229
    2794,     3249,     3252,     3234,     3231,     2523,     2525,     2513,     2511
    2795,     3250,     3253,     3235,     3232,     3249,     3252,     3234,     3231
    2796,     3236,     3254,     3253,     3235,     3233,     3251,     3250,     3232
    2797,     3252,     3255,     3237,     3234,     2525,     2527,     2515,     2513
    2798,     3253,     3256,     3238,     3235,     3252,     3255,     3237,     3234
    2799,     3239,     3257,     3256,     3238,     3236,     3254,     3253,     3235
    2800,     3255,     3258,     3240,     3237,     2527,     2529,     2517,     2515
    2801,     3256,     3259,     3241,     3238,     3255,     3258,     3240,     3237
    2802,     3259,     3260,     3257,     3256,     3241,     3242,     3239,     3238
    2803,     3078,     3261,     3243,     3060,     2409,     2531,     2519,     2397
    2804,     3079,     3262,     3244,     3061,     3078,     3261,     3243,     3060
    2805,     3245,     3263,     3262,     3244,     3062,     3080,     3079,     3061
    2806,     3261,     3264,     3246,     3243,     2531,     2533,     2521,     2519
    2807,     3262,     3265,     3247,     3244,     3261,     3264,     3246,     3243
    2808,     3248,     3266,     3265,     3247,     3245,     3263,     3262,     3244
    2809,     3264,     3267,     3249,     3246,     2533,     2535,     2523,     2521
    2810,     3265,     3268,     3250,     3247,     3264,     3267,     3249,     3246
    2811,     3251,     3269,     3268,     3250,     3248,     3266,     3265,     3247
    2812,     3267,     3270,     3252,     3249,     2535,     2537,     2525,     2523
    2813,     3268,     3271,     3253,     3250,     3267,     3270,     3252,     3249
    2814,     3254,     3272,     3271,     3253,     3251,     3269,     3268,     3250
    2815,     3270,     3273,     3255,     3252,     2537,     2539,     2527,     2525
    2816,     3271,     3274,     3256,     3253,     3270,     3273,     3255,     3252
    2817,     3257,     3275,     3274,     3256,     3254,     3272,     3271,     3253
    2818,     3273,     3276,     3258,     3255,     2539,     2541,     2529,     2527
    2819,     3274,     3277,     3259,     3256,     3273,     3276,     3258,     3255
    2820,     3260,     3278,     3277,     3259,     3257,     3275,     3274,     3256
    2821,     3114,     3294,     3279,     3096,     2433,     2553,     2543,     2421
    2822,     3115,     3295,     3280,     3097,     3114,     3294,     3279,     3096
    2823,     3281,     3296,     3295,     3280,     3098,     3116,     3115,     3097
    2824,     3294,     3297,     3282,     3279,     2553,     2555,     2545,     2543
    2825,     3295,     3298,     3283,     3280,     3294,     3297,     3282,     3279
    2826,     3284,     3299,     3298,     3283,     3281,     3296,     3295,     3280
    2827,     3297,     3300,     3285,     3282,     2555,     2557,     2547,     2545
    2828,     3298,     3301,     3286,     3283,     3297,     3300,     3285,     3282
    2829,     3287,     3302,     3301,     3286,     3284,     3299,     3298,     3283
    2830,     3300,     3303,     3288,     3285,     2557,     2559,     2549,     2547
    2831,     3301,     3304,     3289,     3286,     3300,     3303,     3288,     3285
    2832,     3290,     3305,     3304,     3289,     3287,     3302,     3301,     3286
    2833,     3303,     3306,     3291,     3288,     2559,     2561,     2551,     2549
    2834,     3304,     3307,     3292,     3289,     3303,     3306,     3291,     3288
    2835,     3293,     3308,     3307,     3292,     3290,     3305,     3304,     3289
    2836,     3306,     2673,     2652,     3291,     2561,     2139,     2125,     2551
    2837,     3307,     2674,     2653,     3292,     3306,     2673,     2652,     3291
    2838,     2674,     2675,     3308,     3307,     2653,     2654,     3293,     3292
    2839,     3132,     3309,     3294,     3114,     2445,     2563,     2553,     2433
    2840,     3133,     3310,     3295,     3115,     3132,     3309,     3294,     3114
    2841,     3296,     3311,     3310,     3295,     3116,     3134,     3133,     3115
    2842,     3309,     3312,     3297,     3294,     2563,     2565,     2555,     2553
    2843,     3310,     3313,     3298,     3295,     3309,     3312,     3297,     3294
    2844,     3299,     3314,     3313,     3298,     3296,     3311,     3310,     3295
    2845,     3312,     3315,     3300,     3297,     2565,     2567,     2557,     2555
    2846,     3313,     3316,     3301,     3298,     3312,     3315,     3300,     3297
    2847,     3302,     3317,     3316,     3301,     3299,     3314,     3313,     3298
    2848,     3315,     3318,     3303,     3300,     2567,     2569,     2559,     2557
    2849,     3316,     3319,     3304,     3301,     3315,     3318,     3303,     3300
    2850,     3305,     3320,     3319,     3304,     3302,     3317,     3316,     3301
    2851,     3318,     3321,     3306,     3303,     2569,     2571,     2561,     2559
    2852,     3319,     3322,     3307,     3304,     3318,     3321,     3306,     3303
    2853,     3308,     3323,     3322,     3307,     3305,     3320,     3319,     3304
    2854,     3321,     2694,     2673,     3306,     2571,     2153,     2139,     2561
    2855,     3322,     2695,     2674,     3307,     3321,     2694,     2673,     3306
    2856,     2695,     2696,     3323,     3322,     2674,     2675,     3308,     3307
    2857,     3150,     3324,     3309,     3132,     2457,     2573,     2563,     2445
    2858,     3151,     3325,     3310,     3133,     3150,     3324,     3309,     3132
    2859,     3311,     3326,     3325,     3310,     3134,     3152,     3151,     3133
    2860,     3324,     3327,     3312,     3309,     2573,     2575,     2565,     2563
    2861,     3325,     3328,     3313,     3310,     3324,     3327,     3312,     3309
    2862,     3314,     3329,     3328,     3313,     3311,     3326,     3325,     3310
    2863,     3327,     3330,     3315,     3312,     2575,     2577,     2567,     2565
    2864,     3328,     3331,     3316,     3313,     3327,     3330,     3315,     3312
    2865,     3317,     3332,     3331,     3316,     3314,     3329,     3328,     3313
    2866,     3330,     3333,     3318,     3315,     2577,     2579,     2569,     2567
    2867,     3331,     3334,     3319,     3316,     3330,     3333,     3318,     3315
    2868,     3320,     3335,     3334,     3319,     3317,     3332,     3331,     3316
    2869,     3333,     3336,     3321,     3318,     2579,     2581,     2571,     2569
    2870,     3334,     3337,     3322,     3319,     3333,     3336,     3321,     3318
    2871,     3323,     3338,     3337,     3322,     3320,     3335,     3334,     3319
    2872,     3336,     2715,     2694,     3321,     2581,     2167,     2153,     2571
    2873,     3337,     2716,     2695,     3322,     3336,     2715,     2694,     3321
    2874,     2716,     2717,     3338,     3337,     2695,     2696,     3323,     3322
    2875,     3168,     3339,     3324,     3150,     2469,     2583,     2573,     2457
    2876,     3169,     3340,     3325,     3151,     3168,     3339,     3324,     3150
    2877,     3326,     3341,     3340,     3325,     3152,     3170,     3169,     3151
    2878,     3339,     3342,     3327,     3324,     2583,     2585,     2575,     2573
    2879,     3340,     3343,     3328,     3325,     3339,     3342,     3327,     3324
    2880,     3329,     3344,     3343,     3328,     3326,     3341,     3340,     3325
    2881,     3342,     3345,     3330,     3327,     2585,     2587,     2577,     2575
    2882,     3343,     3346,     3331,     3328,     3342,     3345,     3330,     3327
    2883,     3332,     3347,     3346,     3331,     3329,     3344,     3343,     3328
    2884,     3345,     3348,     3333,     3330,     2587,     2589,     2579,     2577
    2885,     3346,     3349,     3334,     3331,     3345,     3348,     3333,     3330
    2886,     3335,     3350,     3349,     3334,     3332,     3347,     3346,     3331
    2887,     3348,     3351,     3336,     3333,     2589,     2591,     2581,     2579
    2888,     3349,     3352,     3337,     3334,     3348,     3351,     3336,     3333
    2889,     3338,     3353,     3352,     3337,     3335,     3350,     3349,     3334
    2890,     3351,     2736,     2715,     3336,     2591,     2181,     2167,     2581
    2891,     3352,     2737,     2716,     3337,     3351,     2736,     2715,     3336
    2892,     2737,     2738,     3353,     3352,     2716,     2717,     3338,     3337
    2893,     3186,     3354,     3339,     3168,     2481,     2593,     2583,     2469
    2894,     3187,     3355,     3340,     3169,     3186,     3354,     3339,     3168
    2895,     3341,     3356,     3355,     3340,     3170,     3188,     3187,     3169
    2896,     3354,     3357,     3342,     3339,     2593,     2595,     2585,     2583
    2897,     3355,     3358,     3343,     3340,     3354,     3357,     3342,     3339
    2898,     3344,     3359,     3358,     3343,     3341,     3356,     3355,     3340
    2899,     3357,     3360,     3345,     3342,     2595,     2597,     2587,     2585
    2900,     3358,     3361,     3346,     3343,     3357,     3360,     3345,     3342
    2901,     3347,     3362,     3361,     3346,     3344,     3359,     3358,     3343
    2902,     3360,     3363,     3348,     3345,     2597,     2599,     2589,     2587
    2903,     3361,     3364,     3349,     3346,     3360,     3363,     3348,     3345
    2904,     3350,     3365,     3364,     3349,     3347,     3362,     3361,     3346
    2905,     3363,     3366,     3351,     3348,     2599,     2601,     2591,     2589
    2906,     3364,     3367,     3352,     3349,     3363,     3366,     3351,     3348
    2907,     3353,     3368,     3367,     3352,     3350,     3365,     3364,     3349
    2908,     3366,     2757,     2736,     3351,     2601,     2195,     2181,     2591
    2909,     3367,     2758,     2737,     3352,     3366,     2757,     2736,     3351
    2910,     2758,     2759,     3368,     3367,     2737,     2738,     3353,     3352
    2911,     3204,     3369,     3354,     3186,     2493,     2603,     2593,     2481
    2912,     3205,     3370,     3355,     3187,     3204,     3369,     3354,     3186
    2913,     3356,     3371,     3370,     3355,     3188,     3206,     3205,     3187
    2914,     3369,     3372,     3357,     3354,     2603,     2605,     2595,     2593
    2915,     3370,     3373,     3358,     3355,     3369,     3372,     3357,     3354
    2916,     3359,     3374,     3373,     3358,     3356,     3371,     3370,     3355
    2917,     3372,     3375,     3360,     3357,     2605,     2607,     2597,     2595
    2918,     3373,     3376,     3361,     3358,     3372,     3375,     3360,     3357
    2919,     3362,     3377,     3376,     3361,     3359,     3374,     3373,     3358
    2920,     3375,     3378,     3363,     3360,     2607,     2609,     2599,     2597
    2921,     3376,     3379,     3364,     3361,     3375,     3378,     3363,     3360
    2922,     3365,     3380,     3379,     3364,     3362,     3377,     3376,     3361
    2923,     3378,     3381,     3366,     3363,     2609,     2611,     2601,     2599
    2924,     3379,     3382,     3367,     3364,     3378,     3381,     3366,     3363
    2925,     3368,     3383,     3382,     3367,     3365,     3380,     3379,     3364
    2926,     3381,     2778,     2757,     3366,     2611,     2209,     2195,     2601
    2927,     3382,     2779,     2758,     3367,     3381,     2778,     2757,     3366
    2928,     2779,     2780,     3383,     3382,     2758,     2759,     3368,     3367
    2929,     3222,     3384,     3369,     3204,     2505,     2613,     2603,     2493
    2930,     3223,     3385,     3370,     3205,     3222,     3384,     3369,     3204
    2931,     3371,     3386,     3385,     3370,     3206,     3224,     3223,     3205
    2932,     3384,     3387,     3372,     3369,     2613,     2615,     2605,     2603
    2933,     3385,     3388,     3373,     3370,     3384,     3387,     3372,     3369
    2934,     3374,     3389,     3388,     3373,     3371,     3386,     3385,     3370
    2935,     3387,     3390,     3375,     3372,     2615,     2617,     2607,     2605
    2936,     3388,     3391,     3376,     3373,     3387,     3390,     3375,     3372
    2937,     3377,     3392,     3391,     3376,     3374,     3389,     3388,     3373
    2938,     3390,     3393,     3378,     3375,     2617,     2619,     2609,     2607
    2939,     3391,     3394,     3379,     3376,     3390,     3393,     3378,     3375
    2940,     3380,     3395,     3394,     3379,     3377,     3392,     3391,     3376
    2941,     3393,     3396,     3381,     3378,     2619,     2621,     2611,     2609
    2942,     3394,     3397,     3382,     3379,     3393,     3396,     3381,     3378
    2943,     3383,     3398,     3397,     3382,     3380,     3395,     3394,     3379
    2944,     3396,     2799,     2778,     3381,     2621,     2223,     2209,     2611
    2945,     3397,     2800,     2779,     3382,     3396,     2799,     2778,     3381
    2946,     2800,     2801,     3398,     3397,     2779,     2780,     3383,     3382
    2947,     3240,     3399,     3384,     3222,     2517,     2623,     2613,     2505
    2948,     3241,     3400,     3385,     3223,     3240,     3399,     3384,     3222
    2949,     3386,     3401,     3400,     3385,     3224,     3242,     3241,     3223
    2950,     3399,     3402,     3387,     3384,     2623,     2625,     2615,     2613
    2951,     3400,     3403,     3388,     3385,     3399,     3402,     3387,     3384
    2952,     3389,     3404,     3403,     3388,     3386,     3401,     3400,     3385
    2953,     3402,     3405,     3390,     3387,     2625,     2627,     2617,     2615
    2954,     3403,     3406,     3391,     3388,     3402,     3405,     3390,     3387
    2955,     3392,     3407,     3406,     3391,     3389,     3404,     3403,     3388
    2956,     3405,     3408,     3393,     3390,     2627,     2629,     2619,     2617
    2957,     3406,     3409,     3394,     3391,     3405,     3408,     3393,     3390
    2958,     3395,     3410,     3409,     3394,     3392,     3407,     3406,     3391
    2959,     3408,     3411,     3396,     3393,     2629,     2631,     2621,     2619
    2960,     3409,     3412,     3397,     3394,     3408,     3411,     3396,     3393
    2961,     3398,     3413,     3412,     3397,     3395,     3410,     3409,     3394
    2962,     3411,     2820,     2799,     3396,     2631,     2237,     2223,     2621
    2963,     3412,     2821,     2800,     3397,     3411,     2820,     2799,     3396
    2964,     2821,     2822,     3413,     3412,     2800,     2801,     3398,     3397
    2965,     3258,     3414,     3399,     3240,     2529,     2633,     2623,     2517
    2966,     3259,     3415,     3400,     3241,     3258,     3414,     3399,     3240
    2967,     3401,     3416,     3415,     3400,     3242,     3260,     3259,     3241
    2968,     3414,     3417,     3402,     3399,     2633,     2635,     2625,     2623
    2969,     3415,     3418,     3403,     3400,     3414,     3417,     3402,     3399
    2970,     3404,     3419,     3418,     3403,     3401,     3416,     3415,     3400
    2971,     3417,     3420,     3405,     3402,     2635,     2637,     2627,     2625
    2972,     3418,     3421,     3406,     3403,     3417,     3420,     3405,     3402
    2973,     3407,     3422,     3421,     3406,     3404,     3419,     3418,     3403
    2974,     3420,     3423,     3408,     3405,     2637,     2639,     2629,     2627
    2975,     3421,     3424,     3409,     3406,     3420,     3423,     3408,     3405
    2976,     3410,     3425,     3424,     3409,     3407,     3422,     3421,     3406
    2977,     3423,     3426,     3411,     3408,     2639,     2641,     2631,     2629
    2978,     3424,     3427,     3412,     3409,     3423,     3426,     3411,     3408
    2979,     3413,     3428,     3427,     3412,     3410,     3425,     3424,     3409
    2980,     3426,     2841,     2820,     3411,     2641,     2251,     2237,     2631
    2981,     3427,     2842,     2821,     3412,     3426,     2841,     2820,     3411
    2982,     2842,     2843,     3428,     3427,     2821,     2822,     3413,     3412
    2983,     3276,     3429,     3414,     3258,     2541,     2643,     2633,     2529
    2984,     3277,     3430,     3415,     3259,     3276,     3429,     3414,     3258
    2985,     3416,     3431,     3430,     3415,     3260,     3278,     3277,     3259
    2986,     3429,     3432,     3417,     3414,     2643,     2645,     2635,     2633
    2987,     3430,     3433,     3418,     3415,     3429,     3432,     3417,     3414
    2988,     3419,     3434,     3433,     3418,     3416,     3431,     3430,     3415
    2989,     3432,     3435,     3420,     3417,     2645,     2647,     2637,     2635
    2990,     3433,     3436,     3421,     3418,     3432,     3435,     3420,     3417
    2991,     3422,     3437,     3436,     3421,     3419,     3434,     3433,     3418
    2992,     3435,     3438,     3423,     3420,     2647,     2649,     2639,     2637
    2993,     3436,     3439,     3424,     3421,     3435,     3438,     3423,     3420
    2994,     3425,     3440,     3439,     3424,     3422,     3437,     3436,     3421
    2995,     3438,     3441,     3426,     3423,     2649,     2651,     2641,     2639
    2996,     3439,     3442,     3427,     3424,     3438,     3441,     3426,     3423
    2997,     3428,     3443,     3442,     3427,     3425,     3440,     3439,     3424
    2998,     3441,     2862,     2841,     3426,     2651,     2265,     2251,     2641
    2999,     3442,     2863,     2842,     3427,     3441,     2862,     2841,     3426
    3000,     3443,     2864,     2843,     3428,     3442,     2863,     2842,     3427
    3001,     3465,     3468,     3447,     3444,     2675,     2678,     2657,     2654
    3002,     3466,     3469,     3448,     3445,     3465,     3468,     3447,     3444
    3003,     3449,     3470,     3469,     3448,     3446,     3467,     3466,     3445
    3004,     3468,     3471,     3450,     3447,     2678,     2681,     2660,     2657
    3005,     3469,     3472,     3451,     3448,     3468,     3471,     3450,     3447
    3006,     3452,     3473,     3472,     3451,     3449,     3470,     3469,     3448
    3007,     3471,     3474,     3453,     3450,     2681,     2684,     2663,     2660
    3008,     3472,     3475,     3454,     3451,     3471,     3474,     3453,     3450
    3009,     3455,     3476,     3475,     3454,     3452,     3473,     3472,     3451
    3010,     3474,     3477,     3456,     3453,     2684,     2687,     2666,     2663
    3011,     3475,     3478,     3457,     3454,     3474,     3477,     3456,     3453
    3012,     3458,     3479,     3478,     3457,     3455,     3476,     3475,     3454
    3013,     3477,     3480,     3459,     3456,     2687,     2690,     2669,     2666
    3014,     3478,     3481,     3460,     3457,     3477,     3480,     3459,     3456
    3015,     3461,     3482,     3481,     3460,     3458,     3479,     3478,     3457
    3016,     3480,     3483,     3462,     3459,     2690,     2693,     2672,     2669
    3017,     3481,     3484,     3463,     3460,     3480,     3483,     3462,     3459
    3018,     3484,     3485,     3482,     3481,     3463,     3464,     3461,     3460
    3019,     3486,     3489,     3468,     3465,     2696,     2699,     2678,     2675
    3020,     3487,     3490,     3469,     3466,     3486,     3489,     3468,     3465
    3021,     3470,     3491,     3490,     3469,     3467,     3488,     3487,     3466
    3022,     3489,     3492,     3471,     3468,     2699,     2702,     2681,     2678
    3023,     3490,     3493,     3472,     3469,     3489,     3492,     3471,     3468
    3024,     3473,     3494,     3493,     3472,     3470,     3491,     3490,     3469
    3025,     3492,     3495,     3474,     3471,     2702,     2705,     2684,     2681
    3026,     3493,     3496,     3475,     3472,     3492,     3495,     3474,     3471
    3027,     3476,     3497,     3496,     3475,     3473,     3494,     3493,     3472
    3028,     3495,     3498,     3477,     3474,     2705,     2708,     2687,     2684
    3029,     3496,     3499,     3478,     3475,     3495,     3498,     3477,     3474
    3030,     3479,     3500,     3499,     3478,     3476,     3497,     3496,     3475
    3031,     3498,     3501,     3480,     3477,     2708,     2711,     2690,     2687
    3032,     3499,     3502,     3481,     3478,     3498,     3501,     3480,     3477
    3033,     3482,     3503,     3502,     3481,     3479,     3500,     3499,     3478
    3034,     3501,     3504,     3483,     3480,     2711,     2714,     2693,     2690
    3035,     3502,     3505,     3484,     3481,     3501,     3504,     3483,     3480
    3036,     3505,     3506,     3503,     3502,     3484,     3485,     3482,     3481
    3037,     3507,     3510,     3489,     3486,     2717,     2720,     2699,     2696
    3038,     3508,     3511,     3490,     3487,     3507,     3510,     3489,     3486
    3039,     3491,     3512,     3511,     3490,     3488,     3509,     3508,     3487
    3040,     3510,     3513,     3492,     3489,     2720,     2723,     2702,     2699
    3041,     3511,     3514,     3493,     3490,     3510,     3513,     3492,     3489
    3042,     3494,     3515,     3514,     3493,     3491,     3512,     3511,     3490
    3043,     3513,     3516,     3495,     3492,     2723,     2726,     2705,     2702
    3044,     3514,     3517,     3496,     3493,     3513,     3516,     3495,     3492
    3045,     3497,     3518,     3517,     3496,     3494,     3515,     3514,     3493
    3046,     3516,     3519,     3498,     3495,     2726,     2729,     2708,     2705
    3047,     3517,     3520,     3499,     3496,     3516,     3519,     3498,     3495
    3048,     3500,     3521,     3520,     3499,     3497,     3518,     3517,     3496
    3049,     3519,     3522,     3501,     3498,     2729,     2732,     2711,     2708
    3050,     3520,     3523,     3502,     3499,     3519,     3522,     3501,     3498
    3051,     3503,     3524,     3523,     3502,     3500,     3521,     3520,     3499
    3052,     3522,     3525,     3504,     3501,     2732,     2735,     2714,     2711
    3053,     3523,     3526,     3505,     3502,     3522,     3525,     3504,     3501
    3054,     3526,     3527,     3524,     3523,     3505,     3506,     3503,     3502
    3055,     3528,     3531,     3510,     3507,     2738,     2741,     2720,     2717
    3056,     3529,     3532,     3511,     3508,     3528,     3531,     3510,     3507
    3057,     3512,     3533,     3532,     3511,     3509,     3530,     3529,     3508
    3058,     3531,     3534,     3513,     3510,     2741,     2744,     2723,     2720
    3059,     3532,     3535,     3514,     3511,     3531,     3534,     3513,     3510
    3060,     3515,     3536,     3535,     3514,     3512,     3533,     3532,     3511
    3061,     3534,     3537,     3516,     3513,     2744,     2747,     2726,     2723
    3062,     3535,     3538,     3517,     3514,     3534,     3537,     3516,     3513
    3063,     3518,     3539,     3538,     3517,     3515,     3536,     3535,     3514
    3064,     3537,     3540,     3519,     3516,     2747,     2750,     2729,     2726
    3065,     3538,     3541,     3520,     3517,     3537,     3540,     3519,     3516
    3066,     3521,     3542,     3541,     3520,     3518,     3539,     3538,     3517
    3067,     3540,     3543,     3522,     3519,     2750,     2753,     2732,     2729
    3068,     3541,     3544,     3523,     3520,     3540,     3543,     3522,     3519
    3069,     3524,     3545,     3544,     3523,     3521,     3542,     3541,     3520
    3070,     3543,     3546,     3525,     3522,     2753,     2756,     2735,     2732
    3071,     3544,     3547,     3526,     3523,     3543,     3546,     3525,     3522
    3072,     3547,     3548,     3545,     3544,     3526,     3527,     3524,     3523
    3073,     3549,     3552,     3531,     3528,     2759,     2762,     2741,     2738
    3074,     3550,     3553,     3532,     3529,     3549,     3552,     3531,     3528
    3075,     3533,     3554,     3553,     3532,     3530,     3551,     3550,     3529
    3076,     3552,     3555,     3534,     3531,     2762,     2765,     2744,     2741
    3077,     3553,     3556,     3535,     3532,     3552,     3555,     3534,     3531
    3078,     3536,     3557,     3556,     3535,     3533,     3554,     3553,     3532
    3079,     3555,     3558,     3537,     3534,     2765,     2768,     2747,     2744
    3080,     3556,     3559,     3538,     3535,     3555,     3558,     3537,     3534
    3081,     3539,     3560,     3559,     3538,     3536,     3557,     3556,     3535
    3082,     3558,     3561,     3540,     3537,     2768,     2771,     2750,     2747
    3083,     3559,     3562,     3541,     3538,     3558,     3561,     3540,     3537
    3084,     3542,     3563,     3562,     3541,     3539,     3560,     3559,     3538
    3085,     3561,     3564,     3543,     3540,     2771,     2774,     2753,     2750
    3086,     3562,     3565,     3544,     3541,     3561,     3564,     3543,     3540
    3087,     3545,     3566,     3565,     3544,     3542,     3563,     3562,     3541
    3088,     3564,     3567,     3546,     3543,     2774,     2777,     2756,     2753
    3089,     3565,     3568,     3547,     3544,     3564,     3567,     3546,     3543
    3090,     3568,     3569,     3566,     3565,     3547,     3548,     3545,     3544
    3091,     3570,     3573,     3552,     3549,     2780,     2783,     2762,     2759
    3092,     3571,     3574,     3553,     3550,     3570,     3573,     3552,     3549
    3093,     3554,     3575,     3574,     3553,     3551,     3572,     3571,     3550
    3094,     3573,     3576,     3555,     3552,     2783,     2786,     2765,     2762
    3095,     3574,     3577,     3556,     3553,     3573,     3576,     3555,     3552
    3096,     3557,     3578,     3577,     3556,     3554,     3575,     3574,     3553
    3097,     3576,     3579,     3558,     3555,     2786,     2789,     2768,     2765
    3098,     3577,     3580,     3559,     3556,     3576,     3579,     3558,     3555
    3099,     3560,     3581,     3580,     3559,     3557,     3578,     3577,     3556
    3100,     3579,     3582,     3561,     3558,     2789,     2792,     2771,     2768
    3101,     3580,     3583,     3562,     3559,     3579,     3582,     3561,     3558
    3102,     3563,     3584,     3583,     3562,     3560,     3581,     3580,     3559
    3103,     3582,     3585,     3564,     3561,     2792,     2795,     2774,     2771
    3104,     3583,     3586,     3565,     3562,     3582,     3585,     3564,     3561
    3105,     3566,     3587,     3586,     3565,     3563,     3584,     3583,     3562
    3106,     3585,     3588,     3567,     3564,     2795,     2798,     2777,     2774
    3107,     3586,     3589,     3568,     3565,     3585,     3588,     3567,     3564
    3108,     3589,     3590,     3587,     3586,     3568,     3569,     3566,     3565
    3109,     3591,     3594,     3573,     3570,     2801,     2804,     2783,     2780
    3110,     3592,     3595,     3574,     3571,     3591,     3594,     3573,     3570
    3111,     3575,     3596,     3595,     3574,     3572,     3593,     3592,     3571
    3112,     3594,     3597,     3576,     3573,     2804,     2807,     2786,     2783
    3113,     3595,     3598,     3577,     3574,     3594,     3597,     3576,     3573
    3114,     3578,     3599,     3598,     3577,     3575,     3596,     3595,     3574
    3115,     3597,     3600,     3579,     3576,     2807,     2810,     2789,     2786
    3116,     3598,     3601,     3580,     3577,     3597,     3600,     3579,     3576
    3117,     3581,     3602,     3601,     3580,     3578,     3599,     3598,     3577
    3118,     3600,     3603,     3582,     3579,     2810,     2813,     2792,     2789
    3119,     3601,     3604,     3583,     3580,     3600,     3603,     3582,     3579
    3120,     3584,     3605,     3604,     3583,     3581,     3602,     3601,     3580
    3121,     3603,     3606,     3585,     3582,     2813,     2816,     2795,     2792
    3122,     3604,     3607,     3586,     3583,     3603,     3606,     3585,     3582
    3123,     3587,     3608,     3607,     3586,     3584,     3605,     3604,     3583
    3124,     3606,     3609,     3588,     3585,     2816,     2819,     2798,     2795
    3125,     3607,     3610,     3589,     3586,     3606,     3609,     3588,     3585
    3126,     3610,     3611,     3608,     3607,     3589,     3590,     3587,     3586
    3127,     3612,     3615,     3594,     3591,     2822,     2825,     2804,     2801
    3128,     3613,     3616,     3595,     3592,     3612,     3615,     3594,     3591
    3129,     3596,     3617,     3616,     3595,     3593,     3614,     3613,     3592
    3130,     3615,     3618,     3597,     3594,     2825,     2828,     2807,     2804
    3131,     3616,     3619,     3598,     3595,     3615,     3618,     3597,     3594
    3132,     3599,     3620,     3619,     3598,     3596,     3617,     3616,     3595
    3133,     3618,     3621,     3600,     3597,     2828,     2831,     2810,     2807
    3134,     3619,     3622,     3601,     3598,     3618,     3621,     3600,     3597
    3135,     3602,     3623,     3622,     3601,     3599,     3620,     3619,     3598
    3136,     3621,     3624,     3603,     3600,     2831,     2834,     2813,     2810
    3137,     3622,     3625,     3604,     3601,     3621,     3624,     3603,     3600
    3138,     3605,     3626,     3625,     3604,     3602,     3623,     3622,     3601
    3139,     3624,     3627,     3606,     3603,     2834,     2837,     2816,     2813
    3140,     3625,     3628,     3607,     3604,     3624,     3627,     3606,     3603
    3141,     3608,     3629,     3628,     3607,     3605,     3626,     3625,     3604
    3142,     3627,     3630,     3609,     3606,     2837,     2840,     2819,     2816
    3143,     3628,     3631,     3610,     3607,     3627,     3630,     3609,     3606
    3144,     3631,     3632,     3629,     3628,     3610,     3611,     3608,     3607
    3145,     3633,     3636,     3615,     3612,     2843,     2846,     2825,     2822
    3146,     3634,     3637,     3616,     3613,     3633,     3636,     3615,     3612
    3147,     3617,     3638,     3637,     3616,     3614,     3635,     3634,     3613
    3148,     3636,     3639,     3618,     3615,     2846,     2849,     2828,     2825
    3149,     3637,     3640,     3619,     3616,     3636,     3639,     3618,     3615
    3150,     3620,     3641,     3640,     3619,     3617,     3638,     3637,     3616
    3151,     3639,     3642,     3621,     3618,     2849,     2852,     2831,     2828
    3152,     3640,     3643,     3622,     3619,     3639,     3642,     3621,     3618
    3153,     3623,     3644,     3643,     3622,     3620,     3641,     3640,     3619
    3154,     3642,     3645,     3624,     3621,     2852,     2855,     2834,     2831
    3155,     3643,     3646,     3625,     3622,     3642,     3645,     3624,     3621
    3156,     3626,     3647,     3646,     3625,     3623,     3644,     3643,     3622
    3157,     3645,     3648,     3627,     3624,     2855,     2858,     2837,     2834
    3158,     3646,     3649,     3628,     3625,     3645,     3648,     3627,     3624
    3159,     3629,     3650,     3649,     3628,     3626,     3647,     3646,     3625
    3160,     3648,     3651,     3630,     3627,     2858,     2861,     2840,     2837
    3161,     3649,     3652,     3631,     3628,     3648,     3651,     3630,     3627
    3162,     3652,     3653,     3650,     3649,     3631,     3632,     3629,     3628
    3163,     3654,     3657,     3636,     3633,     2864,     2867,     2846,     2843
    3164,     3655,     3658,     3637,     3634,     3654,     3657,     3636,     3633
    3165,     3638,     3659,     3658,     3637,     3635,     3656,     3655,     3634
    3166,     3657,     3660,     3639,     3636,     2867,     2870,     2849,     2846
    3167,     3658,     3661,     3640,     3637,     3657,     3660,     3639,     3636
    3168,     3641,     3662,     3661,     3640,     3638,     3659,     3658,     3637
    3169,     3660,     3663,     3642,     3639,     2870,     2873,     2852,     2849
    3170,     3661,     3664,     3643,     3640,     3660,     3663,     3642,     3639
    3171,     3644,     3665,     3664,     3643,     3641,     3662,     3661,     3640
    3172,     3663,     3666,     3645,     3642,     2873,     2876,     2855,     2852
    3173,     3664,     3667,     3646,     3643,     3663,     3666,     3645,     3642
    3174,     3647,     3668,     3667,     3646,     3644,     3665,     3664,     3643
    3175,     3666,     3669,     3648,     3645,     2876,     2879,     2858,     2855
    3176,     3667,     3670,     3649,     3646,     3666,     3669,     3648,     3645
    3177,     3650,     3671,     3670,     3649,     3647,     3668,     3667,     3646
    3178,     3669,     3672,     3651,     3648,     2879,     2882,     2861,     2858
    3179,     3670,     3673,     3652,     3649,     3669,     3672,     3651,     3648
    3180,     3653,     3674,     3673,     3652,     3650,     3671,     3670,     3649
    3181,     3483,     3693,     3675,     3462,     2693,     2903,     2885,     2672
    3182,     3484,     3694,     3676,     3463,     3483,     3693,     3675,     3462
    3183,     3677,     3695,     3694,     3676,     3464,     3485,     3484,     3463
    3184,     3693,     3696,     3678,     3675,     2903,     2906,     2888,     2885
    3185,     3694,     3697,     3679,     3676,     3693,     3696,     3678,     3675
    3186,     3680,     3698,     3697,     3679,     3677,     3695,     3694,     3676
    3187,     3696,     3699,     3681,     3678,     2906,     2909,     2891,     2888
    3188,     3697,     3700,     3682,     3679,     3696,     3699,     3681,     3678
    3189,     3683,     3701,     3700,     3682,     3680,     3698,     3697,     3679
    3190,     3699,     3702,     3684,     3681,     2909,     2912,     2894,     2891
    3191,     3700,     3703,     3685,     3682,     3699,     3702,     3684,     3681
    3192,     3686,     3704,     3703,     3685,     3683,     3701,     3700,     3682
    3193,     3702,     3705,     3687,     3684,     2912,     2915,     2897,     2894
    3194,     3703,     3706,     3688,     3685,     3702,     3705,     3687,     3684
    3195,     3689,     3707,     3706,     3688,     3686,     3704,     3703,     3685
    3196,     3705,     3708,     3690,     3687,     2915,     2918,     2900,     2897
    3197,     3706,     3709,     3691,     3688,     3705,     3708,     3690,     3687
    3198,     3709,     3710,     3707,     3706,     3691,     3692,     3689,     3688
    3199,     3504,     3711,     3693,     3483,     2714,     2921,     2903,     2693
    3200,     3505,     3712,     3694,     3484,     3504,     3711,     3693,     3483
    3201,     3695,     3713,     3712,     3694,     3485,     3506,     3505,     3484
    3202,     3711,     3714,     3696,     3693,     2921,     2924,     2906,     2903
    3203,     3712,     3715,     3697,     3694,     3711,     3714,     3696,     3693
    3204,     3698,     3716,     3715,     3697,     3695,     3713,     3712,     3694
    3205,     3714,     3717,     3699,     3696,     2924,     2927,     2909,     2906
    3206,     3715,     3718,     3700,     3697,     3714,     3717,     3699,     3696
    3207,     3701,     3719,     3718,     3700,     3698,     3716,     3715,     3697
    3208,     3717,     3720,     3702,     3699,     2927,     2930,     2912,     2909
    3209,     3718,     3721,     3703,     3700,     3717,     3720,     3702,     3699
    3210,     3704,     3722,     3721,     3703,     3701,     3719,     3718,     3700
    3211,     3720,     3723,     3705,     3702,     2930,     2933,     2915,     2912
    3212,     3721,     3724,     3706,     3703,     3720,     3723,     3705,     3702
    3213,     3707,     3725,     3724,     3706,     3704,     3722,     3721,     3703
    3214,     3723,     3726,     3708,     3705,     2933,     2936,     2918,     2915
    3215,     3724,     3727,     3709,     3706,     3723,     3726,     3708,     3705
    3216,     3727,     3728,     3725,     3724,     3709,     3710,     3707,     3706
    3217,     3525,     3729,     3711,     3504,     2735,     2939,     2921,     2714
    3218,     3526,     3730,     3712,     3505,     3525,     3729,     3711,     3504
    3219,     3713,     3731,     3730,     3712,     3506,     3527,     3526,     3505
    3220,     3729,     3732,     3714,     3711,     2939,     2942,     2924,     2921
    3221,     3730,     3733,     3715,     3712,     3729,     3732,     3714,     3711
    3222,     3716,     3734,     3733,     3715,     3713,     3731,     3730,     3712
    3223,     3732,     3735,     3717,     3714,     2942,     2945,     2927,     2924
    3224,     3733,     3736,     3718,     3715,     3732,     3735,     3717,     3714
    3225,     3719,     3737,     3736,     3718,     3716,     3734,     3733,     3715
    3226,     3735,     3738,     3720,     3717,     2945,     2948,     2930,     2927
    3227,     3736,     3739,     3721,     3718,     3735,     3738,     3720,     3717
    3228,     3722,     3740,     3739,     3721,     3719,     3737,     3736,     3718
    3229,     3738,     3741,     3723,     3720,     2948,     2951,     2933,     2930
    3230,     3739,     3742,     3724,     3721,     3738,     3741,     3723,     3720
    3231,     3725,     3743,     3742,     3724,     3722,     3740,     3739,     3721
    3232,     3741,     3744,     3726,     3723,     2951,     2954,     2936,     2933
    3233,     3742,     3745,     3727,     3724,     3741,     3744,     3726,     3723
    3234,     3745,     3746,     3743,     3742,     3727,     3728,     3725,     3724
    3235,     3546,     3747,     3729,     3525,     2756,     2957,     2939,     2735
    3236,     3547,     3748,     3730,     3526,     3546,     3747,     3729,     3525
    3237,     3731,     3749,     3748,     3730,     3527,     3548,     3547,     3526
    3238,     3747,     3750,     3732,     3729,     2957,     2960,     2942,     2939
    3239,     3748,     3751,     3733,     3730,     3747,     3750,     3732,     3729
    3240,     3734,     3752,     3751,     3733,     3731,     3749,     3748,     3730
    3241,     3750,     3753,     3735,     3732,     2960,     2963,     2945,     2942
    3242,     3751,     3754,     3736,     3733,     3750,     3753,     3735,     3732
    3243,     3737,     3755,     3754,     3736,     3734,     3752,     3751,     3733
    3244,     3753,     3756,     3738,     3735,     2963,     2966,     2948,     2945
    3245,     3754,     3757,     3739,     3736,     3753,     3756,     3738,     3735
    3246,     3740,     3758,     3757,     3739,     3737,     3755,     3754,     3736
    3247,     3756,     3759,     3741,     3738,     2966,     2969,     2951,     2948
    3248,     3757,     3760,     3742,     3739,     3756,     3759,     3741,     3738
    3249,     3743,     3761,     3760,     3742,     3740,     3758,     3757,     3739
    3250,     3759,     3762,     3744,     3741,     2969,     2972,     2954,     2951
    3251,     3760,     3763,     3745,     3742,     3759,     3762,     3744,     3741
    3252,     3763,     3764,     3761,     3760,     3745,     3746,     3743,     3742
    3253,     3567,     3765,     3747,     3546,     2777,     2975,     2957,     2756
    3254,     3568,     3766,     3748,     3547,     3567,     3765,     3747,     3546
    3255,     3749,     3767,     3766,     3748,     3548,     3569,     3568,     3547
    3256,     3765,     3768,     3750,     3747,     2975,     2978,     2960,     2957
    3257,     3766,     3769,     3751,     3748,     3765,     3768,     3750,     3747
    3258,     3752,     3770,     3769,     3751,     3749,     3767,     3766,     3748
    3259,     3768,     3771,     3753,     3750,     2978,     2981,     2963,     2960
    3260,     3769,     3772,     3754,     3751,     3768,     3771,     3753,     3750
    3261,     3755,     3773,     3772,     3754,     3752,     3770,     3769,     3751
    3262,     3771,     3774,     3756,     3753,     2981,     2984,     2966,     2963
    3263,     3772,     3775,     3757,     3754,     3771,     3774,     3756,     3753
    3264,     3758,     3776,     3775,     3757,     3755,     3773,     3772,     3754
    3265,     3774,     3777,     3759,     3756,     2984,     2987,     2969,     2966
    3266,     3775,     3778,     3760,     3757,     3774,     3777,     3759,     3756
    3267,     3761,     3779,     3778,     3760,     3758,     3776,     3775,     3757
    3268,     3777,     3780,     3762,     3759,     2987,     2990,     2972,     2969
    3269,     3778,     3781,     3763,     3760,     3777,     3780,     3762,     3759
    3270,     3781,     3782,     3779,     3778,     3763,     3764,     3761,     3760
    3271,     3588,     3783,     3765,     3567,     2798,     2993,     2975,     2777
    3272,     3589,     3784,     3766,     3568,     3588,     3783,     3765,     3567
    3273,     3767,     3785,     3784,     3766,     3569,     3590,     3589,     3568
    3274,     3783,     3786,     3768,     3765,     2993,     2996,     2978,     2975
    3275,     3784,     3787,     3769,     3766,     3783,     3786,     3768,     3765
    3276,     3770,     3788,     3787,     3769,     3767,     3785,     3784,     3766
    3277,     3786,     3789,     3771,     3768,     2996,     2999,     2981,     2978
    3278,     3787,     3790,     3772,     3769,     3786,     3789,     3771,     3768
    3279,     3773,     3791,     3790,     3772,     3770,     3788,     3787,     3769
    3280,     3789,     3792,     3774,     3771,     2999,     3002,     2984,     2981
    3281,     3790,     3793,     3775,     3772,     3789,     3792,     3774,     3771
    3282,     3776,     3794,     3793,     3775,     3773,     3791,     3790,     3772
    3283,     3792,     3795,     3777,     3774,     3002,     3005,     2987,     2984
    3284,     3793,     3796,     3778,     3775,     3792,     3795,     3777,     3774
    3285,     3779,     3797,     3796,     3778,     3776,     3794,     3793,     3775
    3286,     3795,     3798,     3780,     3777,     3005,     3008,     2990,     2987
    3287,     3796,     3799,     3781,     3778,     3795,     3798,     3780,     3777
    3288,     3799,     3800,     3797,     3796,     3781,     3782,     3779,     3778
    3289,     3609,     3801,     3783,     3588,     2819,     3011,     2993,     2798
    3290,     3610,     3802,     3784,     3589,     3609,     3801,     3783,     3588
    3291,     3785,     3803,     3802,     3784,     3590,     3611,     3610,     3589
    3292,     3801,     3804,     3786,     3783,     3011,     3014,     2996,     2993
    3293,     3802,     3805,     3787,     3784,     3801,     3804,     3786,     3783
    3294,     3788,     3806,     3805,     3787,     3785,     3803,     3802,     3784
    3295,     3804,     3807,     3789,     3786,     3014,     3017,     2999,     2996
    3296,     3805,     3808,     3790,     3787,     3804,     3807,     3789,     3786
    3297,     3791,     3809,     3808,     3790,     3788,     3806,     3805,     3787
    3298,     3807,     3810,     3792,     3789,     3017,     3020,     3002,     2999
    3299,     3808,     3811,     3793,     3790,     3807,     3810,     3792,     3789
    3300,     3794,     3812,     3811,     3793,     3791,     3809,     3808,     3790
    3301,     3810,     3813,     3795,     3792,     3020,     3023,     3005,     3002
    3302,     3811,     3814,     3796,     3793,     3810,     3813,     3795,     3792
    3303,     3797,     3815,     3814,     3796,     3794,     3812,     3811,     3793
    3304,     3813,     3816,     3798,     3795,     3023,     3026,     3008,     3005
    3305,     3814,     3817,     3799,     3796,     3813,     3816,     3798,     3795
    3306,     3817,     3818,     3815,     3814,     3799,     3800,     3797,     3796
    3307,     3630,     3819,     3801,     3609,     2840,     3029,     3011,     2819
    3308,     3631,     3820,     3802,     3610,     3630,     3819,     3801,     3609
    3309,     3803,     3821,     3820,     3802,     3611,     3632,     3631,     3610
    3310,     3819,     3822,     3804,     3801,     3029,     3032,     3014,     3011
    3311,     3820,     3823,     3805,     3802,     3819,     3822,     3804,     3801
    3312,     3806,     3824,     3823,     3805,     3803,     3821,     3820,     3802
    3313,     3822,     3825,     3807,     3804,     3032,     3035,     3017,     3014
    3314,     3823,     3826,     3808,     3805,     3822,     3825,     3807,     3804
    3315,     3809,     3827,     3826,     3808,     3806,     3824,     3823,     3805
    3316,     3825,     3828,     3810,     3807,     3035,     3038,     3020,     3017
    3317,     3826,     3829,     3811,     3808,     3825,     3828,     3810,     3807
    3318,     3812,     3830,     3829,     3811,     3809,     3827,     3826,     3808
    3319,     3828,     3831,     3813,     3810,     3038,     3041,     3023,     3020
    3320,     3829,     3832,     3814,     3811,     3828,     3831,     3813,     3810
    3321,     3815,     3833,     3832,     3814,     3812,     3830,     3829,     3811
    3322,     3831,     3834,     3816,     3813,     3041,     3044,     3026,     3023
    3323,     3832,     3835,     3817,     3814,     3831,     3834,     3816,     3813
    3324,     3835,     3836,     3833,     3832,     3817,     3818,     3815,     3814
    3325,     3651,     3837,     3819,     3630,     2861,     3047,     3029,     2840
    3326,     3652,     3838,     3820,     3631,     3651,     3837,     3819,     3630
    3327,     3821,     3839,     3838,     3820,     3632,     3653,     3652,     3631
    3328,     3837,     3840,     3822,     3819,     3047,     3050,     3032,     3029
    3329,     3838,     3841,     3823,     3820,     3837,     3840,     3822,     3819
    3330,     3824,     3842,     3841,     3823,     3821,     3839,     3838,     3820
    3331,     3840,     3843,     3825,     3822,     3050,     3053,     3035,     3032
    3332,     3841,     3844,     3826,     3823,     3840,     3843,     3825,     3822
    3333,     3827,     3845,     3844,     3826,     3824,     3842,     3841,     3823
    3334,     3843,     3846,     3828,     3825,     3053,     3056,     3038,     3035
    3335,     3844,     3847,     3829,     3826,     3843,     3846,     3828,     3825
    3336,     3830,     3848,     3847,     3829,     3827,     3845,     3844,     3826
    3337,     3846,     3849,     3831,     3828,     3056,     3059,     3041,     3038
    3338,     3847,     3850,     3832,     3829,     3846,     3849,     3831,     3828
    3339,     3833,     3851,     3850,     3832,     3830,     3848,     3847,     3829
    3340,     3849,     3852,     3834,     3831,     3059,     3062,     3044,     3041
    3341,     3850,     3853,     3835,     3832,     3849,     3852,     3834,     3831
    3342,     3853,     3854,     3851,     3850,     3835,     3836,     3833,     3832
    3343,     3672,     3855,     3837,     3651,     2882,     3065,     3047,     2861
    3344,     3673,     3856,     3838,     3652,     3672,     3855,     3837,     3651
    3345,     3839,     3857,     3856,     3838,     3653,     3674,     3673,     3652
    3346,     3855,     3858,     3840,     3837,     3065,     3068,     3050,     3047
    3347,     3856,     3859,     3841,     3838,     3855,     3858,     3840,     3837
    3348,     3842,     3860,     3859,     3841,     3839,     3857,     3856,     3838
    3349,     3858,     3861,     3843,     3840,     3068,     3071,     3053,     3050
    3350,     3859,     3862,     3844,     3841,     3858,     3861,     3843,     3840
    3351,     3845,     3863,     3862,     3844,     3842,     3860,     3859,     3841
    3352,     3861,     3864,     3846,     3843,     3071,     3074,     3056,     3053
    3353,     3862,     3865,     3847,     3844,     3861,     3864,     3846,     3843
    3354,     3848,     3866,     3865,     3847,     3845,     3863,     3862,     3844
    3355,     3864,     3867,     3849,     3846,     3074,     3077,     3059,     3056
    3356,     3865,     3868,     3850,     3847,     3864,     3867,     3849,     3846
    3357,     3851,     3869,     3868,     3850,     3848,     3866,     3865,     3847
    3358,     3867,     3870,     3852,     3849,     3077,     3080,     3062,     3059
    3359,     3868,     3871,     3853,     3850,     3867,     3870,     3852,     3849
    3360,     3854,     3872,     3871,     3853,     3851,     3869,     3868,     3850
    3361,     3708,     3891,     3873,     3690,     2918,     3101,     3083,     2900
    3362,     3709,     3892,     3874,     3691,     3708,     3891,     3873,     3690
    3363,     3875,     3893,     3892,     3874,     3692,     3710,     3709,     3691
    3364,     3891,     3894,     3876,     3873,     3101,     3104,     3086,     3083
    3365,     3892,     3895,     3877,     3874,     3891,     3894,     3876,     3873
    3366,     3878,     3896,     3895,     3877,     3875,     3893,     3892,     3874
    3367,     3894,     3897,     3879,     3876,     3104,     3107,     3089,     3086
    3368,     3895,     3898,     3880,     3877,     3894,     3897,     3879,     3876
    3369,     3881,     3899,     3898,     3880,     3878,     3896,     3895,     3877
    3370,     3897,     3900,     3882,     3879,     3107,     3110,     3092,     3089
    3371,     3898,     3901,     3883,     3880,     3897,     3900,     3882,     3879
    3372,     3884,     3902,     3901,     3883,     3881,     3899,     3898,     3880
    3373,     3900,     3903,     3885,     3882,     3110,     3113,     3095,     3092
    3374,     3901,     3904,     3886,     3883,     3900,     3903,     3885,     3882
    3375,     3887,     3905,     3904,     3886,     3884,     3902,     3901,     3883
    3376,     3903,     3906,     3888,     3885,     3113,     3116,     3098,     3095
    3377,     3904,     3907,     3889,     3886,     3903,     3906,     3888,     3885
    3378,     3907,     3908,     3905,     3904,     3889,     3890,     3887,     3886
    3379,     3726,     3909,     3891,     3708,     2936,     3119,     3101,     2918
    3380,     3727,     3910,     3892,     3709,     3726,     3909,     3891,     3708
    3381,     3893,     3911,     3910,     3892,     3710,     3728,     3727,     3709
    3382,     3909,     3912,     3894,     3891,     3119,     3122,     3104,     3101
    3383,     3910,     3913,     3895,     3892,     3909,     3912,     3894,     3891
    3384,     3896,     3914,     3913,     3895,     3893,     3911,     3910,     3892
    3385,     3912,     3915,     3897,     3894,     3122,     3125,     3107,     3104
    3386,     3913,     3916,     3898,     3895,     3912,     3915,     3897,     3894
    3387,     3899,     3917,     3916,     3898,     3896,     3914,     3913,     3895
    3388,     3915,     3918,     3900,     3897,     3125,     3128,     3110,     3107
    3389,     3916,     3919,     3901,     3898,     3915,     3918,     3900,     3897
    3390,     3902,     3920,     3919,     3901,     3899,     3917,     3916,     3898
    3391,     3918,     3921,     3903,     3900,     3128,     3131,     3113,     3110
    3392,     3919,     3922,     3904,     3901,     3918,     3921,     3903,     3900
    3393,     3905,     3923,     3922,     3904,     3902,     3920,     3919,     3901
    3394,     3921,     3924,     3906,     3903,     3131,     3134,     3116,     3113
    3395,     3922,     3925,     3907,     3904,     3921,     3924,     3906,     3903
    3396,     3925,     3926,     3923,     3922,     3907,     3908,     3905,     3904
    3397,     3744,     3927,     3909,     3726,     2954,     3137,     3119,     2936
    3398,     3745,     3928,     3910,     3727,     3744,     3927,     3909,     3726
    3399,     3911,     3929,     3928,     3910,     3728,     3746,     3745,     3727
    3400,     3927,     3930,     3912,     3909,     3137,     3140,     3122,     3119
    3401,     3928,     3931,     3913,     3910,     3927,     3930,     3912,     3909
    3402,     3914,     3932,     3931,     3913,     3911,     3929,     3928,     3910
    3403,     3930,     3933,     3915,     3912,     3140,     3143,     3125,     3122
    3404,     3931,     3934,     3916,     3913,     3930,     3933,     3915,     3912
    3405,     3917,     3935,     3934,     3916,     3914,     3932,     3931,     3913
    3406,     3933,     3936,     3918,     3915,     3143,     3146,     3128,     3125
    3407,     3934,     3937,     3919,     3916,     3933,     3936,     3918,     3915
    3408,     3920,     3938,     3937,     3919,     3917,     3935,     3934,     3916
    3409,     3936,     3939,     3921,     3918,     3146,     3149,     3131,     3128
    3410,     3937,     3940,     3922,     3919,     3936,     3939,     3921,     3918
    3411,     3923,     3941,     3940,     3922,     3920,     3938,     3937,     3919
    3412,     3939,     3942,     3924,     3921,     3149,     3152,     3134,     3131
    3413,     3940,     3943,     3925,     3922,     3939,     3942,     3924,     3921
    3414,     3943,     3944,     3941,     3940,     3925,     3926,     3923,     3922
    3415,     3762,     3945,     3927,     3744,     2972,     3155,     3137,     2954
    3416,     3763,     3946,     3928,     3745,     3762,     3945,     3927,     3744
    3417,     3929,     3947,     3946,     3928,     3746,     3764,     3763,     3745
    3418,     3945,     3948,     3930,     3927,     3155,     3158,     3140,     3137
    3419,     3946,     3949,     3931,     3928,     3945,     3948,     3930,     3927
    3420,     3932,     3950,     3949,     3931,     3929,     3947,     3946,     3928
    3421,     3948,     3951,     3933,     3930,     3158,     3161,     3143,     3140
    3422,     3949,     3952,     3934,     3931,     3948,     3951,     3933,     3930
    3423,     3935,     3953,     3952,     3934,     3932,     3950,     3949,     3931
    3424,     3951,     3954,     3936,     3933,     3161,     3164,     3146,     3143
    3425,     3952,     3955,     3937,     3934,     3951,     3954,     3936,     3933
    3426,     3938,     3956,     3955,     3937,     3935,     3953,     3952,     3934
    3427,     3954,     3957,     3939,     3936,     3164,     3167,     3149,     3146
    3428,     3955,     3958,     3940,     3937,     3954,     3957,     3939,     3936
    3429,     3941,     3959,     3958,     3940,     3938,     3956,     3955,     3937
    3430,     3957,     3960,     3942,     3939,     3167,     3170,     3152,     3149
    3431,     3958,     3961,     3943,     3940,     3957,     3960,     3942,     3939
    3432,     3961,     3962,     3959,     3958,     3943,     3944,     3941,     3940
    3433,     3780,     3963,     3945,     3762,     2990,     3173,     3155,     2972
    3434,     3781,     3964,     3946,     3763,     3780,     3963,     3945,     3762
    3435,     3947,     3965,     3964,     3946,     3764,     3782,     3781,     3763
    3436,     3963,     3966,     3948,     3945,     3173,     3176,     3158,     3155
    3437,     3964,     3967,     3949,     3946,     3963,     3966,     3948,     3945
    3438,     3950,     3968,     3967,     3949,     3947,     3965,     3964,     3946
    3439,     3966,     3969,     3951,     3948,     3176,     3179,     3161,     3158
    3440,     3967,     3970,     3952,     3949,     3966,     3969,     3951,     3948
    3441,     3953,     3971,     3970,     3952,     3950,     3968,     3967,     3949
    3442,     3969,     3972,     3954,     3951,     3179,     3182,     3164,     3161
    3443,     3970,     3973,     3955,     3952,     3969,     3972,     3954,     3951
    3444,     3956,     3974,     3973,     3955,     3953,     3971,     3970,     3952
    3445,     3972,     3975,     3957,     3954,     3182,     3185,     3167,     3164
    3446,     3973,     3976,     3958,     3955,     3972,     3975,     3957,     3954
    3447,     3959,     3977,     3976,     3958,     3956,     3974,     3973,     3955
    3448,     3975,     3978,     3960,     3957,     3185,     3188,     3170,     3167
    3449,     3976,     3979,     3961,     3958,     3975,     3978,     3960,     3957
    3450,     3979,     3980,     3977,     3976,     3961,     3962,     3959,     3958
    3451,     3798,     3981,     3963,     3780,     3008,     3191,     3173,     2990
    3452,     3799,     3982,     3964,     3781,     3798,     3981,     3963,     3780
    3453,     3965,     3983,     3982,     3964,     3782,     3800,     3799,     3781
    3454,     3981,     3984,     3966,     3963,     3191,     3194,     3176,     3173
    3455,     3982,     3985,     3967,     3964,     3981,     3984,     3966,     3963
    3456,     3968,     3986,     3985,     3967,     3965,     3983,     3982,     3964
    3457,     3984,     3987,     3969,     3966,     3194,     3197,     3179,     3176
    3458,     3985,     3988,     3970,     3967,     3984,     3987,     3969,     3966
    3459,     3971,     3989,     3988,     3970,     3968,     3986,     3985,     3967
    3460,     3987,     3990,     3972,     3969,     3197,     3200,     3182,     3179
    3461,     3988,     3991,     3973,     3970,     3987,     3990,     3972,     3969
    3462,     3974,     3992,     3991,     3973,     3971,     3989,     3988,     3970
    3463,     3990,     3993,     3975,     3972,     3200,     3203,     3185,     3182
    3464,     3991,     3994,     3976,     3973,     3990,     3993,     3975,     3972
    3465,     3977,     3995,     3994,     3976,     3974,     3992,     3991,     3973
    3466,     3993,     3996,     3978,     3975,     3203,     3206,     3188,     3185
    3467,     3994,     3997,     3979,     3976,     3993,     3996,     3978,     3975
    3468,     3997,     3998,     3995,     3994,     3979,     3980,     3977,     3976
    3469,     3816,     3999,     3981,     3798,     3026,     3209,     3191,     3008
    3470,     3817,     4000,     3982,     3799,     3816,     3999,     3981,     3798
    3471,     3983,     4001,     4000,     3982,     3800,     3818,     3817,     3799
    3472,     3999,     4002,     3984,     3981,     3209,     3212,     3194,     3191
    3473,     4000,     4003,     3985,     3982,     3999,     4002,     3984,     3981
    3474,     3986,     4004,     4003,     3985,     3983,     4001,     4000,     3982
    3475,     4002,     4005,     3987,     3984,     3212,     3215,     3197,     3194
    3476,     4003,     4006,     3988,     3985,     4002,     4005,     3987,     3984
    3477,     3989,     4007,     4006,     3988,     3986,     4004,     4003,     3985
    3478,     4005,     4008,     3990,     3987,     3215,     3218,     3200,     3197
    3479,     4006,     4009,     3991,     3988,     4005,     4008,     3990,     3987
    3480,     3992,     4010,     4009,     3991,     3989,     4007,     4006,     3988
    3481,     4008,     4011,     3993,     3990,     3218,     3221,     3203,     3200
    3482,     4009,     4012,     3994,     3991,     4008,     4011,     3993,     3990
    3483,     3995,     4013,     4012,     3994,     3992,     4010,     4009,     3991
    3484,     4011,     4014,     3996,     3993,     3221,     3224,     3206,     3203
    3485,     4012,     4015,     3997,     3994,     4011,     4014,     3996,     3993
    3486,     4015,     4016,     4013,     4012,     3997,     3998,     3995,     3994
    3487,     3834,     4017,     3999,     3816,     3044,     3227,     3209,     3026
    3488,     3835,     4018,     4000,     3817,     3834,     4017,     3999,     3816
    3489,     4001,     4019,     4018,     4000,     3818,     3836,     3835,     3817
    3490,     4017,     4020,     4002,     3999,     3227,     3230,     3212,     3209
    3491,     4018,     4021,     4003,     4000,     4017,     4020,     4002,     3999
    3492,     4004,     4022,     4021,     4003,     4001,     4019,     4018,     4000
    3493,     4020,     4023,     4005,     4002,     3230,     3233,     3215,     3212
    3494,     4021,     4024,     4006,     4003,     4020,     4023,     4005,     4002
    3495,     4007,     4025,     4024,     4006,     4004,     4022,     4021,     4003
    3496,     4023,     4026,     4008,     4005,     3233,     3236,     3218,     3215
    3497,     4024,     4027,     4009,     4006,     4023,     4026,     4008,     4005
    3498,     4010,     4028,     4027,     4009,     4007,     4025,     4024,     4006
    3499,     4026,     4029,     4011,     4008,     3236,     3239,     3221,     3218
    3500,     4027,     4030,     4012,     4009,     4026,     4029,     4011,     4008
    3501,     4013,     4031,     4030,     4012,     4010,     4028,     4027,     4009
    3502,     4029,     4032,     4014,     4011,     3239,     3242,     3224,     3221
    3503,     4030,     4033,     4015,     4012,     4029,     4032,     4014,     4011
    3504,     4033,     4034,     4031,     4030,     4015,     4016,     4013,     4012
    3505,     3852,     4035,     4017,     3834,     3062,     3245,     3227,     3044
    3506,     3853,     4036,     4018,     3835,     3852,     4035,     4017,     3834
    3507,     4019,     4037,     4036,     4018,     3836,     3854,     3853,     3835
    3508,     4035,     4038,     4020,     4017,     3245,     3248,     3230,     3227
    3509,     4036,     4039,     4021,     4018,     4035,     4038,     4020,     4017
    3510,     4022,     4040,     4039,     4021,     4019,     4037,     4036,     4018
    3511,     4038,     4041,     4023,     4020,     3248,     3251,     3233,     3230
    3512,     4039,     4042,     4024,     4021,     4038,     4041,     4023,     4020
    3513,     4025,     4043,     4042,     4024,     4022,     4040,     4039,     4021
    3514,     4041,     4044,     4026,     4023,     3251,     3254,     3236,     3233
    3515,     4042,     4045,     4027,     4024,     4041,     4044,     4026,     4023
    3516,     4028,     4046,     4045,     4027,     4025,     4043,     4042,     4024
    3517,     4044,     4047,     4029,     4026,     3254,     3257,     3239,     3236
    3518,     4045,     4048,     4030,     4027,     4044,     4047,     4029,     4026
    3519,     4031,     4049,     4048,     4030,     4028,     4046,     4045,     4027
    3520,     4047,     4050,     4032,     4029,     3257,     3260,     3242,     3239
    3521,     4048,     4051,     4033,     4030,     4047,     4050,     4032,     4029
    3522,     4051,     4052,     4049,     4048,     4033,     4034,     4031,     4030
    3523,     3870,     4053,     4035,     3852,     3080,     3263,     3245,     3062
    3524,     3871,     4054,     4036,     3853,     3870,     4053,     4035,     3852
    3525,     4037,     4055,     4054,     4036,     3854,     3872,     3871,     3853
    3526,     4053,     4056,     4038,     4035,     3263,     3266,     3248,     3245
    3527,     4054,     4057,     4039,     4036,     4053,     4056,     4038,     4035
    3528,     4040,     4058,     4057,     4039,     4037,     4055,     4054,     4036
    3529,     4056,     4059,     4041,     4038,     3266,     3269,     3251,     3248
    3530,     4057,     4060,     4042,     4039,     4056,     4059,     4041,     4038
    3531,     4043,     4061,     4060,     4042,     4040,     4058,     4057,     4039
    3532,     4059,     4062,     4044,     4041,     3269,     3272,     3254,     3251
    3533,     4060,     4063,     4045,     4042,     4059,     4062,     4044,     4041
    3534,     4046,     4064,     4063,     4045,     4043,     4061,     4060,     4042
    3535,     4062,     4065,     4047,     4044,     3272,     3275,     3257,     3254
    3536,     4063,     4066,     4048,     4045,     4062,     4065,     4047,     4044
    3537,     4049,     4067,     4066,     4048,     4046,     4064,     4063,     4045
    3538,     4065,     4068,     4050,     4047,     3275,     3278,     3260,     3257
    3539,     4066,     4069,     4051,     4048,     4065,     4068,     4050,     4047
    3540,     4052,     4070,     4069,     4051,     4049,     4067,     4066,     4048
    3541,     3906,     4086,     4071,     3888,     3116,     3296,     3281,     3098
    3542,     3907,     4087,     4072,     3889,     3906,     4086,     4071,     3888
    3543,     4073,     4088,     4087,     4072,     3890,     3908,     3907,     3889
    3544,     4086,     4089,     4074,     4071,     3296,     3299,     3284,     3281
    3545,     4087,     4090,     4075,     4072,     4086,     4089,     4074,     4071
    3546,     4076,     4091,     4090,     4075,     4073,     4088,     4087,     4072
    3547,     4089,     4092,     4077,     4074,     3299,     3302,     3287,     3284
    3548,     4090,     4093,     4078,     4075,     4089,     4092,     4077,     4074
    3549,     4079,     4094,     4093,     4078,     4076,     4091,     4090,     4075
    3550,     4092,     4095,     4080,     4077,     3302,     3305,     3290,     3287
    3551,     4093,     4096,     4081,     4078,     4092,     4095,     4080,     4077
    3552,     4082,     4097,     4096,     4081,     4079,     4094,     4093,     4078
    3553,     4095,     4098,     4083,     4080,     3305,     3308,     3293,     3290
    3554,     4096,     4099,     4084,     4081,     4095,     4098,     4083,     4080
    3555,     4085,     4100,     4099,     4084,     4082,     4097,     4096,     4081
    3556,     4098,     3465,     3444,     4083,     3308,     2675,     2654,     3293
    3557,     4099,     3466,     3445,     4084,     4098,     3465,     3444,     4083
    3558,     3466,     3467,     4100,     4099,     3445,     3446,     4085,     4084
    3559,     3924,     4101,     4086,     3906,     3134,     3311,     3296,     3116
    3560,     3925,     4102,     4087,     3907,     3924,     4101,     4086,     3906
    3561,     4088,     4103,     4102,     4087,     3908,     3926,     3925,     3907
    3562,     4101,     4104,     4089,     4086,     3311,     3314,     3299,     3296
    3563,     4102,     4105,     4090,     4087,     4101,     4104,     4089,     4086
    3564,     4091,     4106,     4105,     4090,     4088,     4103,     4102,     4087
    3565,     4104,     4107,     4092,     4089,     3314,     3317,     3302,     3299
    3566,     4105,     4108,     4093,     4090,     4104,     4107,     4092,     4089
    3567,     4094,     4109,     4108,     4093,     4091,     4106,     4105,     4090
    3568,     4107,     4110,     4095,     4092,     3317,     3320,     3305,     3302
    3569,     4108,     4111,     4096,     4093,     4107,     4110,     4095,     4092
    3570,     4097,     4112,     4111,     4096,     4094,     4109,     4108,     4093
    3571,     4110,     4113,     4098,     4095,     3320,     3323,     3308,     3305
    3572,     4111,     4114,     4099,     4096,     4110,     4113,     4098,     4095
    3573,     4100,     4115,     4114,     4099,     4097,     4112,     4111,     4096
    3574,     4113,     3486,     3465,     4098,     3323,     2696,     2675,     3308
    3575,     4114,     3487,     3466,     4099,     4113,     3486,     3465,     4098
    3576,     3487,     3488,     4115,     4114,     3466,     3467,     4100,     4099
    3577,     3942,     4116,     4101,     3924,     3152,     3326,     3311,     3134
    3578,     3943,     4117,     4102,     3925,     3942,     4116,     4101,     3924
    3579,     4103,     4118,     4117,     4102,     3926,     3944,     3943,     3925
    3580,     4116,     4119,     4104,     4101,     3326,     3329,     3314,     3311
    3581,     4117,     4120,     4105,     4102,     4116,     4119,     4104,     4101
    3582,     4106,     4121,     4120,     4105,     4103,     4118,     4117,     4102
    3583,     4119,     4122,     4107,     4104,     3329,     3332,     3317,     3314
    3584,     4120,     4123,     4108,     4105,     4119,     4122,     4107,     4104
    3585,     4109,     4124,     4123,     4108,     4106,     4121,     4120,     4105
    3586,     4122,     4125,     4110,     4107,     3332,     3335,     3320,     3317
    3587,     4123,     4126,     4111,     4108,     4122,     4125,     4110,     4107
    3588,     4112,     4127,     4126,     4111,     4109,     4124,     4123,     4108
    3589,     4125,     4128,     4113,     4110,     3335,     3338,     3323,     3320
    3590,     4126,     4129,     4114,     4111,     4125,     4128,     4113,     4110
    3591,     4115,     4130,     4129,     4114,     4112,     4127,     4126,     4111
    3592,     4128,     3507,     3486,     4113,     3338,     2717,     2696,     3323
    3593,     4129,     3508,     3487,     4114,     4128,     3507,     3486,     4113
    3594,     3508,     3509,     4130,     4129,     3487,     3488,     4115,     4114
    3595,     3960,     4131,     4116,     3942,     3170,     3341,     3326,     3152
    3596,     3961,     4132,     4117,     3943,     3960,     4131,     4116,     3942
    3597,     4118,     4133,     4132,     4117,     3944,     3962,     3961,     3943
    3598,     4131,     4134,     4119,     4116,     3341,     3344,     3329,     3326
    3599,     4132,     4135,     4120,     4117,     4131,     4134,     4119,     4116
    3600,     4121,     4136,     4135,     4120,     4118,     4133,     4132,     4117
    3601,     4134,     4137,     4122,     4119,     3344,     3347,     3332,     3329
    3602,     4135,     4138,     4123,     4120,     4134,     4137,     4122,     4119
    3603,     4124,     4139,     4138,     4123,     4121,     4136,     4135,     4120
    3604,     4137,     4140,     4125,     4122,     3347,     3350,     3335,     3332
    3605,     4138,     4141,     4126,     4123,     4137,     4140,     4125,     4122
    3606,     4127,     4142,     4141,     4126,     4124,     4139,     4138,     4123
    3607,     4140,     4143,     4128,     4125,     3350,     3353,     3338,     3335
    3608,     4141,     4144,     4129,     4126,     4140,     4143,     4128,     4125
    3609,     4130,     4145,     4144,     4129,     4127,     4142,     4141,     4126
    3610,     4143,     3528,     3507,     4128,     3353,     2738,     2717,     3338
    3611,     4144,     3529,     3508,     4129,     4143,     3528,     3507,     4128
    3612,     3529,     3530,     4145,     4144,     3508,     3509,     4130,     4129
    3613,     3978,     4146,     4131,     3960,     3188,     3356,     3341,     3170
    3614,     3979,     4147,     4132,     3961,     3978,     4146,     4131,     3960
    3615,     4133,     4148,     4147,     4132,     3962,     3980,     3979,     3961
    3616,     4146,     4149,     4134,     4131,     3356,     3359,     3344,     3341
    3617,     4147,     4150,     4135,     4132,     4146,     4149,     4134,     4131
    3618,     4136,     4151,     4150,     4135,     4133,     4148,     4147,     4132
    3619,     4149,     4152,     4137,     4134,     3359,     3362,     3347,     3344
    3620,     4150,     4153,     4138,     4135,     4149,     4152,     4137,     4134
    3621,     4139,     4154,     4153,     4138,     4136,     4151,     4150,     4135
    3622,     4152,     4155,     4140,     4137,     3362,     3365,     3350,     3347
    3623,     4153,     4156,     4141,     4138,     4152,     4155,     4140,     4137
    3624,     4142,     4157,     4156,     4141,     4139,     4154,     4153,     4138
    3625,     4155,     4158,     4143,     4140,     3365,     3368,     3353,     3350
    3626,     4156,     4159,     4144,     4141,     4155,     4158,     4143,     4140
    3627,     4145,     4160,     4159,     4144,     4142,     4157,     4156,     4141
    3628,     4158,     3549,     3528,     4143,     3368,     2759,     2738,     3353
    3629,     4159,     3550,     3529,     4144,     4158,     3549,     3528,     4143
    3630,     3550,     3551,     4160,     4159,     3529,     3530,     4145,     4144
    3631,     3996,     4161,     4146,     3978,     3206,     3371,     3356,     3188
    3632,     3997,     4162,     4147,     3979,     3996,     4161,     4146,     3978
    3633,     4148,     4163,     4162,     4147,     3980,     3998,     3997,     3979
    3634,     4161,     4164,     4149,     4146,     3371,     3374,     3359,     3356
    3635,     4162,     4165,     4150,     4147,     4161,     4164,     4149,     4146
    3636,     4151,     4166,     4165,     4150,     4148,     4163,     4162,     4147
    3637,     4164,     4167,     4152,     4149,     3374,     3377,     3362,     3359
    3638,     4165,     4168,     4153,     4150,     4164,     4167,     4152,     4149
    3639,     4154,     4169,     4168,     4153,     4151,     4166,     4165,     4150
    3640,     4167,     4170,     4155,     4152,     3377,     3380,     3365,     3362
    3641,     4168,     4171,     4156,     4153,     4167,     4170,     4155,     4152
    3642,     4157,     4172,     4171,     4156,     4154,     4169,     4168,     4153
    3643,     4170,     4173,     4158,     4155,     3380,     3383,     3368,     3365
    3644,     4171,     4174,     4159,     4156,     4170,     4173,     4158,     4155
    3645,     4160,     4175,     4174,     4159,     4157,     4172,     4171,     4156
    3646,     4173,     3570,     3549,     4158,     3383,     2780,     2759,     3368
    3647,     4174,     3571,     3550,     4159,     4173,     3570,     3549,     4158
    3648,     3571,     3572,     4175,     4174,     3550,     3551,     4160,     4159
    3649,     4014,     4176,     4161,     3996,     3224,     3386,     3371,     3206
    3650,     4015,     4177,     4162,     3997,     4014,     4176,     4161,     3996
    3651,     4163,     4178,     4177,     4162,     3998,     4016,     4015,     3997
    3652,     4176,     4179,     4164,     4161,     3386,     3389,     3374,     3371
    3653,     4177,     4180,     4165,     4162,     4176,     4179,     4164,     4161
    3654,     4166,     4181,     4180,     4165,     4163,     4178,     4177,     4162
    3655,     4179,     4182,     4167,     4164,     3389,     3392,     3377,     3374
    3656,     4180,     4183,     4168,     4165,     4179,     4182,     4167,     4164
    3657,     4169,     4184,     4183,     4168,     4166,     4181,     4180,     4165
    3658,     4182,     4185,     4170,     4167,     3392,     3395,     3380,     3377
    3659,     4183,     4186,     4171,     4168,     4182,     4185,     4170,     4167
    3660,     4172,     4187,     4186,     4171,     4169,     4184,     4183,     4168
    3661,     4185,     4188,     4173,     4170,     3395,     3398,     3383,     3380
    3662,     4186,     4189,     4174,     4171,     4185,     4188,     4173,     4170
    3663,     4175,     4190,     4189,     4174,     4172,     4187,     4186,     4171
    3664,     4188,     3591,     3570,     4173,     3398,     2801,     2780,     3383
    3665,     4189,     3592,     3571,     4174,     4188,     3591,     3570,     4173
    3666,     3592,     3593,     4190,     4189,     3571,     3572,     4175,     4174
    3667,     4032,     4191,     4176,     4014,     3242,     3401,     3386,     3224
    3668,     4033,     4192,     4177,     4015,     4032,     4191,     4176,     4014
    3669,     4178,     4193,     4192,     4177,     4016,     4034,     4033,     4015
    3670,     4191,     4194,     4179,     4176,     3401,     3404,     3389,     3386
    3671,     4192,     4195,     4180,     4177,     4191,     4194,     4179,     4176
    3672,     4181,     4196,     4195,     4180,     4178,     4193,     4192,     4177
    3673,     4194,     4197,     4182,     4179,     3404,     3407,     3392,     3389
    3674,     4195,     4198,     4183,     4180,     4194,     4197,     4182,     4179
    3675,     4184,     4199,     4198,     4183,     4181,     4196,     4195,     4180
    3676,     4197,     4200,     4185,     4182,     3407,     3410,     3395,     3392
    3677,     4198,     4201,     4186,     4183,     4197,     4200,     4185,     4182
    3678,     4187,     4202,     4201,     4186,     4184,     4199,     4198,     4183
    3679,     4200,     4203,     4188,     4185,     3410,     3413,     3398,     3395
    3680,     4201,     4204,     4189,     4186,     4200,     4203,     4188,     4185
    3681,     4190,     4205,     4204,     4189,     4187,     4202,     4201,     4186
    3682,     4203,     3612,     3591,     4188,     3413,     2822,     2801,     3398
    3683,     4204,     3613,     3592,     4189,     4203,     3612,     3591,     4188
    3684,     3613,     3614,     4205,     4204,     3592,     3593,     4190,     4189
    3685,     4050,     4206,     4191,     4032,     3260,     3416,     3401,     3242
    3686,     4051,     4207,     4192,     4033,     4050,     4206,     4191,     4032
    3687,     4193,     4208,     4207,     4192,     4034,     4052,     4051,     4033
    3688,     4206,     4209,     4194,     4191,     3416,     3419,     3404,     3401
    3689,     4207,     4210,     4195,     4192,     4206,     4209,     4194,     4191
    3690,     4196,     4211,     4210,     4195,     4193,     4208,     4207,     4192
    3691,     4209,     4212,     4197,     4194,     3419,     3422,     3407,     3404
    3692,     4210,     4213,     4198,     4195,     4209,     4212,     4197,     4194
    3693,     4199,     4214,     4213,     4198,     4196,     4211,     4210,     4195
    3694,     4212,     4215,     4200,     4197,     3422,     3425,     3410,     3407
    3695,     4213,     4216,     4201,     4198,     4212,     4215,     4200,     4197
    3696,     4202,     4217,     4216,     4201,     4199,     4214,     4213,     4198
    3697,     4215,     4218,     4203,     4200,     3425,     3428,     3413,     3410
    3698,     4216,     4219,     4204,     4201,     4215,     4218,     4203,     4200
    3699,     4205,     4220,     4219,     4204,     4202,     4217,     4216,     4201
    3700,     4218,     3633,     3612,     4203,     3428,     2843,     2822,     3413
    3701,     4219,     3634,     3613,     4204,     4218,     3633,     3612,     4203
    3702,     3634,     3635,     4220,     4219,     3613,     3614,     4205,     4204
    3703,     4068,     4221,     4206,     4050,     3278,     3431,     3416,     3260
    3704,     4069,     4222,     4207,     4051,     4068,     4221,     4206,     4050
    3705,     4208,     4223,     4222,     4207,     4052,     4070,     4069,     4051
    3706,     4221,     4224,     4209,     4206,     3431,     3434,     3419,     3416
    3707,     4222,     4225,     4210,     4207,     4221,     4224,     4209,     4206
    3708,     4211,     4226,     4225,     4210,     4208,     4223,     4222,     4207
    3709,     4224,     4227,     4212,     4209,     3434,     3437,     3422,     3419
    3710,     4225,     4228,     4213,     4210,     4224,     4227,     4212,     4209
    3711,     4214,     4229,     4228,     4213,     4211,     4226,     4225,     4210
    3712,     4227,     4230,     4215,     4212,     3437,     3440,     3425,     3422
    3713,     4228,     4231,     4216,     4213,     4227,     4230,     4215,     4212
    3714,     4217,     4232,     4231,     4216,     4214,     4229,     4228,     4213
    3715,     4230,     4233,     4218,     4215,     3440,     3443,     3428,     3425
    3716,     4231,     4234,     4219,     4216,     4230,     4233,     4218,     4215
    3717,     4220,     4235,     4234,     4219,     4217,     4232,     4231,     4216
    3718,     4233,     3654,     3633,     4218,     3443,     2864,     2843,     3428
    3719,     4234,     3655,     3634,     4219,     4233,     3654,     3633,     4218
    3720,     4235,     3656,     3635,     4220,     4234,     3655,     3634,     4219
*ELEMENT, TYPE=C3D8I, ELSET=DURA
    3721,     4257,     4260,     4239,     4236,     3467,     3470,     3449,     3446
    3722,     4258,     4261,     4240,     4237,     4257,     4260,     4239,     4236
    3723,     4241,     4262,     4261,     4240,     4238,     4259,     4258,     4237
    3724,     4260,     4263,     4242,     4239,     3470,     3473,     3452,     3449
    3725,     4261,     4264,     4243,     4240,     4260,     4263,     4242,     4239
    3726,     4244,     4265,     4264,     4243,     4241,     4262,     4261,     4240
    3727,     4263,     4266,     4245,     4242,     3473,     3476,     3455,     3452
    3728,     4264,     4267,     4246,     4243,     4263,     4266,     4245,     4242
    3729,     4247,     4268,     4267,     4246,     4244,     4265,     4264,     4243
    3730,     4266,     4269,     4248,     4245,     3476,     3479,     3458,     3455
    3731,     4267,     4270,     4249,     4246,     4266,     4269,     4248,     4245
    3732,     4250,     4271,     4270,     4249,     4247,     4268,     4267,     4246
    3733,     4269,     4272,     4251,     4248,     3479,     3482,     3461,     3458
    3734,     4270,     4273,     4252,     4249,     4269,     4272,     4251,     4248
    3735,     4253,     4274,     4273,     4252,     4250,     4271,     4270,     4249
    3736,     4272,     4275,     4254,     4251,     3482,     3485,     3464,     3461
    3737,     4273,     4276,     4255,     4252,     4272,     4275,     4254,     4251
    3738,     4276,     4277,     4274,     4273,     4255,     4256,     4253,     4252
    3739,     4278,     4281,     4260,     4257,     3488,     3491,     3470,     3467
    3740,     4279,     4282,     4261,     4258,     4278,     4281,     4260,     4257
    3741,     4262,     4283,     4282,     4261,     4259,     4280,     4279,     4258
    3742,     4281,     4284,     4263,     4260,     3491,     3494,     3473,     3470
    3743,     4282,     4285,     4264,     4261,     4281,     4284,     4263,     4260
    3744,     4265,     4286,     4285,     4264,     4262,     4283,     4282,     4261
    3745,     4284,     4287,     4266,     4263,     3494,     3497,     3476,     3473
    3746,     4285,     4288,     4267,     4264,     4284,     4287,     4266,     4263
    3747,     4268,     4289,     4288,     4267,     4265,     4286,     4285,     4264
    3748,     4287,     4290,     4269,     4266,     3497,     3500,     3479,     3476
    3749,     4288,     4291,     4270,     4267,     4287,     4290,     4269,     4266
    3750,     4271,     4292,     4291,     4270,     4268,     4289,     4288,     4267
    3751,     4290,     4293,     4272,     4269,     3500,     3503,     3482,     3479
    3752,     4291,     4294,     4273,     4270,     4290,     4293,     4272,     4269
    3753,     4274,     4295,     4294,     4273,     4271,     4292,     4291,     4270
    3754,     4293,     4296,     4275,     4272,     3503,     3506,     3485,     3482
    3755,     4294,     4297,     4276,     4273,     4293,     4296,     4275,     4272
    3756,     4297,     4298,     4295,     4294,     4276,     4277,     4274,     4273
    3757,     4299,     4302,     4281,     4278,     3509,     3512,     3491,     3488
    3758,     4300,     4303,     4282,     4279,     4299,     4302,     4281,     4278
    3759,     4283,     4304,     4303,     4282,     4280,     4301,     4300,     4279
    3760,     4302,     4305,     4284,     4281,     3512,     3515,     3494,     3491
    3761,     4303,     4306,     4285,     4282,     4302,     4305,     4284,     4281
    3762,     4286,     4307,     4306,     4285,     4283,     4304,     4303,     4282
    3763,     4305,     4308,     4287,     4284,     3515,     3518,     3497,     3494
    3764,     4306,     4309,     4288,     4285,     4305,     4308,     4287,     4284
    3765,     4289,     4310,     4309,     4288,     4286,     4307,     4306,     4285
    3766,     4308,     4311,     4290,     4287,     3518,     3521,     3500,     3497
    3767,     4309,     4312,     4291,     4288,     4308,     4311,     4290,     4287
    3768,     4292,     4313,     4312,     4291,     4289,     4310,     4309,     4288
    3769,     4311,     4314,     4293,     4290,     3521,     3524,     3503,     3500
    3770,     4312,     4315,     4294,     4291,     4311,     4314,     4293,     4290
    3771,     4295,     4316,     4315,     4294,     4292,     4313,     4312,     4291
    3772,     4314,     4317,     4296,     4293,     3524,     3527,     3506,     3503
    3773,     4315,     4318,     4297,     4294,     4314,     4317,     4296,     4293
    3774,     4318,     4319,     4316,     4315,     4297,     4298,     4295,     4294
    3775,     4320,     4323,     4302,     4299,     3530,     3533,     3512,     3509
    3776,     4321,     4324,     4303,     4300,     4320,     4323,     4302,     4299
    3777,     4304,     4325,     4324,     4303,     4301,     4322,     4321,     4300
    3778,     4323,     4326,     4305,     4302,     3533,     3536,     3515,     3512
    3779,     4324,     4327,     4306,     4303,     4323,     4326,     4305,     4302
    3780,     4307,     4328,     4327,     4306,     4304,     4325,     4324,     4303
    3781,     4326,     4329,     4308,     4305,     3536,     3539,     3518,     3515
    3782,     4327,     4330,     4309,     4306,     4326,     4329,     4308,     4305
    3783,     4310,     4331,     4330,     4309,     4307,     4328,     4327,     4306
    3784,     4329,     4332,     4311,     4308,     3539,     3542,     3521,     3518
    3785,     4330,     4333,     4312,     4309,     4329,     4332,     4311,     4308
    3786,     4313,     4334,     4333,     4312,     4310,     4331,     4330,     4309
    3787,     4332,     4335,     4314,     4311,     3542,     3545,     3524,     3521
    3788,     4333,     4336,     4315,     4312,     4332,     4335,     4314,     4311
    3789,     4316,     4337,     4336,     4315,     4313,     4334,     4333,     4312
    3790,     4335,     4338,     4317,     4314,     3545,     3548,     3527,     3524
    3791,     4336,     4339,     4318,     4315,     4335,     4338,     4317,     4314
    3792,     4339,     4340,     4337,     4336,     4318,     4319,     4316,     4315
    3793,     4341,     4344,     4323,     4320,     3551,     3554,     3533,     3530
    3794,     4342,     4345,     4324,     4321,     4341,     4344,     4323,     4320
    3795,     4325,     4346,     4345,     4324,     4322,     4343,     4342,     4321
    3796,     4344,     4347,     4326,     4323,     3554,     3557,     3536,     3533
    3797,     4345,     4348,     4327,     4324,     4344,     4347,     4326,     4323
    3798,     4328,     4349,     4348,     4327,     4325,     4346,     4345,     4324
    3799,     4347,     4350,     4329,     4326,     3557,     3560,     3539,     3536
    3800,     4348,     4351,     4330,     4327,     4347,     4350,     4329,     4326
    3801,     4331,     4352,     4351,     4330,     4328,     4349,     4348,     4327
    3802,     4350,     4353,     4332,     4329,     3560,     3563,     3542,     3539
    3803,     4351,     4354,     4333,     4330,     4350,     4353,     4332,     4329
    3804,     4334,     4355,     4354,     4333,     4331,     4352,     4351,     4330
    3805,     4353,     4356,     4335,     4332,     3563,     3566,     3545,     3542
    3806,     4354,     4357,     4336,     4333,     4353,     4356,     4335,     4332
    3807,     4337,     4358,     4357,     4336,     4334,     4355,     4354,     4333
    3808,     4356,     4359,     4338,     4335,     3566,     3569,     3548,     3545
    3809,     4357,     4360,     4339,     4336,     4356,     4359,     4338,     4335
    3810,     4360,     4361,     4358,     4357,     4339,     4340,     4337,     4336
    3811,     4362,     4365,     4344,     4341,     3572,     3575,     3554,     3551
    3812,     4363,     4366,     4345,     4342,     4362,     4365,     4344,     4341
    3813,     4346,     4367,     4366,     4345,     4343,     4364,     4363,     4342
    3814,     4365,     4368,     4347,     4344,     3575,     3578,     3557,     3554
    3815,     4366,     4369,     4348,     4345,     4365,     4368,     4347,     4344
    3816,     4349,     4370,     4369,     4348,     4346,     4367,     4366,     4345
    3817,     4368,     4371,     4350,     4347,     3578,     3581,     3560,     3557
    3818,     4369,     4372,     4351,     4348,     4368,     4371,     4350,     4347
    3819,     4352,     4373,     4372,     4351,     4349,     4370,     4369,     4348
    3820,     4371,     4374,     4353,     4350,     3581,     3584,     3563,     3560
    3821,     4372,     4375,     4354,     4351,     4371,     4374,     4353,     4350
    3822,     4355,     4376,     4375,     4354,     4352,     4373,     4372,     4351
    3823,     4374,     4377,     4356,     4353,     3584,     3587,     3566,     3563
    3824,     4375,     4378,     4357,     4354,     4374,     4377,     4356,     4353
    3825,     4358,     4379,     4378,     4357,     4355,     4376,     4375,     4354
    3826,     4377,     4380,     4359,     4356,     3587,     3590,     3569,     3566
    3827,     4378,     4381,     4360,     4357,     4377,     4380,     4359,     4356
    3828,     4381,     4382,     4379,     4378,     4360,     4361,     4358,     4357
    3829,     4383,     4386,     4365,     4362,     3593,     3596,     3575,     3572
    3830,     4384,     4387,     4366,     4363,     4383,     4386,     4365,     4362
    3831,     4367,     4388,     4387,     4366,     4364,     4385,     4384,     4363
    3832,     4386,     4389,     4368,     4365,     3596,     3599,     3578,     3575
    3833,     4387,     4390,     4369,     4366,     4386,     4389,     4368,     4365
    3834,     4370,     4391,     4390,     4369,     4367,     4388,     4387,     4366
    3835,     4389,     4392,     4371,     4368,     3599,     3602,     3581,     3578
    3836,     4390,     4393,     4372,     4369,     4389,     4392,     4371,     4368
    3837,     4373,     4394,     4393,     4372,     4370,     4391,     4390,     4369
    3838,     4392,     4395,     4374,     4371,     3602,     3605,     3584,     3581
    3839,     4393,     4396,     4375,     4372,     4392,     4395,     4374,     4371
    3840,     4376,     4397,     4396,     4375,     4373,     4394,     4393,     4372
    3841,     4395,     4398,     4377,     4374,     3605,     3608,     3587,     3584
    3842,     4396,     4399,     4378,     4375,     4395,     4398,     4377,     4374
    3843,     4379,     4400,     4399,     4378,     4376,     4397,     4396,     4375
    3844,     4398,     4401,     4380,     4377,     3608,     3611,     3590,     3587
    3845,     4399,     4402,     4381,     4378,     4398,     4401,     4380,     4377
    3846,     4402,     4403,     4400,     4399,     4381,     4382,     4379,     4378
    3847,     4404,     4407,     4386,     4383,     3614,     3617,     3596,     3593
    3848,     4405,     4408,     4387,     4384,     4404,     4407,     4386,     4383
    3849,     4388,     4409,     4408,     4387,     4385,     4406,     4405,     4384
    3850,     4407,     4410,     4389,     4386,     3617,     3620,     3599,     3596
    3851,     4408,     4411,     4390,     4387,     4407,     4410,     4389,     4386
    3852,     4391,     4412,     4411,     4390,     4388,     4409,     4408,     4387
    3853,     4410,     4413,     4392,     4389,     3620,     3623,     3602,     3599
    3854,     4411,     4414,     4393,     4390,     4410,     4413,     4392,     4389
    3855,     4394,     4415,     4414,     4393,     4391,     4412,     4411,     4390
    3856,     4413,     4416,     4395,     4392,     3623,     3626,     3605,     3602
    3857,     4414,     4417,     4396,     4393,     4413,     4416,     4395,     4392
    3858,     4397,     4418,     4417,     4396,     4394,     4415,     4414,     4393
    3859,     4416,     4419,     4398,     4395,     3626,     3629,     3608,     3605
    3860,     4417,     4420,     4399,     4396,     4416,     4419,     4398,     4395
    3861,     4400,     4421,     4420,     4399,     4397,     4418,     4417,     4396
    3862,     4419,     4422,     4401,     4398,     3629,     3632,     3611,     3608
    3863,     4420,     4423,     4402,     4399,     4419,     4422,     4401,     4398
    3864,     4423,     4424,     4421,     4420,     4402,     4403,     4400,     4399
    3865,     4425,     4428,     4407,     4404,     3635,     3638,     3617,     3614
    3866,     4426,     4429,     4408,     4405,     4425,     4428,     4407,     4404
    3867,     4409,     4430,     4429,     4408,     4406,     4427,     4426,     4405
    3868,     4428,     4431,     4410,     4407,     3638,     3641,     3620,     3617
    3869,     4429,     4432,     4411,     4408,     4428,     4431,     4410,     4407
    3870,     4412,     4433,     4432,     4411,     4409,     4430,     4429,     4408
    3871,     4431,     4434,     4413,     4410,     3641,     3644,     3623,     3620
    3872,     4432,     4435,     4414,     4411,     4431,     4434,     4413,     4410
    3873,     4415,     4436,     4435,     4414,     4412,     4433,     4432,     4411
    3874,     4434,     4437,     4416,     4413,     3644,     3647,     3626,     3623
    3875,     4435,     4438,     4417,     4414,     4434,     4437,     4416,     4413
    3876,     4418,     4439,     4438,     4417,     4415,     4436,     4435,     4414
    3877,     4437,     4440,     4419,     4416,     3647,     3650,     3629,     3626
    3878,     4438,     4441,     4420,     4417,     4437,     4440,     4419,     4416
    3879,     4421,     4442,     4441,     4420,     4418,     4439,     4438,     4417
    3880,     4440,     4443,     4422,     4419,     3650,     3653,     3632,     3629
    3881,     4441,     4444,     4423,     4420,     4440,     4443,     4422,     4419
    3882,     4444,     4445,     4442,     4441,     4423,     4424,     4421,     4420
    3883,     4446,     4449,     4428,     4425,     3656,     3659,     3638,     3635
    3884,     4447,     4450,     4429,     4426,     4446,     4449,     4428,     4425
    3885,     4430,     4451,     4450,     4429,     4427,     4448,     4447,     4426
    3886,     4449,     4452,     4431,     4428,     3659,     3662,     3641,     3638
    3887,     4450,     4453,     4432,     4429,     4449,     4452,     4431,     4428
    3888,     4433,     4454,     4453,     4432,     4430,     4451,     4450,     4429
    3889,     4452,     4455,     4434,     4431,     3662,     3665,     3644,     3641
    3890,     4453,     4456,     4435,     4432,     4452,     4455,     4434,     4431
    3891,     4436,     4457,     4456,     4435,     4433,     4454,     4453,     4432
    3892,     4455,     4458,     4437,     4434,     3665,     3668,     3647,     3644
    3893,     4456,     4459,     4438,     4435,     4455,     4458,     4437,     4434
    3894,     4439,     4460,     4459,     4438,     4436,     4457,     4456,     4435
    3895,     4458,     4461,     4440,     4437,     3668,     3671,     3650,     3647
    3896,     4459,     4462,     4441,     4438,     4458,     4461,     4440,     4437
    3897,     4442,     4463,     4462,     4441,     4439,     4460,     4459,     4438
    3898,     4461,     4464,     4443,     4440,     3671,     3674,     3653,     3650
    3899,     4462,     4465,     4444,     4441,     4461,     4464,     4443,     4440
    3900,     4445,     4466,     4465,     4444,     4442,     4463,     4462,     4441
    3901,     4275,     4485,     4467,     4254,     3485,     3695,     3677,     3464
    3902,     4276,     4486,     4468,     4255,     4275,     4485,     4467,     4254
    3903,     4469,     4487,     4486,     4468,     4256,     4277,     4276,     4255
    3904,     4485,     4488,     4470,     4467,     3695,     3698,     3680,     3677
    3905,     4486,     4489,     4471,     4468,     4485,     4488,     4470,     4467
    3906,     4472,     4490,     4489,     4471,     4469,     4487,     4486,     4468
    3907,     4488,     4491,     4473,     4470,     3698,     3701,     3683,     3680
    3908,     4489,     4492,     4474,     4471,     4488,     4491,     4473,     4470
    3909,     4475,     4493,     4492,     4474,     4472,     4490,     4489,     4471
    3910,     4491,     4494,     4476,     4473,     3701,     3704,     3686,     3683
    3911,     4492,     4495,     4477,     4474,     4491,     4494,     4476,     4473
    3912,     4478,     4496,     4495,     4477,     4475,     4493,     4492,     4474
    3913,     4494,     4497,     4479,     4476,     3704,     3707,     3689,     3686
    3914,     4495,     4498,     4480,     4477,     4494,     4497,     4479,     4476
    3915,     4481,     4499,     4498,     4480,     4478,     4496,     4495,     4477
    3916,     4497,     4500,     4482,     4479,     3707,     3710,     3692,     3689
    3917,     4498,     4501,     4483,     4480,     4497,     4500,     4482,     4479
    3918,     4501,     4502,     4499,     4498,     4483,     4484,     4481,     4480
    3919,     4296,     4503,     4485,     4275,     3506,     3713,     3695,     3485
    3920,     4297,     4504,     4486,     4276,     4296,     4503,     4485,     4275
    3921,     4487,     4505,     4504,     4486,     4277,     4298,     4297,     4276
    3922,     4503,     4506,     4488,     4485,     3713,     3716,     3698,     3695
    3923,     4504,     4507,     4489,     4486,     4503,     4506,     4488,     4485
    3924,     4490,     4508,     4507,     4489,     4487,     4505,     4504,     4486
    3925,     4506,     4509,     4491,     4488,     3716,     3719,     3701,     3698
    3926,     4507,     4510,     4492,     4489,     4506,     4509,     4491,     4488
    3927,     4493,     4511,     4510,     4492,     4490,     4508,     4507,     4489
    3928,     4509,     4512,     4494,     4491,     3719,     3722,     3704,     3701
    3929,     4510,     4513,     4495,     4492,     4509,     4512,     4494,     4491
    3930,     4496,     4514,     4513,     4495,     4493,     4511,     4510,     4492
    3931,     4512,     4515,     4497,     4494,     3722,     3725,     3707,     3704
    3932,     4513,     4516,     4498,     4495,     4512,     4515,     4497,     4494
    3933,     4499,     4517,     4516,     4498,     4496,     4514,     4513,     4495
    3934,     4515,     4518,     4500,     4497,     3725,     3728,     3710,     3707
    3935,     4516,     4519,     4501,     4498,     4515,     4518,     4500,     4497
    3936,     4519,     4520,     4517,     4516,     4501,     4502,     4499,     4498
    3937,     4317,     4521,     4503,     4296,     3527,     3731,     3713,     3506
    3938,     4318,     4522,     4504,     4297,     4317,     4521,     4503,     4296
    3939,     4505,     4523,     4522,     4504,     4298,     4319,     4318,     4297
    3940,     4521,     4524,     4506,     4503,     3731,     3734,     3716,     3713
    3941,     4522,     4525,     4507,     4504,     4521,     4524,     4506,     4503
    3942,     4508,     4526,     4525,     4507,     4505,     4523,     4522,     4504
    3943,     4524,     4527,     4509,     4506,     3734,     3737,     3719,     3716
    3944,     4525,     4528,     4510,     4507,     4524,     4527,     4509,     4506
    3945,     4511,     4529,     4528,     4510,     4508,     4526,     4525,     4507
    3946,     4527,     4530,     4512,     4509,     3737,     3740,     3722,     3719
    3947,     4528,     4531,     4513,     4510,     4527,     4530,     4512,     4509
    3948,     4514,     4532,     4531,     4513,     4511,     4529,     4528,     4510
    3949,     4530,     4533,     4515,     4512,     3740,     3743,     3725,     3722
    3950,     4531,     4534,     4516,     4513,     4530,     4533,     4515,     4512
    3951,     4517,     4535,     4534,     4516,     4514,     4532,     4531,     4513
    3952,     4533,     4536,     4518,     4515,     3743,     3746,     3728,     3725
    3953,     4534,     4537,     4519,     4516,     4533,     4536,     4518,     4515
    3954,     4537,     4538,     4535,     4534,     4519,     4520,     4517,     4516
    3955,     4338,     4539,     4521,     4317,     3548,     3749,     3731,     3527
    3956,     4339,     4540,     4522,     4318,     4338,     4539,     4521,     4317
    3957,     4523,     4541,     4540,     4522,     4319,     4340,     4339,     4318
    3958,     4539,     4542,     4524,     4521,     3749,     3752,     3734,     3731
    3959,     4540,     4543,     4525,     4522,     4539,     4542,     4524,     4521
    3960,     4526,     4544,     4543,     4525,     4523,     4541,     4540,     4522
    3961,     4542,     4545,     4527,     4524,     3752,     3755,     3737,     3734
    3962,     4543,     4546,     4528,     4525,     4542,     4545,     4527,     4524
    3963,     4529,     4547,     4546,     4528,     4526,     4544,     4543,     4525
    3964,     4545,     4548,     4530,     4527,     3755,     3758,     3740,     3737
    3965,     4546,     4549,     4531,     4528,     4545,     4548,     4530,     4527
    3966,     4532,     4550,     4549,     4531,     4529,     4547,     4546,     4528
    3967,     4548,     4551,     4533,     4530,     3758,     3761,     3743,     3740
    3968,     4549,     4552,     4534,     4531,     4548,     4551,     4533,     4530
    3969,     4535,     4553,     4552,     4534,     4532,     4550,     4549,     4531
    3970,     4551,     4554,     4536,     4533,     3761,     3764,     3746,     3743
    3971,     4552,     4555,     4537,     4534,     4551,     4554,     4536,     4533
    3972,     4555,     4556,     4553,     4552,     4537,     4538,     4535,     4534
    3973,     4359,     4557,     4539,     4338,     3569,     3767,     3749,     3548
    3974,     4360,     4558,     4540,     4339,     4359,     4557,     4539,     4338
    3975,     4541,     4559,     4558,     4540,     4340,     4361,     4360,     4339
    3976,     4557,     4560,     4542,     4539,     3767,     3770,     3752,     3749
    3977,     4558,     4561,     4543,     4540,     4557,     4560,     4542,     4539
    3978,     4544,     4562,     4561,     4543,     4541,     4559,     4558,     4540
    3979,     4560,     4563,     4545,     4542,     3770,     3773,     3755,     3752
    3980,     4561,     4564,     4546,     4543,     4560,     4563,     4545,     4542
    3981,     4547,     4565,     4564,     4546,     4544,     4562,     4561,     4543
    3982,     4563,     4566,     4548,     4545,     3773,     3776,     3758,     3755
    3983,     4564,     4567,     4549,     4546,     4563,     4566,     4548,     4545
    3984,     4550,     4568,     4567,     4549,     4547,     4565,     4564,     4546
    3985,     4566,     4569,     4551,     4548,     3776,     3779,     3761,     3758
    3986,     4567,     4570,     4552,     4549,     4566,     4569,     4551,     4548
    3987,     4553,     4571,     4570,     4552,     4550,     4568,     4567,     4549
    3988,     4569,     4572,     4554,     4551,     3779,     3782,     3764,     3761
    3989,     4570,     4573,     4555,     4552,     4569,     4572,     4554,     4551
    3990,     4573,     4574,     4571,     4570,     4555,     4556,     4553,     4552
    3991,     4380,     4575,     4557,     4359,     3590,     3785,     3767,     3569
    3992,     4381,     4576,     4558,     4360,     4380,     4575,     4557,     4359
    3993,     4559,     4577,     4576,     4558,     4361,     4382,     4381,     4360
    3994,     4575,     4578,     4560,     4557,     3785,     3788,     3770,     3767
    3995,     4576,     4579,     4561,     4558,     4575,     4578,     4560,     4557
    3996,     4562,     4580,     4579,     4561,     4559,     4577,     4576,     4558
    3997,     4578,     4581,     4563,     4560,     3788,     3791,     3773,     3770
    3998,     4579,     4582,     4564,     4561,     4578,     4581,     4563,     4560
    3999,     4565,     4583,     4582,     4564,     4562,     4580,     4579,     4561
    4000,     4581,     4584,     4566,     4563,     3791,     3794,     3776,     3773
    4001,     4582,     4585,     4567,     4564,     4581,     4584,     4566,     4563
    4002,     4568,     4586,     4585,     4567,     4565,     4583,     4582,     4564
    4003,     4584,     4587,     4569,     4566,     3794,     3797,     3779,     3776
    4004,     4585,     4588,     4570,     4567,     4584,     4587,     4569,     4566
    4005,     4571,     4589,     4588,     4570,     4568,     4586,     4585,     4567
    4006,     4587,     4590,     4572,     4569,     3797,     3800,     3782,     3779
    4007,     4588,     4591,     4573,     4570,     4587,     4590,     4572,     4569
    4008,     4591,     4592,     4589,     4588,     4573,     4574,     4571,     4570
    4009,     4401,     4593,     4575,     4380,     3611,     3803,     3785,     3590
    4010,     4402,     4594,     4576,     4381,     4401,     4593,     4575,     4380
    4011,     4577,     4595,     4594,     4576,     4382,     4403,     4402,     4381
    4012,     4593,     4596,     4578,     4575,     3803,     3806,     3788,     3785
    4013,     4594,     4597,     4579,     4576,     4593,     4596,     4578,     4575
    4014,     4580,     4598,     4597,     4579,     4577,     4595,     4594,     4576
    4015,     4596,     4599,     4581,     4578,     3806,     3809,     3791,     3788
    4016,     4597,     4600,     4582,     4579,     4596,     4599,     4581,     4578
    4017,     4583,     4601,     4600,     4582,     4580,     4598,     4597,     4579
    4018,     4599,     4602,     4584,     4581,     3809,     3812,     3794,     3791
    4019,     4600,     4603,     4585,     4582,     4599,     4602,     4584,     4581
    4020,     4586,     4604,     4603,     4585,     4583,     4601,     4600,     4582
    4021,     4602,     4605,     4587,     4584,     3812,     3815,     3797,     3794
    4022,     4603,     4606,     4588,     4585,     4602,     4605,     4587,     4584
    4023,     4589,     4607,     4606,     4588,     4586,     4604,     4603,     4585
    4024,     4605,     4608,     4590,     4587,     3815,     3818,     3800,     3797
    4025,     4606,     4609,     4591,     4588,     4605,     4608,     4590,     4587
    4026,     4609,     4610,     4607,     4606,     4591,     4592,     4589,     4588
    4027,     4422,     4611,     4593,     4401,     3632,     3821,     3803,     3611
    4028,     4423,     4612,     4594,     4402,     4422,     4611,     4593,     4401
    4029,     4595,     4613,     4612,     4594,     4403,     4424,     4423,     4402
    4030,     4611,     4614,     4596,     4593,     3821,     3824,     3806,     3803
    4031,     4612,     4615,     4597,     4594,     4611,     4614,     4596,     4593
    4032,     4598,     4616,     4615,     4597,     4595,     4613,     4612,     4594
    4033,     4614,     4617,     4599,     4596,     3824,     3827,     3809,     3806
    4034,     4615,     4618,     4600,     4597,     4614,     4617,     4599,     4596
    4035,     4601,     4619,     4618,     4600,     4598,     4616,     4615,     4597
    4036,     4617,     4620,     4602,     4599,     3827,     3830,     3812,     3809
    4037,     4618,     4621,     4603,     4600,     4617,     4620,     4602,     4599
    4038,     4604,     4622,     4621,     4603,     4601,     4619,     4618,     4600
    4039,     4620,     4623,     4605,     4602,     3830,     3833,     3815,     3812
    4040,     4621,     4624,     4606,     4603,     4620,     4623,     4605,     4602
    4041,     4607,     4625,     4624,     4606,     4604,     4622,     4621,     4603
    4042,     4623,     4626,     4608,     4605,     3833,     3836,     3818,     3815
    4043,     4624,     4627,     4609,     4606,     4623,     4626,     4608,     4605
    4044,     4627,     4628,     4625,     4624,     4609,     4610,     4607,     4606
    4045,     4443,     4629,     4611,     4422,     3653,     3839,     3821,     3632
    4046,     4444,     4630,     4612,     4423,     4443,     4629,     4611,     4422
    4047,     4613,     4631,     4630,     4612,     4424,     4445,     4444,     4423
    4048,     4629,     4632,     4614,     4611,     3839,     3842,     3824,     3821
    4049,     4630,     4633,     4615,     4612,     4629,     4632,     4614,     4611
    4050,     4616,     4634,     4633,     4615,     4613,     4631,     4630,     4612
    4051,     4632,     4635,     4617,     4614,     3842,     3845,     3827,     3824
    4052,     4633,     4636,     4618,     4615,     4632,     4635,     4617,     4614
    4053,     4619,     4637,     4636,     4618,     4616,     4634,     4633,     4615
    4054,     4635,     4638,     4620,     4617,     3845,     3848,     3830,     3827
    4055,     4636,     4639,     4621,     4618,     4635,     4638,     4620,     4617
    4056,     4622,     4640,     4639,     4621,     4619,     4637,     4636,     4618
    4057,     4638,     4641,     4623,     4620,     3848,     3851,     3833,     3830
    4058,     4639,     4642,     4624,     4621,     4638,     4641,     4623,     4620
    4059,     4625,     4643,     4642,     4624,     4622,     4640,     4639,     4621
    4060,     4641,     4644,     4626,     4623,     3851,     3854,     3836,     3833
    4061,     4642,     4645,     4627,     4624,     4641,     4644,     4626,     4623
    4062,     4645,     4646,     4643,     4642,     4627,     4628,     4625,     4624
    4063,     4464,     4647,     4629,     4443,     3674,     3857,     3839,     3653
    4064,     4465,     4648,     4630,     4444,     4464,     4647,     4629,     4443
    4065,     4631,     4649,     4648,     4630,     4445,     4466,     4465,     4444
    4066,     4647,     4650,     4632,     4629,     3857,     3860,     3842,     3839
    4067,     4648,     4651,     4633,     4630,     4647,     4650,     4632,     4629
    4068,     4634,     4652,     4651,     4633,     4631,     4649,     4648,     4630
    4069,     4650,     4653,     4635,     4632,     3860,     3863,     3845,     3842
    4070,     4651,     4654,     4636,     4633,     4650,     4653,     4635,     4632
    4071,     4637,     4655,     4654,     4636,     4634,     4652,     4651,     4633
    4072,     4653,     4656,     4638,     4635,     3863,     3866,     3848,     3845
    4073,     4654,     4657,     4639,     4636,     4653,     4656,     4638,     4635
    4074,     4640,     4658,     4657,     4639,     4637,     4655,     4654,     4636
    4075,     4656,     4659,     4641,     4638,     3866,     3869,     3851,     3848
    4076,     4657,     4660,     4642,     4639,     4656,     4659,     4641,     4638
    4077,     4643,     4661,     4660,     4642,     4640,     4658,     4657,     4639
    4078,     4659,     4662,     4644,     4641,     3869,     3872,     3854,     3851
    4079,     4660,     4663,     4645,     4642,     4659,     4662,     4644,     4641
    4080,     4646,     4664,     4663,     4645,     4643,     4661,     4660,     4642
    4081,     4500,     4683,     4665,     4482,     3710,     3893,     3875,     3692
    4082,     4501,     4684,     4666,     4483,     4500,     4683,     4665,     4482
    4083,     4667,     4685,     4684,     4666,     4484,     4502,     4501,     4483
    4084,     4683,     4686,     4668,     4665,     3893,     3896,     3878,     3875
    4085,     4684,     4687,     4669,     4666,     4683,     4686,     4668,     4665
    4086,     4670,     4688,     4687,     4669,     4667,     4685,     4684,     4666
    4087,     4686,     4689,     4671,     4668,     3896,     3899,     3881,     3878
    4088,     4687,     4690,     4672,     4669,     4686,     4689,     4671,     4668
    4089,     4673,     4691,     4690,     4672,     4670,     4688,     4687,     4669
    4090,     4689,     4692,     4674,     4671,     3899,     3902,     3884,     3881
    4091,     4690,     4693,     4675,     4672,     4689,     4692,     4674,     4671
    4092,     4676,     4694,     4693,     4675,     4673,     4691,     4690,     4672
    4093,     4692,     4695,     4677,     4674,     3902,     3905,     3887,     3884
    4094,     4693,     4696,     4678,     4675,     4692,     4695,     4677,     4674
    4095,     4679,     4697,     4696,     4678,     4676,     4694,     4693,     4675
    4096,     4695,     4698,     4680,     4677,     3905,     3908,     3890,     3887
    4097,     4696,     4699,     4681,     4678,     4695,     4698,     4680,     4677
    4098,     4699,     4700,     4697,     4696,     4681,     4682,     4679,     4678
    4099,     4518,     4701,     4683,     4500,     3728,     3911,     3893,     3710
    4100,     4519,     4702,     4684,     4501,     4518,     4701,     4683,     4500
    4101,     4685,     4703,     4702,     4684,     4502,     4520,     4519,     4501
    4102,     4701,     4704,     4686,     4683,     3911,     3914,     3896,     3893
    4103,     4702,     4705,     4687,     4684,     4701,     4704,     4686,     4683
    4104,     4688,     4706,     4705,     4687,     4685,     4703,     4702,     4684
    4105,     4704,     4707,     4689,     4686,     3914,     3917,     3899,     3896
    4106,     4705,     4708,     4690,     4687,     4704,     4707,     4689,     4686
    4107,     4691,     4709,     4708,     4690,     4688,     4706,     4705,     4687
    4108,     4707,     4710,     4692,     4689,     3917,     3920,     3902,     3899
    4109,     4708,     4711,     4693,     4690,     4707,     4710,     4692,     4689
    4110,     4694,     4712,     4711,     4693,     4691,     4709,     4708,     4690
    4111,     4710,     4713,     4695,     4692,     3920,     3923,     3905,     3902
    4112,     4711,     4714,     4696,     4693,     4710,     4713,     4695,     4692
    4113,     4697,     4715,     4714,     4696,     4694,     4712,     4711,     4693
    4114,     4713,     4716,     4698,     4695,     3923,     3926,     3908,     3905
    4115,     4714,     4717,     4699,     4696,     4713,     4716,     4698,     4695
    4116,     4717,     4718,     4715,     4714,     4699,     4700,     4697,     4696
    4117,     4536,     4719,     4701,     4518,     3746,     3929,     3911,     3728
    4118,     4537,     4720,     4702,     4519,     4536,     4719,     4701,     4518
    4119,     4703,     4721,     4720,     4702,     4520,     4538,     4537,     4519
    4120,     4719,     4722,     4704,     4701,     3929,     3932,     3914,     3911
    4121,     4720,     4723,     4705,     4702,     4719,     4722,     4704,     4701
    4122,     4706,     4724,     4723,     4705,     4703,     4721,     4720,     4702
    4123,     4722,     4725,     4707,     4704,     3932,     3935,     3917,     3914
    4124,     4723,     4726,     4708,     4705,     4722,     4725,     4707,     4704
    4125,     4709,     4727,     4726,     4708,     4706,     4724,     4723,     4705
    4126,     4725,     4728,     4710,     4707,     3935,     3938,     3920,     3917
    4127,     4726,     4729,     4711,     4708,     4725,     4728,     4710,     4707
    4128,     4712,     4730,     4729,     4711,     4709,     4727,     4726,     4708
    4129,     4728,     4731,     4713,     4710,     3938,     3941,     3923,     3920
    4130,     4729,     4732,     4714,     4711,     4728,     4731,     4713,     4710
    4131,     4715,     4733,     4732,     4714,     4712,     4730,     4729,     4711
    4132,     4731,     4734,     4716,     4713,     3941,     3944,     3926,     3923
    4133,     4732,     4735,     4717,     4714,     4731,     4734,     4716,     4713
    4134,     4735,     4736,     4733,     4732,     4717,     4718,     4715,     4714
    4135,     4554,     4737,     4719,     4536,     3764,     3947,     3929,     3746
    4136,     4555,     4738,     4720,     4537,     4554,     4737,     4719,     4536
    4137,     4721,     4739,     4738,     4720,     4538,     4556,     4555,     4537
    4138,     4737,     4740,     4722,     4719,     3947,     3950,     3932,     3929
    4139,     4738,     4741,     4723,     4720,     4737,     4740,     4722,     4719
    4140,     4724,     4742,     4741,     4723,     4721,     4739,     4738,     4720
    4141,     4740,     4743,     4725,     4722,     3950,     3953,     3935,     3932
    4142,     4741,     4744,     4726,     4723,     4740,     4743,     4725,     4722
    4143,     4727,     4745,     4744,     4726,     4724,     4742,     4741,     4723
    4144,     4743,     4746,     4728,     4725,     3953,     3956,     3938,     3935
    4145,     4744,     4747,     4729,     4726,     4743,     4746,     4728,     4725
    4146,     4730,     4748,     4747,     4729,     4727,     4745,     4744,     4726
    4147,     4746,     4749,     4731,     4728,     3956,     3959,     3941,     3938
    4148,     4747,     4750,     4732,     4729,     4746,     4749,     4731,     4728
    4149,     4733,     4751,     4750,     4732,     4730,     4748,     4747,     4729
    4150,     4749,     4752,     4734,     4731,     3959,     3962,     3944,     3941
    4151,     4750,     4753,     4735,     4732,     4749,     4752,     4734,     4731
    4152,     4753,     4754,     4751,     4750,     4735,     4736,     4733,     4732
    4153,     4572,     4755,     4737,     4554,     3782,     3965,     3947,     3764
    4154,     4573,     4756,     4738,     4555,     4572,     4755,     4737,     4554
    4155,     4739,     4757,     4756,     4738,     4556,     4574,     4573,     4555
    4156,     4755,     4758,     4740,     4737,     3965,     3968,     3950,     3947
    4157,     4756,     4759,     4741,     4738,     4755,     4758,     4740,     4737
    4158,     4742,     4760,     4759,     4741,     4739,     4757,     4756,     4738
    4159,     4758,     4761,     4743,     4740,     3968,     3971,     3953,     3950
    4160,     4759,     4762,     4744,     4741,     4758,     4761,     4743,     4740
    4161,     4745,     4763,     4762,     4744,     4742,     4760,     4759,     4741
    4162,     4761,     4764,     4746,     4743,     3971,     3974,     3956,     3953
    4163,     4762,     4765,     4747,     4744,     4761,     4764,     4746,     4743
    4164,     4748,     4766,     4765,     4747,     4745,     4763,     4762,     4744
    4165,     4764,     4767,     4749,     4746,     3974,     3977,     3959,     3956
    4166,     4765,     4768,     4750,     4747,     4764,     4767,     4749,     4746
    4167,     4751,     4769,     4768,     4750,     4748,     4766,     4765,     4747
    4168,     4767,     4770,     4752,     4749,     3977,     3980,     3962,     3959
    4169,     4768,     4771,     4753,     4750,     4767,     4770,     4752,     4749
    4170,     4771,     4772,     4769,     4768,     4753,     4754,     4751,     4750
    4171,     4590,     4773,     4755,     4572,     3800,     3983,     3965,     3782
    4172,     4591,     4774,     4756,     4573,     4590,     4773,     4755,     4572
    4173,     4757,     4775,     4774,     4756,     4574,     4592,     4591,     4573
    4174,     4773,     4776,     4758,     4755,     3983,     3986,     3968,     3965
    4175,     4774,     4777,     4759,     4756,     4773,     4776,     4758,     4755
    4176,     4760,     4778,     4777,     4759,     4757,     4775,     4774,     4756
    4177,     4776,     4779,     4761,     4758,     3986,     3989,     3971,     3968
    4178,     4777,     4780,     4762,     4759,     4776,     4779,     4761,     4758
    4179,     4763,     4781,     4780,     4762,     4760,     4778,     4777,     4759
    4180,     4779,     4782,     4764,     4761,     3989,     3992,     3974,     3971
    4181,     4780,     4783,     4765,     4762,     4779,     4782,     4764,     4761
    4182,     4766,     4784,     4783,     4765,     4763,     4781,     4780,     4762
    4183,     4782,     4785,     4767,     4764,     3992,     3995,     3977,     3974
    4184,     4783,     4786,     4768,     4765,     4782,     4785,     4767,     4764
    4185,     4769,     4787,     4786,     4768,     4766,     4784,     4783,     4765
    4186,     4785,     4788,     4770,     4767,     3995,     3998,     3980,     3977
    4187,     4786,     4789,     4771,     4768,     4785,     4788,     4770,     4767
    4188,     4789,     4790,     4787,     4786,     4771,     4772,     4769,     4768
    4189,     4608,     4791,     4773,     4590,     3818,     4001,     3983,     3800
    4190,     4609,     4792,     4774,     4591,     4608,     4791,     4773,     4590
    4191,     4775,     4793,     4792,     4774,     4592,     4610,     4609,     4591
    4192,     4791,     4794,     4776,     4773,     4001,     4004,     3986,     3983
    4193,     4792,     4795,     4777,     4774,     4791,     4794,     4776,     4773
    4194,     4778,     4796,     4795,     4777,     4775,     4793,     4792,     4774
    4195,     4794,     4797,     4779,     4776,     4004,     4007,     3989,     3986
    4196,     4795,     4798,     4780,     4777,     4794,     4797,     4779,     4776
    4197,     4781,     4799,     4798,     4780,     4778,     4796,     4795,     4777
    4198,     4797,     4800,     4782,     4779,     4007,     4010,     3992,     3989
    4199,     4798,     4801,     4783,     4780,     4797,     4800,     4782,     4779
    4200,     4784,     4802,     4801,     4783,     4781,     4799,     4798,     4780
    4201,     4800,     4803,     4785,     4782,     4010,     4013,     3995,     3992
    4202,     4801,     4804,     4786,     4783,     4800,     4803,     4785,     4782
    4203,     4787,     4805,     4804,     4786,     4784,     4802,     4801,     4783
    4204,     4803,     4806,     4788,     4785,     4013,     4016,     3998,     3995
    4205,     4804,     4807,     4789,     4786,     4803,     4806,     4788,     4785
    4206,     4807,     4808,     4805,     4804,     4789,     4790,     4787,     4786
    4207,     4626,     4809,     4791,     4608,     3836,     4019,     4001,     3818
    4208,     4627,     4810,     4792,     4609,     4626,     4809,     4791,     4608
    4209,     4793,     4811,     4810,     4792,     4610,     4628,     4627,     4609
    4210,     4809,     4812,     4794,     4791,     4019,     4022,     4004,     4001
    4211,     4810,     4813,     4795,     4792,     4809,     4812,     4794,     4791
    4212,     4796,     4814,     4813,     4795,     4793,     4811,     4810,     4792
    4213,     4812,     4815,     4797,     4794,     4022,     4025,     4007,     4004
    4214,     4813,     4816,     4798,     4795,     4812,     4815,     4797,     4794
    4215,     4799,     4817,     4816,     4798,     4796,     4814,     4813,     4795
    4216,     4815,     4818,     4800,     4797,     4025,     4028,     4010,     4007
    4217,     4816,     4819,     4801,     4798,     4815,     4818,     4800,     4797
    4218,     4802,     4820,     4819,     4801,     4799,     4817,     4816,     4798
    4219,     4818,     4821,     4803,     4800,     4028,     4031,     4013,     4010
    4220,     4819,     4822,     4804,     4801,     4818,     4821,     4803,     4800
    4221,     4805,     4823,     4822,     4804,     4802,     4820,     4819,     4801
    4222,     4821,     4824,     4806,     4803,     4031,     4034,     4016,     4013
    4223,     4822,     4825,     4807,     4804,     4821,     4824,     4806,     4803
    4224,     4825,     4826,     4823,     4822,     4807,     4808,     4805,     4804
    4225,     4644,     4827,     4809,     4626,     3854,     4037,     4019,     3836
    4226,     4645,     4828,     4810,     4627,     4644,     4827,     4809,     4626
    4227,     4811,     4829,     4828,     4810,     4628,     4646,     4645,     4627
    4228,     4827,     4830,     4812,     4809,     4037,     4040,     4022,     4019
    4229,     4828,     4831,     4813,     4810,     4827,     4830,     4812,     4809
    4230,     4814,     4832,     4831,     4813,     4811,     4829,     4828,     4810
    4231,     4830,     4833,     4815,     4812,     4040,     4043,     4025,     4022
    4232,     4831,     4834,     4816,     4813,     4830,     4833,     4815,     4812
    4233,     4817,     4835,     4834,     4816,     4814,     4832,     4831,     4813
    4234,     4833,     4836,     4818,     4815,     4043,     4046,     4028,     4025
    4235,     4834,     4837,     4819,     4816,     4833,     4836,     4818,     4815
    4236,     4820,     4838,     4837,     4819,     4817,     4835,     4834,     4816
    4237,     4836,     4839,     4821,     4818,     4046,     4049,     4031,     4028
    4238,     4837,     4840,     4822,     4819,     4836,     4839,     4821,     4818
    4239,     4823,     4841,     4840,     4822,     4820,     4838,     4837,     4819
    4240,     4839,     4842,     4824,     4821,     4049,     4052,     4034,     4031
    4241,     4840,     4843,     4825,     4822,     4839,     4842,     4824,     4821
    4242,     4843,     4844,     4841,     4840,     4825,     4826,     4823,     4822
    4243,     4662,     4845,     4827,     4644,     3872,     4055,     4037,     3854
    4244,     4663,     4846,     4828,     4645,     4662,     4845,     4827,     4644
    4245,     4829,     4847,     4846,     4828,     4646,     4664,     4663,     4645
    4246,     4845,     4848,     4830,     4827,     4055,     4058,     4040,     4037
    4247,     4846,     4849,     4831,     4828,     4845,     4848,     4830,     4827
    4248,     4832,     4850,     4849,     4831,     4829,     4847,     4846,     4828
    4249,     4848,     4851,     4833,     4830,     4058,     4061,     4043,     4040
    4250,     4849,     4852,     4834,     4831,     4848,     4851,     4833,     4830
    4251,     4835,     4853,     4852,     4834,     4832,     4850,     4849,     4831
    4252,     4851,     4854,     4836,     4833,     4061,     4064,     4046,     4043
    4253,     4852,     4855,     4837,     4834,     4851,     4854,     4836,     4833
    4254,     4838,     4856,     4855,     4837,     4835,     4853,     4852,     4834
    4255,     4854,     4857,     4839,     4836,     4064,     4067,     4049,     4046
    4256,     4855,     4858,     4840,     4837,     4854,     4857,     4839,     4836
    4257,     4841,     4859,     4858,     4840,     4838,     4856,     4855,     4837
    4258,     4857,     4860,     4842,     4839,     4067,     4070,     4052,     4049
    4259,     4858,     4861,     4843,     4840,     4857,     4860,     4842,     4839
    4260,     4844,     4862,     4861,     4843,     4841,     4859,     4858,     4840
    4261,     4698,     4878,     4863,     4680,     3908,     4088,     4073,     3890
    4262,     4699,     4879,     4864,     4681,     4698,     4878,     4863,     4680
    4263,     4865,     4880,     4879,     4864,     4682,     4700,     4699,     4681
    4264,     4878,     4881,     4866,     4863,     4088,     4091,     4076,     4073
    4265,     4879,     4882,     4867,     4864,     4878,     4881,     4866,     4863
    4266,     4868,     4883,     4882,     4867,     4865,     4880,     4879,     4864
    4267,     4881,     4884,     4869,     4866,     4091,     4094,     4079,     4076
    4268,     4882,     4885,     4870,     4867,     4881,     4884,     4869,     4866
    4269,     4871,     4886,     4885,     4870,     4868,     4883,     4882,     4867
    4270,     4884,     4887,     4872,     4869,     4094,     4097,     4082,     4079
    4271,     4885,     4888,     4873,     4870,     4884,     4887,     4872,     4869
    4272,     4874,     4889,     4888,     4873,     4871,     4886,     4885,     4870
    4273,     4887,     4890,     4875,     4872,     4097,     4100,     4085,     4082
    4274,     4888,     4891,     4876,     4873,     4887,     4890,     4875,     4872
    4275,     4877,     4892,     4891,     4876,     4874,     4889,     4888,     4873
    4276,     4890,     4257,     4236,     4875,     4100,     3467,     3446,     4085
    4277,     4891,     4258,     4237,     4876,     4890,     4257,     4236,     4875
    4278,     4258,     4259,     4892,     4891,     4237,     4238,     4877,     4876
    4279,     4716,     4893,     4878,     4698,     3926,     4103,     4088,     3908
    4280,     4717,     4894,     4879,     4699,     4716,     4893,     4878,     4698
    4281,     4880,     4895,     4894,     4879,     4700,     4718,     4717,     4699
    4282,     4893,     4896,     4881,     4878,     4103,     4106,     4091,     4088
    4283,     4894,     4897,     4882,     4879,     4893,     4896,     4881,     4878
    4284,     4883,     4898,     4897,     4882,     4880,     4895,     4894,     4879
    4285,     4896,     4899,     4884,     4881,     4106,     4109,     4094,     4091
    4286,     4897,     4900,     4885,     4882,     4896,     4899,     4884,     4881
    4287,     4886,     4901,     4900,     4885,     4883,     4898,     4897,     4882
    4288,     4899,     4902,     4887,     4884,     4109,     4112,     4097,     4094
    4289,     4900,     4903,     4888,     4885,     4899,     4902,     4887,     4884
    4290,     4889,     4904,     4903,     4888,     4886,     4901,     4900,     4885
    4291,     4902,     4905,     4890,     4887,     4112,     4115,     4100,     4097
    4292,     4903,     4906,     4891,     4888,     4902,     4905,     4890,     4887
    4293,     4892,     4907,     4906,     4891,     4889,     4904,     4903,     4888
    4294,     4905,     4278,     4257,     4890,     4115,     3488,     3467,     4100
    4295,     4906,     4279,     4258,     4891,     4905,     4278,     4257,     4890
    4296,     4279,     4280,     4907,     4906,     4258,     4259,     4892,     4891
    4297,     4734,     4908,     4893,     4716,     3944,     4118,     4103,     3926
    4298,     4735,     4909,     4894,     4717,     4734,     4908,     4893,     4716
    4299,     4895,     4910,     4909,     4894,     4718,     4736,     4735,     4717
    4300,     4908,     4911,     4896,     4893,     4118,     4121,     4106,     4103
    4301,     4909,     4912,     4897,     4894,     4908,     4911,     4896,     4893
    4302,     4898,     4913,     4912,     4897,     4895,     4910,     4909,     4894
    4303,     4911,     4914,     4899,     4896,     4121,     4124,     4109,     4106
    4304,     4912,     4915,     4900,     4897,     4911,     4914,     4899,     4896
    4305,     4901,     4916,     4915,     4900,     4898,     4913,     4912,     4897
    4306,     4914,     4917,     4902,     4899,     4124,     4127,     4112,     4109
    4307,     4915,     4918,     4903,     4900,     4914,     4917,     4902,     4899
    4308,     4904,     4919,     4918,     4903,     4901,     4916,     4915,     4900
    4309,     4917,     4920,     4905,     4902,     4127,     4130,     4115,     4112
    4310,     4918,     4921,     4906,     4903,     4917,     4920,     4905,     4902
    4311,     4907,     4922,     4921,     4906,     4904,     4919,     4918,     4903
    4312,     4920,     4299,     4278,     4905,     4130,     3509,     3488,     4115
    4313,     4921,     4300,     4279,     4906,     4920,     4299,     4278,     4905
    4314,     4300,     4301,     4922,     4921,     4279,     4280,     4907,     4906
    4315,     4752,     4923,     4908,     4734,     3962,     4133,     4118,     3944
    4316,     4753,     4924,     4909,     4735,     4752,     4923,     4908,     4734
    4317,     4910,     4925,     4924,     4909,     4736,     4754,     4753,     4735
    4318,     4923,     4926,     4911,     4908,     4133,     4136,     4121,     4118
    4319,     4924,     4927,     4912,     4909,     4923,     4926,     4911,     4908
    4320,     4913,     4928,     4927,     4912,     4910,     4925,     4924,     4909
    4321,     4926,     4929,     4914,     4911,     4136,     4139,     4124,     4121
    4322,     4927,     4930,     4915,     4912,     4926,     4929,     4914,     4911
    4323,     4916,     4931,     4930,     4915,     4913,     4928,     4927,     4912
    4324,     4929,     4932,     4917,     4914,     4139,     4142,     4127,     4124
    4325,     4930,     4933,     4918,     4915,     4929,     4932,     4917,     4914
    4326,     4919,     4934,     4933,     4918,     4916,     4931,     4930,     4915
    4327,     4932,     4935,     4920,     4917,     4142,     4145,     4130,     4127
    4328,     4933,     4936,     4921,     4918,     4932,     4935,     4920,     4917
    4329,     4922,     4937,     4936,     4921,     4919,     4934,     4933,     4918
    4330,     4935,     4320,     4299,     4920,     4145,     3530,     3509,     4130
    4331,     4936,     4321,     4300,     4921,     4935,     4320,     4299,     4920
    4332,     4321,     4322,     4937,     4936,     4300,     4301,     4922,     4921
    4333,     4770,     4938,     4923,     4752,     3980,     4148,     4133,     3962
    4334,     4771,     4939,     4924,     4753,     4770,     4938,     4923,     4752
    4335,     4925,     4940,     4939,     4924,     4754,     4772,     4771,     4753
    4336,     4938,     4941,     4926,     4923,     4148,     4151,     4136,     4133
    4337,     4939,     4942,     4927,     4924,     4938,     4941,     4926,     4923
    4338,     4928,     4943,     4942,     4927,     4925,     4940,     4939,     4924
    4339,     4941,     4944,     4929,     4926,     4151,     4154,     4139,     4136
    4340,     4942,     4945,     4930,     4927,     4941,     4944,     4929,     4926
    4341,     4931,     4946,     4945,     4930,     4928,     4943,     4942,     4927
    4342,     4944,     4947,     4932,     4929,     4154,     4157,     4142,     4139
    4343,     4945,     4948,     4933,     4930,     4944,     4947,     4932,     4929
    4344,     4934,     4949,     4948,     4933,     4931,     4946,     4945,     4930
    4345,     4947,     4950,     4935,     4932,     4157,     4160,     4145,     4142
    4346,     4948,     4951,     4936,     4933,     4947,     4950,     4935,     4932
    4347,     4937,     4952,     4951,     4936,     4934,     4949,     4948,     4933
    4348,     4950,     4341,     4320,     4935,     4160,     3551,     3530,     4145
    4349,     4951,     4342,     4321,     4936,     4950,     4341,     4320,     4935
    4350,     4342,     4343,     4952,     4951,     4321,     4322,     4937,     4936
    4351,     4788,     4953,     4938,     4770,     3998,     4163,     4148,     3980
    4352,     4789,     4954,     4939,     4771,     4788,     4953,     4938,     4770
    4353,     4940,     4955,     4954,     4939,     4772,     4790,     4789,     4771
    4354,     4953,     4956,     4941,     4938,     4163,     4166,     4151,     4148
    4355,     4954,     4957,     4942,     4939,     4953,     4956,     4941,     4938
    4356,     4943,     4958,     4957,     4942,     4940,     4955,     4954,     4939
    4357,     4956,     4959,     4944,     4941,     4166,     4169,     4154,     4151
    4358,     4957,     4960,     4945,     4942,     4956,     4959,     4944,     4941
    4359,     4946,     4961,     4960,     4945,     4943,     4958,     4957,     4942
    4360,     4959,     4962,     4947,     4944,     4169,     4172,     4157,     4154
    4361,     4960,     4963,     4948,     4945,     4959,     4962,     4947,     4944
    4362,     4949,     4964,     4963,     4948,     4946,     4961,     4960,     4945
    4363,     4962,     4965,     4950,     4947,     4172,     4175,     4160,     4157
    4364,     4963,     4966,     4951,     4948,     4962,     4965,     4950,     4947
    4365,     4952,     4967,     4966,     4951,     4949,     4964,     4963,     4948
    4366,     4965,     4362,     4341,     4950,     4175,     3572,     3551,     4160
    4367,     4966,     4363,     4342,     4951,     4965,     4362,     4341,     4950
    4368,     4363,     4364,     4967,     4966,     4342,     4343,     4952,     4951
    4369,     4806,     4968,     4953,     4788,     4016,     4178,     4163,     3998
    4370,     4807,     4969,     4954,     4789,     4806,     4968,     4953,     4788
    4371,     4955,     4970,     4969,     4954,     4790,     4808,     4807,     4789
    4372,     4968,     4971,     4956,     4953,     4178,     4181,     4166,     4163
    4373,     4969,     4972,     4957,     4954,     4968,     4971,     4956,     4953
    4374,     4958,     4973,     4972,     4957,     4955,     4970,     4969,     4954
    4375,     4971,     4974,     4959,     4956,     4181,     4184,     4169,     4166
    4376,     4972,     4975,     4960,     4957,     4971,     4974,     4959,     4956
    4377,     4961,     4976,     4975,     4960,     4958,     4973,     4972,     4957
    4378,     4974,     4977,     4962,     4959,     4184,     4187,     4172,     4169
    4379,     4975,     4978,     4963,     4960,     4974,     4977,     4962,     4959
    4380,     4964,     4979,     4978,     4963,     4961,     4976,     4975,     4960
    4381,     4977,     4980,     4965,     4962,     4187,     4190,     4175,     4172
    4382,     4978,     4981,     4966,     4963,     4977,     4980,     4965,     4962
    4383,     4967,     4982,     4981,     4966,     4964,     4979,     4978,     4963
    4384,     4980,     4383,     4362,     4965,     4190,     3593,     3572,     4175
    4385,     4981,     4384,     4363,     4966,     4980,     4383,     4362,     4965
    4386,     4384,     4385,     4982,     4981,     4363,     4364,     4967,     4966
    4387,     4824,     4983,     4968,     4806,     4034,     4193,     4178,     4016
    4388,     4825,     4984,     4969,     4807,     4824,     4983,     4968,     4806
    4389,     4970,     4985,     4984,     4969,     4808,     4826,     4825,     4807
    4390,     4983,     4986,     4971,     4968,     4193,     4196,     4181,     4178
    4391,     4984,     4987,     4972,     4969,     4983,     4986,     4971,     4968
    4392,     4973,     4988,     4987,     4972,     4970,     4985,     4984,     4969
    4393,     4986,     4989,     4974,     4971,     4196,     4199,     4184,     4181
    4394,     4987,     4990,     4975,     4972,     4986,     4989,     4974,     4971
    4395,     4976,     4991,     4990,     4975,     4973,     4988,     4987,     4972
    4396,     4989,     4992,     4977,     4974,     4199,     4202,     4187,     4184
    4397,     4990,     4993,     4978,     4975,     4989,     4992,     4977,     4974
    4398,     4979,     4994,     4993,     4978,     4976,     4991,     4990,     4975
    4399,     4992,     4995,     4980,     4977,     4202,     4205,     4190,     4187
    4400,     4993,     4996,     4981,     4978,     4992,     4995,     4980,     4977
    4401,     4982,     4997,     4996,     4981,     4979,     4994,     4993,     4978
    4402,     4995,     4404,     4383,     4980,     4205,     3614,     3593,     4190
    4403,     4996,     4405,     4384,     4981,     4995,     4404,     4383,     4980
    4404,     4405,     4406,     4997,     4996,     4384,     4385,     4982,     4981
    4405,     4842,     4998,     4983,     4824,     4052,     4208,     4193,     4034
    4406,     4843,     4999,     4984,     4825,     4842,     4998,     4983,     4824
    4407,     4985,     5000,     4999,     4984,     4826,     4844,     4843,     4825
    4408,     4998,     5001,     4986,     4983,     4208,     4211,     4196,     4193
    4409,     4999,     5002,     4987,     4984,     4998,     5001,     4986,     4983
    4410,     4988,     5003,     5002,     4987,     4985,     5000,     4999,     4984
    4411,     5001,     5004,     4989,     4986,     4211,     4214,     4199,     4196
    4412,     5002,     5005,     4990,     4987,     5001,     5004,     4989,     4986
    4413,     4991,     5006,     5005,     4990,     4988,     5003,     5002,     4987
    4414,     5004,     5007,     4992,     4989,     4214,     4217,     4202,     4199
    4415,     5005,     5008,     4993,     4990,     5004,     5007,     4992,     4989
    4416,     4994,     5009,     5008,     4993,     4991,     5006,     5005,     4990
    4417,     5007,     5010,     4995,     4992,     4217,     4220,     4205,     4202
    4418,     5008,     5011,     4996,     4993,     5007,     5010,     4995,     4992
    4419,     4997,     5012,     5011,     4996,     4994,     5009,     5008,     4993
    4420,     5010,     4425,     4404,     4995,     4220,     3635,     3614,     4205
    4421,     5011,     4426,     4405,     4996,     5010,     4425,     4404,     4995
    4422,     4426,     4427,     5012,     5011,     4405,     4406,     4997,     4996
    4423,     4860,     5013,     4998,     4842,     4070,     4223,     4208,     4052
    4424,     4861,     5014,     4999,     4843,     4860,     5013,     4998,     4842
    4425,     5000,     5015,     5014,     4999,     4844,     4862,     4861,     4843
    4426,     5013,     5016,     5001,     4998,     4223,     4226,     4211,     4208
    4427,     5014,     5017,     5002,     4999,     5013,     5016,     5001,     4998
    4428,     5003,     5018,     5017,     5002,     5000,     5015,     5014,     4999
    4429,     5016,     5019,     5004,     5001,     4226,     4229,     4214,     4211
    4430,     5017,     5020,     5005,     5002,     5016,     5019,     5004,     5001
    4431,     5006,     5021,     5020,     5005,     5003,     5018,     5017,     5002
    4432,     5019,     5022,     5007,     5004,     4229,     4232,     4217,     4214
    4433,     5020,     5023,     5008,     5005,     5019,     5022,     5007,     5004
    4434,     5009,     5024,     5023,     5008,     5006,     5021,     5020,     5005
    4435,     5022,     5025,     5010,     5007,     4232,     4235,     4220,     4217
    4436,     5023,     5026,     5011,     5008,     5022,     5025,     5010,     5007
    4437,     5012,     5027,     5026,     5011,     5009,     5024,     5023,     5008
    4438,     5025,     4446,     4425,     5010,     4235,     3656,     3635,     4220
    4439,     5026,     4447,     4426,     5011,     5025,     4446,     4425,     5010
    4440,     4447,     4448,     5027,     5026,     4426,     4427,     5012,     5011
*ELEMENT, TYPE=C3D8I, ELSET=LC
    4441,     5029,     5036,      499,      492,     5028,     5035,      498,      491
    4442,     5030,     5037,      500,      493,     5029,     5036,      499,      492
    4443,     5031,     5038,      501,      494,     5030,     5037,      500,      493
    4444,     5032,     5039,      502,      495,     5031,     5038,      501,      494
    4445,     5033,     5040,      503,      496,     5032,     5039,      502,      495
    4446,      504,     5041,     5040,      503,      497,     5034,     5033,      496
    4447,     5036,     5043,      506,      499,     5035,     5042,      505,      498
    4448,     5037,     5044,      507,      500,     5036,     5043,      506,      499
    4449,     5038,     5045,      508,      501,     5037,     5044,      507,      500
    4450,     5039,     5046,      509,      502,     5038,     5045,      508,      501
    4451,     5040,     5047,      510,      503,     5039,     5046,      509,      502
    4452,      511,     5048,     5047,      510,      504,     5041,     5040,      503
    4453,     5043,     5050,      513,      506,     5042,     5049,      512,      505
    4454,     5044,     5051,      514,      507,     5043,     5050,      513,      506
    4455,     5045,     5052,      515,      508,     5044,     5051,      514,      507
    4456,     5046,     5053,      516,      509,     5045,     5052,      515,      508
    4457,     5047,     5054,      517,      510,     5046,     5053,      516,      509
    4458,      518,     5055,     5054,      517,      511,     5048,     5047,      510
    4459,     5050,     5057,      520,      513,     5049,     5056,      519,      512
    4460,     5051,     5058,      521,      514,     5050,     5057,      520,      513
    4461,     5052,     5059,      522,      515,     5051,     5058,      521,      514
    4462,     5053,     5060,      523,      516,     5052,     5059,      522,      515
    4463,     5054,     5061,      524,      517,     5053,     5060,      523,      516
    4464,      525,     5062,     5061,      524,      518,     5055,     5054,      517
    4465,     5057,     5064,      527,      520,     5056,     5063,      526,      519
    4466,     5058,     5065,      528,      521,     5057,     5064,      527,      520
    4467,     5059,     5066,      529,      522,     5058,     5065,      528,      521
    4468,     5060,     5067,      530,      523,     5059,     5066,      529,      522
    4469,     5061,     5068,      531,      524,     5060,     5067,      530,      523
    4470,      532,     5069,     5068,      531,      525,     5062,     5061,      524
    4471,     5064,     5071,      534,      527,     5063,     5070,      533,      526
    4472,     5065,     5072,      535,      528,     5064,     5071,      534,      527
    4473,     5066,     5073,      536,      529,     5065,     5072,      535,      528
    4474,     5067,     5074,      537,      530,     5066,     5073,      536,      529
    4475,     5068,     5075,      538,      531,     5067,     5074,      537,      530
    4476,     5069,     5076,      539,      532,     5068,     5075,      538,      531
    4477,     5077,     5083,      966,      960,     5070,     5063,      526,      533
    4478,     5078,     5084,      967,      961,     5077,     5083,      966,      960
    4479,     5079,     5085,      968,      962,     5078,     5084,      967,      961
    4480,     5080,     5086,      969,      963,     5079,     5085,      968,      962
    4481,     5081,     5087,      970,      964,     5080,     5086,      969,      963
    4482,      971,     5088,     5087,      970,      965,     5082,     5081,      964
    4483,     5083,     5089,      972,      966,     5063,     5056,      519,      526
    4484,     5084,     5090,      973,      967,     5083,     5089,      972,      966
    4485,     5085,     5091,      974,      968,     5084,     5090,      973,      967
    4486,     5086,     5092,      975,      969,     5085,     5091,      974,      968
    4487,     5087,     5093,      976,      970,     5086,     5092,      975,      969
    4488,      977,     5094,     5093,      976,      971,     5088,     5087,      970
    4489,     5089,     5095,      978,      972,     5056,     5049,      512,      519
    4490,     5090,     5096,      979,      973,     5089,     5095,      978,      972
    4491,     5091,     5097,      980,      974,     5090,     5096,      979,      973
    4492,     5092,     5098,      981,      975,     5091,     5097,      980,      974
    4493,     5093,     5099,      982,      976,     5092,     5098,      981,      975
    4494,      983,     5100,     5099,      982,      977,     5094,     5093,      976
    4495,     5095,     5101,      984,      978,     5049,     5042,      505,      512
    4496,     5096,     5102,      985,      979,     5095,     5101,      984,      978
    4497,     5097,     5103,      986,      980,     5096,     5102,      985,      979
    4498,     5098,     5104,      987,      981,     5097,     5103,      986,      980
    4499,     5099,     5105,      988,      982,     5098,     5104,      987,      981
    4500,      989,     5106,     5105,      988,      983,     5100,     5099,      982
    4501,     5101,     5107,      990,      984,     5042,     5035,      498,      505
    4502,     5102,     5108,      991,      985,     5101,     5107,      990,      984
    4503,     5103,     5109,      992,      986,     5102,     5108,      991,      985
    4504,     5104,     5110,      993,      987,     5103,     5109,      992,      986
    4505,     5105,     5111,      994,      988,     5104,     5110,      993,      987
    4506,      995,     5112,     5111,      994,      989,     5106,     5105,      988
    4507,     5107,     5113,      996,      990,     5035,     5028,      491,      498
    4508,     5108,     5114,      997,      991,     5107,     5113,      996,      990
    4509,     5109,     5115,      998,      992,     5108,     5114,      997,      991
    4510,     5110,     5116,      999,      993,     5109,     5115,      998,      992
    4511,     5111,     5117,     1000,      994,     5110,     5116,      999,      993
    4512,     1001,     5118,     5117,     1000,      995,     5112,     5111,      994
    4513,     5113,     5119,     1362,      996,     5028,     5029,      492,      491
    4514,     5114,     5120,     1363,      997,     5113,     5119,     1362,      996
    4515,     5115,     5121,     1364,      998,     5114,     5120,     1363,      997
    4516,     5116,     5122,     1365,      999,     5115,     5121,     1364,      998
    4517,     5117,     5123,     1366,     1000,     5116,     5122,     1365,      999
    4518,     1367,     5124,     5123,     1366,     1001,     5118,     5117,     1000
    4519,     5119,     5125,     1368,     1362,     5029,     5030,      493,      492
    4520,     5120,     5126,     1369,     1363,     5119,     5125,     1368,     1362
    4521,     5121,     5127,     1370,     1364,     5120,     5126,     1369,     1363
    4522,     5122,     5128,     1371,     1365,     5121,     5127,     1370,     1364
    4523,     5123,     5129,     1372,     1366,     5122,     5128,     1371,     1365
    4524,     1373,     5130,     5129,     1372,     1367,     5124,     5123,     1366
    4525,     5125,     5131,     1374,     1368,     5030,     5031,      494,      493
    4526,     5126,     5132,     1375,     1369,     5125,     5131,     1374,     1368
    4527,     5127,     5133,     1376,     1370,     5126,     5132,     1375,     1369
    4528,     5128,     5134,     1377,     1371,     5127,     5133,     1376,     1370
    4529,     5129,     5135,     1378,     1372,     5128,     5134,     1377,     1371
    4530,     1379,     5136,     5135,     1378,     1373,     5130,     5129,     1372
    4531,     5131,     5137,     1380,     1374,     5031,     5032,      495,      494
    4532,     5132,     5138,     1381,     1375,     5131,     5137,     1380,     1374
    4533,     5133,     5139,     1382,     1376,     5132,     5138,     1381,     1375
    4534,     5134,     5140,     1383,     1377,     5133,     5139,     1382,     1376
    4535,     5135,     5141,     1384,     1378,     5134,     5140,     1383,     1377
    4536,     1385,     5142,     5141,     1384,     1379,     5136,     5135,     1378
    4537,     5137,     5143,     1386,     1380,     5032,     5033,      496,      495
    4538,     5138,     5144,     1387,     1381,     5137,     5143,     1386,     1380
    4539,     5139,     5145,     1388,     1382,     5138,     5144,     1387,     1381
    4540,     5140,     5146,     1389,     1383,     5139,     5145,     1388,     1382
    4541,     5141,     5147,     1390,     1384,     5140,     5146,     1389,     1383
    4542,     1391,     5148,     5147,     1390,     1385,     5142,     5141,     1384
    4543,     5143,     5149,     1392,     1386,     5033,     5034,      497,      496
    4544,     5144,     5150,     1393,     1387,     5143,     5149,     1392,     1386
    4545,     5145,     5151,     1394,     1388,     5144,     5150,     1393,     1387
    4546,     5146,     5152,     1395,     1389,     5145,     5151,     1394,     1388
    4547,     5147,     5153,     1396,     1390,     5146,     5152,     1395,     1389
    4548,     1397,     5154,     5153,     1396,     1391,     5148,     5147,     1390
    4549,     5149,     5155,     1758,     1392,     5034,     5041,      504,      497
    4550,     5150,     5156,     1759,     1393,     5149,     5155,     1758,     1392
    4551,     5151,     5157,     1760,     1394,     5150,     5156,     1759,     1393
    4552,     5152,     5158,     1761,     1395,     5151,     5157,     1760,     1394
    4553,     5153,     5159,     1762,     1396,     5152,     5158,     1761,     1395
    4554,     1763,     5160,     5159,     1762,     1397,     5154,     5153,     1396
    4555,     5155,     5161,     1764,     1758,     5041,     5048,      511,      504
    4556,     5156,     5162,     1765,     1759,     5155,     5161,     1764,     1758
    4557,     5157,     5163,     1766,     1760,     5156,     5162,     1765,     1759
    4558,     5158,     5164,     1767,     1761,     5157,     5163,     1766,     1760
    4559,     5159,     5165,     1768,     1762,     5158,     5164,     1767,     1761
    4560,     1769,     5166,     5165,     1768,     1763,     5160,     5159,     1762
    4561,     5161,     5167,     1770,     1764,     5048,     5055,      518,      511
    4562,     5162,     5168,     1771,     1765,     5161,     5167,     1770,     1764
    4563,     5163,     5169,     1772,     1766,     5162,     5168,     1771,     1765
    4564,     5164,     5170,     1773,     1767,     5163,     5169,     1772,     1766
    4565,     5165,     5171,     1774,     1768,     5164,     5170,     1773,     1767
    4566,     1775,     5172,     5171,     1774,     1769,     5166,     5165,     1768
    4567,     5167,     5173,     1776,     1770,     5055,     5062,      525,      518
    4568,     5168,     5174,     1777,     1771,     5167,     5173,     1776,     1770
    4569,     5169,     5175,     1778,     1772,     5168,     5174,     1777,     1771
    4570,     5170,     5176,     1779,     1773,     5169,     5175,     1778,     1772
    4571,     5171,     5177,     1780,     1774,     5170,     5176,     1779,     1773
    4572,     1781,     5178,     5177,     1780,     1775,     5172,     5171,     1774
    4573,     5173,     5179,     1782,     1776,     5062,     5069,      532,      525
    4574,     5174,     5180,     1783,     1777,     5173,     5179,     1782,     1776
    4575,     5175,     5181,     1784,     1778,     5174,     5180,     1783,     1777
    4576,     5176,     5182,     1785,     1779,     5175,     5181,     1784,     1778
    4577,     5177,     5183,     1786,     1780,     5176,     5182,     1785,     1779
    4578,     1787,     5184,     5183,     1786,     1781,     5178,     5177,     1780
    4579,     5179,     5185,     1788,     1782,     5069,     5076,      539,      532
    4580,     5180,     5186,     1789,     1783,     5179,     5185,     1788,     1782
    4581,     5181,     5187,     1790,     1784,     5180,     5186,     1789,     1783
    4582,     5182,     5188,     1791,     1785,     5181,     5187,     1790,     1784
    4583,     5183,     5189,     1792,     1786,     5182,     5188,     1791,     1785
    4584,     1793,     5190,     5189,     1792,     1787,     5184,     5183,     1786
    4585,     5185,     5191,     2094,     1788,     5076,     5075,      538,      539
    4586,     5186,     5192,     2095,     1789,     5185,     5191,     2094,     1788
    4587,     5187,     5193,     2096,     1790,     5186,     5192,     2095,     1789
    4588,     5188,     5194,     2097,     1791,     5187,     5193,     2096,     1790
    4589,     5189,     5195,     2098,     1792,     5188,     5194,     2097,     1791
    4590,     2099,     5196,     5195,     2098,     1793,     5190,     5189,     1792
    4591,     5191,     5197,     2100,     2094,     5075,     5074,      537,      538
    4592,     5192,     5198,     2101,     2095,     5191,     5197,     2100,     2094
    4593,     5193,     5199,     2102,     2096,     5192,     5198,     2101,     2095
    4594,     5194,     5200,     2103,     2097,     5193,     5199,     2102,     2096
    4595,     5195,     5201,     2104,     2098,     5194,     5200,     2103,     2097
    4596,     2105,     5202,     5201,     2104,     2099,     5196,     5195,     2098
    4597,     5197,     5203,     2106,     2100,     5074,     5073,      536,      537
    4598,     5198,     5204,     2107,     2101,     5197,     5203,     2106,     2100
    4599,     5199,     5205,     2108,     2102,     5198,     5204,     2107,     2101
    4600,     5200,     5206,     2109,     2103,     5199,     5205,     2108,     2102
    4601,     5201,     5207,     2110,     2104,     5200,     5206,     2109,     2103
    4602,     2111,     5208,     5207,     2110,     2105,     5202,     5201,     2104
    4603,     5203,     5209,     2112,     2106,     5073,     5072,      535,      536
    4604,     5204,     5210,     2113,     2107,     5203,     5209,     2112,     2106
    4605,     5205,     5211,     2114,     2108,     5204,     5210,     2113,     2107
    4606,     5206,     5212,     2115,     2109,     5205,     5211,     2114,     2108
    4607,     5207,     5213,     2116,     2110,     5206,     5212,     2115,     2109
    4608,     2117,     5214,     5213,     2116,     2111,     5208,     5207,     2110
    4609,     5209,     5215,     2118,     2112,     5072,     5071,      534,      535
    4610,     5210,     5216,     2119,     2113,     5209,     5215,     2118,     2112
    4611,     5211,     5217,     2120,     2114,     5210,     5216,     2119,     2113
    4612,     5212,     5218,     2121,     2115,     5211,     5217,     2120,     2114
    4613,     5213,     5219,     2122,     2116,     5212,     5218,     2121,     2115
    4614,     2123,     5220,     5219,     2122,     2117,     5214,     5213,     2116
    4615,     5215,     5077,      960,     2118,     5071,     5070,      533,      534
    4616,     5216,     5078,      961,     2119,     5215,     5077,      960,     2118
    4617,     5217,     5079,      962,     2120,     5216,     5078,      961,     2119
    4618,     5218,     5080,      963,     2121,     5217,     5079,      962,     2120
    4619,     5219,     5081,      964,     2122,     5218,     5080,      963,     2121
    4620,     5220,     5082,      965,     2123,     5219,     5081,      964,     2122
*ELEMENT, TYPE=C3D8I, ELSET=SCLERA_PERI
    4621,     5221,     5223,     2266,     2264,     5082,     5088,      971,      965
    4622,     2267,     5224,     5223,     2266,     2265,     5222,     5221,     2264
    4623,     5223,     5225,     2268,     2266,     5088,     5094,      977,      971
    4624,     2269,     5226,     5225,     2268,     2267,     5224,     5223,     2266
    4625,     5225,     5227,     2270,     2268,     5094,     5100,      983,      977
    4626,     2271,     5228,     5227,     2270,     2269,     5226,     5225,     2268
    4627,     5227,     5229,     2272,     2270,     5100,     5106,      989,      983
    4628,     2273,     5230,     5229,     2272,     2271,     5228,     5227,     2270
    4629,     5229,     5231,     2274,     2272,     5106,     5112,      995,      989
    4630,     2275,     5232,     5231,     2274,     2273,     5230,     5229,     2272
    4631,     5231,     5233,     2276,     2274,     5112,     5118,     1001,      995
    4632,     2277,     5234,     5233,     2276,     2275,     5232,     5231,     2274
    4633,     5233,     5235,     2398,     2276,     5118,     5124,     1367,     1001
    4634,     2399,     5236,     5235,     2398,     2277,     5234,     5233,     2276
    4635,     5235,     5237,     2400,     2398,     5124,     5130,     1373,     1367
    4636,     2401,     5238,     5237,     2400,     2399,     5236,     5235,     2398
    4637,     5237,     5239,     2402,     2400,     5130,     5136,     1379,     1373
    4638,     2403,     5240,     5239,     2402,     2401,     5238,     5237,     2400
    4639,     5239,     5241,     2404,     2402,     5136,     5142,     1385,     1379
    4640,     2405,     5242,     5241,     2404,     2403,     5240,     5239,     2402
    4641,     5241,     5243,     2406,     2404,     5142,     5148,     1391,     1385
    4642,     2407,     5244,     5243,     2406,     2405,     5242,     5241,     2404
    4643,     5243,     5245,     2408,     2406,     5148,     5154,     1397,     1391
    4644,     2409,     5246,     5245,     2408,     2407,     5244,     5243,     2406
    4645,     5245,     5247,     2530,     2408,     5154,     5160,     1763,     1397
    4646,     2531,     5248,     5247,     2530,     2409,     5246,     5245,     2408
    4647,     5247,     5249,     2532,     2530,     5160,     5166,     1769,     1763
    4648,     2533,     5250,     5249,     2532,     2531,     5248,     5247,     2530
    4649,     5249,     5251,     2534,     2532,     5166,     5172,     1775,     1769
    4650,     2535,     5252,     5251,     2534,     2533,     5250,     5249,     2532
    4651,     5251,     5253,     2536,     2534,     5172,     5178,     1781,     1775
    4652,     2537,     5254,     5253,     2536,     2535,     5252,     5251,     2534
    4653,     5253,     5255,     2538,     2536,     5178,     5184,     1787,     1781
    4654,     2539,     5256,     5255,     2538,     2537,     5254,     5253,     2536
    4655,     5255,     5257,     2540,     2538,     5184,     5190,     1793,     1787
    4656,     2541,     5258,     5257,     2540,     2539,     5256,     5255,     2538
    4657,     5257,     5259,     2642,     2540,     5190,     5196,     2099,     1793
    4658,     2643,     5260,     5259,     2642,     2541,     5258,     5257,     2540
    4659,     5259,     5261,     2644,     2642,     5196,     5202,     2105,     2099
    4660,     2645,     5262,     5261,     2644,     2643,     5260,     5259,     2642
    4661,     5261,     5263,     2646,     2644,     5202,     5208,     2111,     2105
    4662,     2647,     5264,     5263,     2646,     2645,     5262,     5261,     2644
    4663,     5263,     5265,     2648,     2646,     5208,     5214,     2117,     2111
    4664,     2649,     5266,     5265,     2648,     2647,     5264,     5263,     2646
    4665,     5265,     5267,     2650,     2648,     5214,     5220,     2123,     2117
    4666,     2651,     5268,     5267,     2650,     2649,     5266,     5265,     2648
    4667,     5267,     5221,     2264,     2650,     5220,     5082,      965,     2123
    4668,     5268,     5222,     2265,     2651,     5267,     5221,     2264,     2650
    4669,     5269,     5272,     2865,     2862,     5222,     5224,     2267,     2265
    4670,     5270,     5273,     2866,     2863,     5269,     5272,     2865,     2862
    4671,     2867,     5274,     5273,     2866,     2864,     5271,     5270,     2863
    4672,     5272,     5275,     2868,     2865,     5224,     5226,     2269,     2267
    4673,     5273,     5276,     2869,     2866,     5272,     5275,     2868,     2865
    4674,     2870,     5277,     5276,     2869,     2867,     5274,     5273,     2866
    4675,     5275,     5278,     2871,     2868,     5226,     5228,     2271,     2269
    4676,     5276,     5279,     2872,     2869,     5275,     5278,     2871,     2868
    4677,     2873,     5280,     5279,     2872,     2870,     5277,     5276,     2869
    4678,     5278,     5281,     2874,     2871,     5228,     5230,     2273,     2271
    4679,     5279,     5282,     2875,     2872,     5278,     5281,     2874,     2871
    4680,     2876,     5283,     5282,     2875,     2873,     5280,     5279,     2872
    4681,     5281,     5284,     2877,     2874,     5230,     5232,     2275,     2273
    4682,     5282,     5285,     2878,     2875,     5281,     5284,     2877,     2874
    4683,     2879,     5286,     5285,     2878,     2876,     5283,     5282,     2875
    4684,     5284,     5287,     2880,     2877,     5232,     5234,     2277,     2275
    4685,     5285,     5288,     2881,     2878,     5284,     5287,     2880,     2877
    4686,     2882,     5289,     5288,     2881,     2879,     5286,     5285,     2878
    4687,     5287,     5290,     3063,     2880,     5234,     5236,     2399,     2277
    4688,     5288,     5291,     3064,     2881,     5287,     5290,     3063,     2880
    4689,     3065,     5292,     5291,     3064,     2882,     5289,     5288,     2881
    4690,     5290,     5293,     3066,     3063,     5236,     5238,     2401,     2399
    4691,     5291,     5294,     3067,     3064,     5290,     5293,     3066,     3063
    4692,     3068,     5295,     5294,     3067,     3065,     5292,     5291,     3064
    4693,     5293,     5296,     3069,     3066,     5238,     5240,     2403,     2401
    4694,     5294,     5297,     3070,     3067,     5293,     5296,     3069,     3066
    4695,     3071,     5298,     5297,     3070,     3068,     5295,     5294,     3067
    4696,     5296,     5299,     3072,     3069,     5240,     5242,     2405,     2403
    4697,     5297,     5300,     3073,     3070,     5296,     5299,     3072,     3069
    4698,     3074,     5301,     5300,     3073,     3071,     5298,     5297,     3070
    4699,     5299,     5302,     3075,     3072,     5242,     5244,     2407,     2405
    4700,     5300,     5303,     3076,     3073,     5299,     5302,     3075,     3072
    4701,     3077,     5304,     5303,     3076,     3074,     5301,     5300,     3073
    4702,     5302,     5305,     3078,     3075,     5244,     5246,     2409,     2407
    4703,     5303,     5306,     3079,     3076,     5302,     5305,     3078,     3075
    4704,     3080,     5307,     5306,     3079,     3077,     5304,     5303,     3076
    4705,     5305,     5308,     3261,     3078,     5246,     5248,     2531,     2409
    4706,     5306,     5309,     3262,     3079,     5305,     5308,     3261,     3078
    4707,     3263,     5310,     5309,     3262,     3080,     5307,     5306,     3079
    4708,     5308,     5311,     3264,     3261,     5248,     5250,     2533,     2531
    4709,     5309,     5312,     3265,     3262,     5308,     5311,     3264,     3261
    4710,     3266,     5313,     5312,     3265,     3263,     5310,     5309,     3262
    4711,     5311,     5314,     3267,     3264,     5250,     5252,     2535,     2533
    4712,     5312,     5315,     3268,     3265,     5311,     5314,     3267,     3264
    4713,     3269,     5316,     5315,     3268,     3266,     5313,     5312,     3265
    4714,     5314,     5317,     3270,     3267,     5252,     5254,     2537,     2535
    4715,     5315,     5318,     3271,     3268,     5314,     5317,     3270,     3267
    4716,     3272,     5319,     5318,     3271,     3269,     5316,     5315,     3268
    4717,     5317,     5320,     3273,     3270,     5254,     5256,     2539,     2537
    4718,     5318,     5321,     3274,     3271,     5317,     5320,     3273,     3270
    4719,     3275,     5322,     5321,     3274,     3272,     5319,     5318,     3271
    4720,     5320,     5323,     3276,     3273,     5256,     5258,     2541,     2539
    4721,     5321,     5324,     3277,     3274,     5320,     5323,     3276,     3273
    4722,     3278,     5325,     5324,     3277,     3275,     5322,     5321,     3274
    4723,     5323,     5326,     3429,     3276,     5258,     5260,     2643,     2541
    4724,     5324,     5327,     3430,     3277,     5323,     5326,     3429,     3276
    4725,     3431,     5328,     5327,     3430,     3278,     5325,     5324,     3277
    4726,     5326,     5329,     3432,     3429,     5260,     5262,     2645,     2643
    4727,     5327,     5330,     3433,     3430,     5326,     5329,     3432,     3429
    4728,     3434,     5331,     5330,     3433,     3431,     5328,     5327,     3430
    4729,     5329,     5332,     3435,     3432,     5262,     5264,     2647,     2645
    4730,     5330,     5333,     3436,     3433,     5329,     5332,     3435,     3432
    4731,     3437,     5334,     5333,     3436,     3434,     5331,     5330,     3433
    4732,     5332,     5335,     3438,     3435,     5264,     5266,     2649,     2647
    4733,     5333,     5336,     3439,     3436,     5332,     5335,     3438,     3435
    4734,     3440,     5337,     5336,     3439,     3437,     5334,     5333,     3436
    4735,     5335,     5338,     3441,     3438,     5266,     5268,     2651,     2649
    4736,     5336,     5339,     3442,     3439,     5335,     5338,     3441,     3438
    4737,     3443,     5340,     5339,     3442,     3440,     5337,     5336,     3439
    4738,     5338,     5269,     2862,     3441,     5268,     5222,     2265,     2651
    4739,     5339,     5270,     2863,     3442,     5338,     5269,     2862,     3441
    4740,     5340,     5271,     2864,     3443,     5339,     5270,     2863,     3442
*ELEMENT, TYPE=C3D8I, ELSET=SCLERA_RING
    4741,     5341,     5344,     3657,     3654,     5271,     5274,     2867,     2864
    4742,     5342,     5345,     3658,     3655,     5341,     5344,     3657,     3654
    4743,     3659,     5346,     5345,     3658,     3656,     5343,     5342,     3655
    4744,     5344,     5347,     3660,     3657,     5274,     5277,     2870,     2867
    4745,     5345,     5348,     3661,     3658,     5344,     5347,     3660,     3657
    4746,     3662,     5349,     5348,     3661,     3659,     5346,     5345,     3658
    4747,     5347,     5350,     3663,     3660,     5277,     5280,     2873,     2870
    4748,     5348,     5351,     3664,     3661,     5347,     5350,     3663,     3660
    4749,     3665,     5352,     5351,     3664,     3662,     5349,     5348,     3661
    4750,     5350,     5353,     3666,     3663,     5280,     5283,     2876,     2873
    4751,     5351,     5354,     3667,     3664,     5350,     5353,     3666,     3663
    4752,     3668,     5355,     5354,     3667,     3665,     5352,     5351,     3664
    4753,     5353,     5356,     3669,     3666,     5283,     5286,     2879,     2876
    4754,     5354,     5357,     3670,     3667,     5353,     5356,     3669,     3666
    4755,     3671,     5358,     5357,     3670,     3668,     5355,     5354,     3667
    4756,     5356,     5359,     3672,     3669,     5286,     5289,     2882,     2879
    4757,     5357,     5360,     3673,     3670,     5356,     5359,     3672,     3669
    4758,     3674,     5361,     5360,     3673,     3671,     5358,     5357,     3670
    4759,     5359,     5362,     3855,     3672,     5289,     5292,     3065,     2882
    4760,     5360,     5363,     3856,     3673,     5359,     5362,     3855,     3672
    4761,     3857,     5364,     5363,     3856,     3674,     5361,     5360,     3673
    4762,     5362,     5365,     3858,     3855,     5292,     5295,     3068,     3065
    4763,     5363,     5366,     3859,     3856,     5362,     5365,     3858,     3855
    4764,     3860,     5367,     5366,     3859,     3857,     5364,     5363,     3856
    4765,     5365,     5368,     3861,     3858,     5295,     5298,     3071,     3068
    4766,     5366,     5369,     3862,     3859,     5365,     5368,     3861,     3858
    4767,     3863,     5370,     5369,     3862,     3860,     5367,     5366,     3859
    4768,     5368,     5371,     3864,     3861,     5298,     5301,     3074,     3071
    4769,     5369,     5372,     3865,     3862,     5368,     5371,     3864,     3861
    4770,     3866,     5373,     5372,     3865,     3863,     5370,     5369,     3862
    4771,     5371,     5374,     3867,     3864,     5301,     5304,     3077,     3074
    4772,     5372,     5375,     3868,     3865,     5371,     5374,     3867,     3864
    4773,     3869,     5376,     5375,     3868,     3866,     5373,     5372,     3865
    4774,     5374,     5377,     3870,     3867,     5304,     5307,     3080,     3077
    4775,     5375,     5378,     3871,     3868,     5374,     5377,     3870,     3867
    4776,     3872,     5379,     5378,     3871,     3869,     5376,     5375,     3868
    4777,     5377,     5380,     4053,     3870,     5307,     5310,     3263,     3080
    4778,     5378,     5381,     4054,     3871,     5377,     5380,     4053,     3870
    4779,     4055,     5382,     5381,     4054,     3872,     5379,     5378,     3871
    4780,     5380,     5383,     4056,     4053,     5310,     5313,     3266,     3263
    4781,     5381,     5384,     4057,     4054,     5380,     5383,     4056,     4053
    4782,     4058,     5385,     5384,     4057,     4055,     5382,     5381,     4054
    4783,     5383,     5386,     4059,     4056,     5313,     5316,     3269,     3266
    4784,     5384,     5387,     4060,     4057,     5383,     5386,     4059,     4056
    4785,     4061,     5388,     5387,     4060,     4058,     5385,     5384,     4057
    4786,     5386,     5389,     4062,     4059,     5316,     5319,     3272,     3269
    4787,     5387,     5390,     4063,     4060,     5386,     5389,     4062,     4059
    4788,     4064,     5391,     5390,     4063,     4061,     5388,     5387,     4060
    4789,     5389,     5392,     4065,     4062,     5319,     5322,     3275,     3272
    4790,     5390,     5393,     4066,     4063,     5389,     5392,     4065,     4062
    4791,     4067,     5394,     5393,     4066,     4064,     5391,     5390,     4063
    4792,     5392,     5395,     4068,     4065,     5322,     5325,     3278,     3275
    4793,     5393,     5396,     4069,     4066,     5392,     5395,     4068,     4065
    4794,     4070,     5397,     5396,     4069,     4067,     5394,     5393,     4066
    4795,     5395,     5398,     4221,     4068,     5325,     5328,     3431,     3278
    4796,     5396,     5399,     4222,     4069,     5395,     5398,     4221,     4068
    4797,     4223,     5400,     5399,     4222,     4070,     5397,     5396,     4069
    4798,     5398,     5401,     4224,     4221,     5328,     5331,     3434,     3431
    4799,     5399,     5402,     4225,     4222,     5398,     5401,     4224,     4221
    4800,     4226,     5403,     5402,     4225,     4223,     5400,     5399,     4222
    4801,     5401,     5404,     4227,     4224,     5331,     5334,     3437,     3434
    4802,     5402,     5405,     4228,     4225,     5401,     5404,     4227,     4224
    4803,     4229,     5406,     5405,     4228,     4226,     5403,     5402,     4225
    4804,     5404,     5407,     4230,     4227,     5334,     5337,     3440,     3437
    4805,     5405,     5408,     4231,     4228,     5404,     5407,     4230,     4227
    4806,     4232,     5409,     5408,     4231,     4229,     5406,     5405,     4228
    4807,     5407,     5410,     4233,     4230,     5337,     5340,     3443,     3440
    4808,     5408,     5411,     4234,     4231,     5407,     5410,     4233,     4230
    4809,     4235,     5412,     5411,     4234,     4232,     5409,     5408,     4231
    4810,     5410,     5341,     3654,     4233,     5340,     5271,     2864,     3443
    4811,     5411,     5342,     3655,     4234,     5410,     5341,     3654,     4233
    4812,     5412,     5343,     3656,     4235,     5411,     5342,     3655,     4234
    4813,     5413,     5416,     4449,     4446,     5343,     5346,     3659,     3656
    4814,     5414,     5417,     4450,     4447,     5413,     5416,     4449,     4446
    4815,     4451,     5418,     5417,     4450,     4448,     5415,     5414,     4447
    4816,     5416,     5419,     4452,     4449,     5346,     5349,     3662,     3659
    4817,     5417,     5420,     4453,     4450,     5416,     5419,     4452,     4449
    4818,     4454,     5421,     5420,     4453,     4451,     5418,     5417,     4450
    4819,     5419,     5422,     4455,     4452,     5349,     5352,     3665,     3662
    4820,     5420,     5423,     4456,     4453,     5419,     5422,     4455,     4452
    4821,     4457,     5424,     5423,     4456,     4454,     5421,     5420,     4453
    4822,     5422,     5425,     4458,     4455,     5352,     5355,     3668,     3665
    4823,     5423,     5426,     4459,     4456,     5422,     5425,     4458,     4455
    4824,     4460,     5427,     5426,     4459,     4457,     5424,     5423,     4456
    4825,     5425,     5428,     4461,     4458,     5355,     5358,     3671,     3668
    4826,     5426,     5429,     4462,     4459,     5425,     5428,     4461,     4458
    4827,     4463,     5430,     5429,     4462,     4460,     5427,     5426,     4459
    4828,     5428,     5431,     4464,     4461,     5358,     5361,     3674,     3671
    4829,     5429,     5432,     4465,     4462,     5428,     5431,     4464,     4461
    4830,     4466,     5433,     5432,     4465,     4463,     5430,     5429,     4462
    4831,     5431,     5434,     4647,     4464,     5361,     5364,     3857,     3674
    4832,     5432,     5435,     4648,     4465,     5431,     5434,     4647,     4464
    4833,     4649,     5436,     5435,     4648,     4466,     5433,     5432,     4465
    4834,     5434,     5437,     4650,     4647,     5364,     5367,     3860,     3857
    4835,     5435,     5438,     4651,     4648,     5434,     5437,     4650,     4647
    4836,     4652,     5439,     5438,     4651,     4649,     5436,     5435,     4648
    4837,     5437,     5440,     4653,     4650,     5367,     5370,     3863,     3860
    4838,     5438,     5441,     4654,     4651,     5437,     5440,     4653,     4650
    4839,     4655,     5442,     5441,     4654,     4652,     5439,     5438,     4651
    4840,     5440,     5443,     4656,     4653,     5370,     5373,     3866,     3863
    4841,     5441,     5444,     4657,     4654,     5440,     5443,     4656,     4653
    4842,     4658,     5445,     5444,     4657,     4655,     5442,     5441,     4654
    4843,     5443,     5446,     4659,     4656,     5373,     5376,     3869,     3866
    4844,     5444,     5447,     4660,     4657,     5443,     5446,     4659,     4656
    4845,     4661,     5448,     5447,     4660,     4658,     5445,     5444,     4657
    4846,     5446,     5449,     4662,     4659,     5376,     5379,     3872,     3869
    4847,     5447,     5450,     4663,     4660,     5446,     5449,     4662,     4659
    4848,     4664,     5451,     5450,     4663,     4661,     5448,     5447,     4660
    4849,     5449,     5452,     4845,     4662,     5379,     5382,     4055,     3872
    4850,     5450,     5453,     4846,     4663,     5449,     5452,     4845,     4662
    4851,     4847,     5454,     5453,     4846,     4664,     5451,     5450,     4663
    4852,     5452,     5455,     4848,     4845,     5382,     5385,     4058,     4055
    4853,     5453,     5456,     4849,     4846,     5452,     5455,     4848,     4845
    4854,     4850,     5457,     5456,     4849,     4847,     5454,     5453,     4846
    4855,     5455,     5458,     4851,     4848,     5385,     5388,     4061,     4058
    4856,     5456,     5459,     4852,     4849,     5455,     5458,     4851,     4848
    4857,     4853,     5460,     5459,     4852,     4850,     5457,     5456,     4849
    4858,     5458,     5461,     4854,     4851,     5388,     5391,     4064,     4061
    4859,     5459,     5462,     4855,     4852,     5458,     5461,     4854,     4851
    4860,     4856,     5463,     5462,     4855,     4853,     5460,     5459,     4852
    4861,     5461,     5464,     4857,     4854,     5391,     5394,     4067,     4064
    4862,     5462,     5465,     4858,     4855,     5461,     5464,     4857,     4854
    4863,     4859,     5466,     5465,     4858,     4856,     5463,     5462,     4855
    4864,     5464,     5467,     4860,     4857,     5394,     5397,     4070,     4067
    4865,     5465,     5468,     4861,     4858,     5464,     5467,     4860,     4857
    4866,     4862,     5469,     5468,     4861,     4859,     5466,     5465,     4858
    4867,     5467,     5470,     5013,     4860,     5397,     5400,     4223,     4070
    4868,     5468,     5471,     5014,     4861,     5467,     5470,     5013,     4860
    4869,     5015,     5472,     5471,     5014,     4862,     5469,     5468,     4861
    4870,     5470,     5473,     5016,     5013,     5400,     5403,     4226,     4223
    4871,     5471,     5474,     5017,     5014,     5470,     5473,     5016,     5013
    4872,     5018,     5475,     5474,     5017,     5015,     5472,     5471,     5014
    4873,     5473,     5476,     5019,     5016,     5403,     5406,     4229,     4226
    4874,     5474,     5477,     5020,     5017,     5473,     5476,     5019,     5016
    4875,     5021,     5478,     5477,     5020,     5018,     5475,     5474,     5017
    4876,     5476,     5479,     5022,     5019,     5406,     5409,     4232,     4229
    4877,     5477,     5480,     5023,     5020,     5476,     5479,     5022,     5019
    4878,     5024,     5481,     5480,     5023,     5021,     5478,     5477,     5020
    4879,     5479,     5482,     5025,     5022,     5409,     5412,     4235,     4232
    4880,     5480,     5483,     5026,     5023,     5479,     5482,     5025,     5022
    4881,     5027,     5484,     5483,     5026,     5024,     5481,     5480,     5023
    4882,     5482,     5413,     4446,     5025,     5412,     5343,     3656,     4235
    4883,     5483,     5414,     4447,     5026,     5482,     5413,     4446,     5025
    4884,     5414,     5415,     5484,     5483,     4447,     4448,     5027,     5026
*ELEMENT, TYPE=C3D8I, ELSET=GLOBO
    4885,     5486,     5493,     5036,     5029,     5485,     5492,     5035,     5028
    4886,     5487,     5494,     5037,     5030,     5486,     5493,     5036,     5029
    4887,     5488,     5495,     5038,     5031,     5487,     5494,     5037,     5030
    4888,     5489,     5496,     5039,     5032,     5488,     5495,     5038,     5031
    4889,     5490,     5497,     5040,     5033,     5489,     5496,     5039,     5032
    4890,     5041,     5498,     5497,     5040,     5034,     5491,     5490,     5033
    4891,     5493,     5500,     5043,     5036,     5492,     5499,     5042,     5035
    4892,     5494,     5501,     5044,     5037,     5493,     5500,     5043,     5036
    4893,     5495,     5502,     5045,     5038,     5494,     5501,     5044,     5037
    4894,     5496,     5503,     5046,     5039,     5495,     5502,     5045,     5038
    4895,     5497,     5504,     5047,     5040,     5496,     5503,     5046,     5039
    4896,     5048,     5505,     5504,     5047,     5041,     5498,     5497,     5040
    4897,     5500,     5507,     5050,     5043,     5499,     5506,     5049,     5042
    4898,     5501,     5508,     5051,     5044,     5500,     5507,     5050,     5043
    4899,     5502,     5509,     5052,     5045,     5501,     5508,     5051,     5044
    4900,     5503,     5510,     5053,     5046,     5502,     5509,     5052,     5045
    4901,     5504,     5511,     5054,     5047,     5503,     5510,     5053,     5046
    4902,     5055,     5512,     5511,     5054,     5048,     5505,     5504,     5047
    4903,     5507,     5514,     5057,     5050,     5506,     5513,     5056,     5049
    4904,     5508,     5515,     5058,     5051,     5507,     5514,     5057,     5050
    4905,     5509,     5516,     5059,     5052,     5508,     5515,     5058,     5051
    4906,     5510,     5517,     5060,     5053,     5509,     5516,     5059,     5052
    4907,     5511,     5518,     5061,     5054,     5510,     5517,     5060,     5053
    4908,     5062,     5519,     5518,     5061,     5055,     5512,     5511,     5054
    4909,     5514,     5521,     5064,     5057,     5513,     5520,     5063,     5056
    4910,     5515,     5522,     5065,     5058,     5514,     5521,     5064,     5057
    4911,     5516,     5523,     5066,     5059,     5515,     5522,     5065,     5058
    4912,     5517,     5524,     5067,     5060,     5516,     5523,     5066,     5059
    4913,     5518,     5525,     5068,     5061,     5517,     5524,     5067,     5060
    4914,     5069,     5526,     5525,     5068,     5062,     5519,     5518,     5061
    4915,     5521,     5528,     5071,     5064,     5520,     5527,     5070,     5063
    4916,     5522,     5529,     5072,     5065,     5521,     5528,     5071,     5064
    4917,     5523,     5530,     5073,     5066,     5522,     5529,     5072,     5065
    4918,     5524,     5531,     5074,     5067,     5523,     5530,     5073,     5066
    4919,     5525,     5532,     5075,     5068,     5524,     5531,     5074,     5067
    4920,     5526,     5533,     5076,     5069,     5525,     5532,     5075,     5068
    4921,     5534,     5540,     5083,     5077,     5527,     5520,     5063,     5070
    4922,     5535,     5541,     5084,     5078,     5534,     5540,     5083,     5077
    4923,     5536,     5542,     5085,     5079,     5535,     5541,     5084,     5078
    4924,     5537,     5543,     5086,     5080,     5536,     5542,     5085,     5079
    4925,     5538,     5544,     5087,     5081,     5537,     5543,     5086,     5080
    4926,     5088,     5545,     5544,     5087,     5082,     5539,     5538,     5081
    4927,     5540,     5546,     5089,     5083,     5520,     5513,     5056,     5063
    4928,     5541,     5547,     5090,     5084,     5540,     5546,     5089,     5083
    4929,     5542,     5548,     5091,     5085,     5541,     5547,     5090,     5084
    4930,     5543,     5549,     5092,     5086,     5542,     5548,     5091,     5085
    4931,     5544,     5550,     5093,     5087,     5543,     5549,     5092,     5086
    4932,     5094,     5551,     5550,     5093,     5088,     5545,     5544,     5087
    4933,     5546,     5552,     5095,     5089,     5513,     5506,     5049,     5056
    4934,     5547,     5553,     5096,     5090,     5546,     5552,     5095,     5089
    4935,     5548,     5554,     5097,     5091,     5547,     5553,     5096,     5090
    4936,     5549,     5555,     5098,     5092,     5548,     5554,     5097,     5091
    4937,     5550,     5556,     5099,     5093,     5549,     5555,     5098,     5092
    4938,     5100,     5557,     5556,     5099,     5094,     5551,     5550,     5093
    4939,     5552,     5558,     5101,     5095,     5506,     5499,     5042,     5049
    4940,     5553,     5559,     5102,     5096,     5552,     5558,     5101,     5095
    4941,     5554,     5560,     5103,     5097,     5553,     5559,     5102,     5096
    4942,     5555,     5561,     5104,     5098,     5554,     5560,     5103,     5097
    4943,     5556,     5562,     5105,     5099,     5555,     5561,     5104,     5098
    4944,     5106,     5563,     5562,     5105,     5100,     5557,     5556,     5099
    4945,     5558,     5564,     5107,     5101,     5499,     5492,     5035,     5042
    4946,     5559,     5565,     5108,     5102,     5558,     5564,     5107,     5101
    4947,     5560,     5566,     5109,     5103,     5559,     5565,     5108,     5102
    4948,     5561,     5567,     5110,     5104,     5560,     5566,     5109,     5103
    4949,     5562,     5568,     5111,     5105,     5561,     5567,     5110,     5104
    4950,     5112,     5569,     5568,     5111,     5106,     5563,     5562,     5105
    4951,     5564,     5570,     5113,     5107,     5492,     5485,     5028,     5035
    4952,     5565,     5571,     5114,     5108,     5564,     5570,     5113,     5107
    4953,     5566,     5572,     5115,     5109,     5565,     5571,     5114,     5108
    4954,     5567,     5573,     5116,     5110,     5566,     5572,     5115,     5109
    4955,     5568,     5574,     5117,     5111,     5567,     5573,     5116,     5110
    4956,     5118,     5575,     5574,     5117,     5112,     5569,     5568,     5111
    4957,     5570,     5576,     5119,     5113,     5485,     5486,     5029,     5028
    4958,     5571,     5577,     5120,     5114,     5570,     5576,     5119,     5113
    4959,     5572,     5578,     5121,     5115,     5571,     5577,     5120,     5114
    4960,     5573,     5579,     5122,     5116,     5572,     5578,     5121,     5115
    4961,     5574,     5580,     5123,     5117,     5573,     5579,     5122,     5116
    4962,     5124,     5581,     5580,     5123,     5118,     5575,     5574,     5117
    4963,     5576,     5582,     5125,     5119,     5486,     5487,     5030,     5029
    4964,     5577,     5583,     5126,     5120,     5576,     5582,     5125,     5119
    4965,     5578,     5584,     5127,     5121,     5577,     5583,     5126,     5120
    4966,     5579,     5585,     5128,     5122,     5578,     5584,     5127,     5121
    4967,     5580,     5586,     5129,     5123,     5579,     5585,     5128,     5122
    4968,     5130,     5587,     5586,     5129,     5124,     5581,     5580,     5123
    4969,     5582,     5588,     5131,     5125,     5487,     5488,     5031,     5030
    4970,     5583,     5589,     5132,     5126,     5582,     5588,     5131,     5125
    4971,     5584,     5590,     5133,     5127,     5583,     5589,     5132,     5126
    4972,     5585,     5591,     5134,     5128,     5584,     5590,     5133,     5127
    4973,     5586,     5592,     5135,     5129,     5585,     5591,     5134,     5128
    4974,     5136,     5593,     5592,     5135,     5130,     5587,     5586,     5129
    4975,     5588,     5594,     5137,     5131,     5488,     5489,     5032,     5031
    4976,     5589,     5595,     5138,     5132,     5588,     5594,     5137,     5131
    4977,     5590,     5596,     5139,     5133,     5589,     5595,     5138,     5132
    4978,     5591,     5597,     5140,     5134,     5590,     5596,     5139,     5133
    4979,     5592,     5598,     5141,     5135,     5591,     5597,     5140,     5134
    4980,     5142,     5599,     5598,     5141,     5136,     5593,     5592,     5135
    4981,     5594,     5600,     5143,     5137,     5489,     5490,     5033,     5032
    4982,     5595,     5601,     5144,     5138,     5594,     5600,     5143,     5137
    4983,     5596,     5602,     5145,     5139,     5595,     5601,     5144,     5138
    4984,     5597,     5603,     5146,     5140,     5596,     5602,     5145,     5139
    4985,     5598,     5604,     5147,     5141,     5597,     5603,     5146,     5140
    4986,     5148,     5605,     5604,     5147,     5142,     5599,     5598,     5141
    4987,     5600,     5606,     5149,     5143,     5490,     5491,     5034,     5033
    4988,     5601,     5607,     5150,     5144,     5600,     5606,     5149,     5143
    4989,     5602,     5608,     5151,     5145,     5601,     5607,     5150,     5144
    4990,     5603,     5609,     5152,     5146,     5602,     5608,     5151,     5145
    4991,     5604,     5610,     5153,     5147,     5603,     5609,     5152,     5146
    4992,     5154,     5611,     5610,     5153,     5148,     5605,     5604,     5147
    4993,     5606,     5612,     5155,     5149,     5491,     5498,     5041,     5034
    4994,     5607,     5613,     5156,     5150,     5606,     5612,     5155,     5149
    4995,     5608,     5614,     5157,     5151,     5607,     5613,     5156,     5150
    4996,     5609,     5615,     5158,     5152,     5608,     5614,     5157,     5151
    4997,     5610,     5616,     5159,     5153,     5609,     5615,     5158,     5152
    4998,     5160,     5617,     5616,     5159,     5154,     5611,     5610,     5153
    4999,     5612,     5618,     5161,     5155,     5498,     5505,     5048,     5041
    5000,     5613,     5619,     5162,     5156,     5612,     5618,     5161,     5155
    5001,     5614,     5620,     5163,     5157,     5613,     5619,     5162,     5156
    5002,     5615,     5621,     5164,     5158,     5614,     5620,     5163,     5157
    5003,     5616,     5622,     5165,     5159,     5615,     5621,     5164,     5158
    5004,     5166,     5623,     5622,     5165,     5160,     5617,     5616,     5159
    5005,     5618,     5624,     5167,     5161,     5505,     5512,     5055,     5048
    5006,     5619,     5625,     5168,     5162,     5618,     5624,     5167,     5161
    5007,     5620,     5626,     5169,     5163,     5619,     5625,     5168,     5162
    5008,     5621,     5627,     5170,     5164,     5620,     5626,     5169,     5163
    5009,     5622,     5628,     5171,     5165,     5621,     5627,     5170,     5164
    5010,     5172,     5629,     5628,     5171,     5166,     5623,     5622,     5165
    5011,     5624,     5630,     5173,     5167,     5512,     5519,     5062,     5055
    5012,     5625,     5631,     5174,     5168,     5624,     5630,     5173,     5167
    5013,     5626,     5632,     5175,     5169,     5625,     5631,     5174,     5168
    5014,     5627,     5633,     5176,     5170,     5626,     5632,     5175,     5169
    5015,     5628,     5634,     5177,     5171,     5627,     5633,     5176,     5170
    5016,     5178,     5635,     5634,     5177,     5172,     5629,     5628,     5171
    5017,     5630,     5636,     5179,     5173,     5519,     5526,     5069,     5062
    5018,     5631,     5637,     5180,     5174,     5630,     5636,     5179,     5173
    5019,     5632,     5638,     5181,     5175,     5631,     5637,     5180,     5174
    5020,     5633,     5639,     5182,     5176,     5632,     5638,     5181,     5175
    5021,     5634,     5640,     5183,     5177,     5633,     5639,     5182,     5176
    5022,     5184,     5641,     5640,     5183,     5178,     5635,     5634,     5177
    5023,     5636,     5642,     5185,     5179,     5526,     5533,     5076,     5069
    5024,     5637,     5643,     5186,     5180,     5636,     5642,     5185,     5179
    5025,     5638,     5644,     5187,     5181,     5637,     5643,     5186,     5180
    5026,     5639,     5645,     5188,     5182,     5638,     5644,     5187,     5181
    5027,     5640,     5646,     5189,     5183,     5639,     5645,     5188,     5182
    5028,     5190,     5647,     5646,     5189,     5184,     5641,     5640,     5183
    5029,     5642,     5648,     5191,     5185,     5533,     5532,     5075,     5076
    5030,     5643,     5649,     5192,     5186,     5642,     5648,     5191,     5185
    5031,     5644,     5650,     5193,     5187,     5643,     5649,     5192,     5186
    5032,     5645,     5651,     5194,     5188,     5644,     5650,     5193,     5187
    5033,     5646,     5652,     5195,     5189,     5645,     5651,     5194,     5188
    5034,     5196,     5653,     5652,     5195,     5190,     5647,     5646,     5189
    5035,     5648,     5654,     5197,     5191,     5532,     5531,     5074,     5075
    5036,     5649,     5655,     5198,     5192,     5648,     5654,     5197,     5191
    5037,     5650,     5656,     5199,     5193,     5649,     5655,     5198,     5192
    5038,     5651,     5657,     5200,     5194,     5650,     5656,     5199,     5193
    5039,     5652,     5658,     5201,     5195,     5651,     5657,     5200,     5194
    5040,     5202,     5659,     5658,     5201,     5196,     5653,     5652,     5195
    5041,     5654,     5660,     5203,     5197,     5531,     5530,     5073,     5074
    5042,     5655,     5661,     5204,     5198,     5654,     5660,     5203,     5197
    5043,     5656,     5662,     5205,     5199,     5655,     5661,     5204,     5198
    5044,     5657,     5663,     5206,     5200,     5656,     5662,     5205,     5199
    5045,     5658,     5664,     5207,     5201,     5657,     5663,     5206,     5200
    5046,     5208,     5665,     5664,     5207,     5202,     5659,     5658,     5201
    5047,     5660,     5666,     5209,     5203,     5530,     5529,     5072,     5073
    5048,     5661,     5667,     5210,     5204,     5660,     5666,     5209,     5203
    5049,     5662,     5668,     5211,     5205,     5661,     5667,     5210,     5204
    5050,     5663,     5669,     5212,     5206,     5662,     5668,     5211,     5205
    5051,     5664,     5670,     5213,     5207,     5663,     5669,     5212,     5206
    5052,     5214,     5671,     5670,     5213,     5208,     5665,     5664,     5207
    5053,     5666,     5672,     5215,     5209,     5529,     5528,     5071,     5072
    5054,     5667,     5673,     5216,     5210,     5666,     5672,     5215,     5209
    5055,     5668,     5674,     5217,     5211,     5667,     5673,     5216,     5210
    5056,     5669,     5675,     5218,     5212,     5668,     5674,     5217,     5211
    5057,     5670,     5676,     5219,     5213,     5669,     5675,     5218,     5212
    5058,     5220,     5677,     5676,     5219,     5214,     5671,     5670,     5213
    5059,     5672,     5534,     5077,     5215,     5528,     5527,     5070,     5071
    5060,     5673,     5535,     5078,     5216,     5672,     5534,     5077,     5215
    5061,     5674,     5536,     5079,     5217,     5673,     5535,     5078,     5216
    5062,     5675,     5537,     5080,     5218,     5674,     5536,     5079,     5217
    5063,     5676,     5538,     5081,     5219,     5675,     5537,     5080,     5218
    5064,     5677,     5539,     5082,     5220,     5676,     5538,     5081,     5219
    5065,     5678,     5680,     5223,     5221,     5539,     5545,     5088,     5082
    5066,     5224,     5681,     5680,     5223,     5222,     5679,     5678,     5221
    5067,     5680,     5682,     5225,     5223,     5545,     5551,     5094,     5088
    5068,     5226,     5683,     5682,     5225,     5224,     5681,     5680,     5223
    5069,     5682,     5684,     5227,     5225,     5551,     5557,     5100,     5094
    5070,     5228,     5685,     5684,     5227,     5226,     5683,     5682,     5225
    5071,     5684,     5686,     5229,     5227,     5557,     5563,     5106,     5100
    5072,     5230,     5687,     5686,     5229,     5228,     5685,     5684,     5227
    5073,     5686,     5688,     5231,     5229,     5563,     5569,     5112,     5106
    5074,     5232,     5689,     5688,     5231,     5230,     5687,     5686,     5229
    5075,     5688,     5690,     5233,     5231,     5569,     5575,     5118,     5112
    5076,     5234,     5691,     5690,     5233,     5232,     5689,     5688,     5231
    5077,     5690,     5692,     5235,     5233,     5575,     5581,     5124,     5118
    5078,     5236,     5693,     5692,     5235,     5234,     5691,     5690,     5233
    5079,     5692,     5694,     5237,     5235,     5581,     5587,     5130,     5124
    5080,     5238,     5695,     5694,     5237,     5236,     5693,     5692,     5235
    5081,     5694,     5696,     5239,     5237,     5587,     5593,     5136,     5130
    5082,     5240,     5697,     5696,     5239,     5238,     5695,     5694,     5237
    5083,     5696,     5698,     5241,     5239,     5593,     5599,     5142,     5136
    5084,     5242,     5699,     5698,     5241,     5240,     5697,     5696,     5239
    5085,     5698,     5700,     5243,     5241,     5599,     5605,     5148,     5142
    5086,     5244,     5701,     5700,     5243,     5242,     5699,     5698,     5241
    5087,     5700,     5702,     5245,     5243,     5605,     5611,     5154,     5148
    5088,     5246,     5703,     5702,     5245,     5244,     5701,     5700,     5243
    5089,     5702,     5704,     5247,     5245,     5611,     5617,     5160,     5154
    5090,     5248,     5705,     5704,     5247,     5246,     5703,     5702,     5245
    5091,     5704,     5706,     5249,     5247,     5617,     5623,     5166,     5160
    5092,     5250,     5707,     5706,     5249,     5248,     5705,     5704,     5247
    5093,     5706,     5708,     5251,     5249,     5623,     5629,     5172,     5166
    5094,     5252,     5709,     5708,     5251,     5250,     5707,     5706,     5249
    5095,     5708,     5710,     5253,     5251,     5629,     5635,     5178,     5172
    5096,     5254,     5711,     5710,     5253,     5252,     5709,     5708,     5251
    5097,     5710,     5712,     5255,     5253,     5635,     5641,     5184,     5178
    5098,     5256,     5713,     5712,     5255,     5254,     5711,     5710,     5253
    5099,     5712,     5714,     5257,     5255,     5641,     5647,     5190,     5184
    5100,     5258,     5715,     5714,     5257,     5256,     5713,     5712,     5255
    5101,     5714,     5716,     5259,     5257,     5647,     5653,     5196,     5190
    5102,     5260,     5717,     5716,     5259,     5258,     5715,     5714,     5257
    5103,     5716,     5718,     5261,     5259,     5653,     5659,     5202,     5196
    5104,     5262,     5719,     5718,     5261,     5260,     5717,     5716,     5259
    5105,     5718,     5720,     5263,     5261,     5659,     5665,     5208,     5202
    5106,     5264,     5721,     5720,     5263,     5262,     5719,     5718,     5261
    5107,     5720,     5722,     5265,     5263,     5665,     5671,     5214,     5208
    5108,     5266,     5723,     5722,     5265,     5264,     5721,     5720,     5263
    5109,     5722,     5724,     5267,     5265,     5671,     5677,     5220,     5214
    5110,     5268,     5725,     5724,     5267,     5266,     5723,     5722,     5265
    5111,     5724,     5678,     5221,     5267,     5677,     5539,     5082,     5220
    5112,     5725,     5679,     5222,     5268,     5724,     5678,     5221,     5267
    5113,     5726,     5729,     5272,     5269,     5679,     5681,     5224,     5222
    5114,     5727,     5730,     5273,     5270,     5726,     5729,     5272,     5269
    5115,     5274,     5731,     5730,     5273,     5271,     5728,     5727,     5270
    5116,     5729,     5732,     5275,     5272,     5681,     5683,     5226,     5224
    5117,     5730,     5733,     5276,     5273,     5729,     5732,     5275,     5272
    5118,     5277,     5734,     5733,     5276,     5274,     5731,     5730,     5273
    5119,     5732,     5735,     5278,     5275,     5683,     5685,     5228,     5226
    5120,     5733,     5736,     5279,     5276,     5732,     5735,     5278,     5275
    5121,     5280,     5737,     5736,     5279,     5277,     5734,     5733,     5276
    5122,     5735,     5738,     5281,     5278,     5685,     5687,     5230,     5228
    5123,     5736,     5739,     5282,     5279,     5735,     5738,     5281,     5278
    5124,     5283,     5740,     5739,     5282,     5280,     5737,     5736,     5279
    5125,     5738,     5741,     5284,     5281,     5687,     5689,     5232,     5230
    5126,     5739,     5742,     5285,     5282,     5738,     5741,     5284,     5281
    5127,     5286,     5743,     5742,     5285,     5283,     5740,     5739,     5282
    5128,     5741,     5744,     5287,     5284,     5689,     5691,     5234,     5232
    5129,     5742,     5745,     5288,     5285,     5741,     5744,     5287,     5284
    5130,     5289,     5746,     5745,     5288,     5286,     5743,     5742,     5285
    5131,     5744,     5747,     5290,     5287,     5691,     5693,     5236,     5234
    5132,     5745,     5748,     5291,     5288,     5744,     5747,     5290,     5287
    5133,     5292,     5749,     5748,     5291,     5289,     5746,     5745,     5288
    5134,     5747,     5750,     5293,     5290,     5693,     5695,     5238,     5236
    5135,     5748,     5751,     5294,     5291,     5747,     5750,     5293,     5290
    5136,     5295,     5752,     5751,     5294,     5292,     5749,     5748,     5291
    5137,     5750,     5753,     5296,     5293,     5695,     5697,     5240,     5238
    5138,     5751,     5754,     5297,     5294,     5750,     5753,     5296,     5293
    5139,     5298,     5755,     5754,     5297,     5295,     5752,     5751,     5294
    5140,     5753,     5756,     5299,     5296,     5697,     5699,     5242,     5240
    5141,     5754,     5757,     5300,     5297,     5753,     5756,     5299,     5296
    5142,     5301,     5758,     5757,     5300,     5298,     5755,     5754,     5297
    5143,     5756,     5759,     5302,     5299,     5699,     5701,     5244,     5242
    5144,     5757,     5760,     5303,     5300,     5756,     5759,     5302,     5299
    5145,     5304,     5761,     5760,     5303,     5301,     5758,     5757,     5300
    5146,     5759,     5762,     5305,     5302,     5701,     5703,     5246,     5244
    5147,     5760,     5763,     5306,     5303,     5759,     5762,     5305,     5302
    5148,     5307,     5764,     5763,     5306,     5304,     5761,     5760,     5303
    5149,     5762,     5765,     5308,     5305,     5703,     5705,     5248,     5246
    5150,     5763,     5766,     5309,     5306,     5762,     5765,     5308,     5305
    5151,     5310,     5767,     5766,     5309,     5307,     5764,     5763,     5306
    5152,     5765,     5768,     5311,     5308,     5705,     5707,     5250,     5248
    5153,     5766,     5769,     5312,     5309,     5765,     5768,     5311,     5308
    5154,     5313,     5770,     5769,     5312,     5310,     5767,     5766,     5309
    5155,     5768,     5771,     5314,     5311,     5707,     5709,     5252,     5250
    5156,     5769,     5772,     5315,     5312,     5768,     5771,     5314,     5311
    5157,     5316,     5773,     5772,     5315,     5313,     5770,     5769,     5312
    5158,     5771,     5774,     5317,     5314,     5709,     5711,     5254,     5252
    5159,     5772,     5775,     5318,     5315,     5771,     5774,     5317,     5314
    5160,     5319,     5776,     5775,     5318,     5316,     5773,     5772,     5315
    5161,     5774,     5777,     5320,     5317,     5711,     5713,     5256,     5254
    5162,     5775,     5778,     5321,     5318,     5774,     5777,     5320,     5317
    5163,     5322,     5779,     5778,     5321,     5319,     5776,     5775,     5318
    5164,     5777,     5780,     5323,     5320,     5713,     5715,     5258,     5256
    5165,     5778,     5781,     5324,     5321,     5777,     5780,     5323,     5320
    5166,     5325,     5782,     5781,     5324,     5322,     5779,     5778,     5321
    5167,     5780,     5783,     5326,     5323,     5715,     5717,     5260,     5258
    5168,     5781,     5784,     5327,     5324,     5780,     5783,     5326,     5323
    5169,     5328,     5785,     5784,     5327,     5325,     5782,     5781,     5324
    5170,     5783,     5786,     5329,     5326,     5717,     5719,     5262,     5260
    5171,     5784,     5787,     5330,     5327,     5783,     5786,     5329,     5326
    5172,     5331,     5788,     5787,     5330,     5328,     5785,     5784,     5327
    5173,     5786,     5789,     5332,     5329,     5719,     5721,     5264,     5262
    5174,     5787,     5790,     5333,     5330,     5786,     5789,     5332,     5329
    5175,     5334,     5791,     5790,     5333,     5331,     5788,     5787,     5330
    5176,     5789,     5792,     5335,     5332,     5721,     5723,     5266,     5264
    5177,     5790,     5793,     5336,     5333,     5789,     5792,     5335,     5332
    5178,     5337,     5794,     5793,     5336,     5334,     5791,     5790,     5333
    5179,     5792,     5795,     5338,     5335,     5723,     5725,     5268,     5266
    5180,     5793,     5796,     5339,     5336,     5792,     5795,     5338,     5335
    5181,     5340,     5797,     5796,     5339,     5337,     5794,     5793,     5336
    5182,     5795,     5726,     5269,     5338,     5725,     5679,     5222,     5268
    5183,     5796,     5727,     5270,     5339,     5795,     5726,     5269,     5338
    5184,     5797,     5728,     5271,     5340,     5796,     5727,     5270,     5339
    5185,     5798,     5801,     5344,     5341,     5728,     5731,     5274,     5271
    5186,     5799,     5802,     5345,     5342,     5798,     5801,     5344,     5341
    5187,     5346,     5803,     5802,     5345,     5343,     5800,     5799,     5342
    5188,     5801,     5804,     5347,     5344,     5731,     5734,     5277,     5274
    5189,     5802,     5805,     5348,     5345,     5801,     5804,     5347,     5344
    5190,     5349,     5806,     5805,     5348,     5346,     5803,     5802,     5345
    5191,     5804,     5807,     5350,     5347,     5734,     5737,     5280,     5277
    5192,     5805,     5808,     5351,     5348,     5804,     5807,     5350,     5347
    5193,     5352,     5809,     5808,     5351,     5349,     5806,     5805,     5348
    5194,     5807,     5810,     5353,     5350,     5737,     5740,     5283,     5280
    5195,     5808,     5811,     5354,     5351,     5807,     5810,     5353,     5350
    5196,     5355,     5812,     5811,     5354,     5352,     5809,     5808,     5351
    5197,     5810,     5813,     5356,     5353,     5740,     5743,     5286,     5283
    5198,     5811,     5814,     5357,     5354,     5810,     5813,     5356,     5353
    5199,     5358,     5815,     5814,     5357,     5355,     5812,     5811,     5354
    5200,     5813,     5816,     5359,     5356,     5743,     5746,     5289,     5286
    5201,     5814,     5817,     5360,     5357,     5813,     5816,     5359,     5356
    5202,     5361,     5818,     5817,     5360,     5358,     5815,     5814,     5357
    5203,     5816,     5819,     5362,     5359,     5746,     5749,     5292,     5289
    5204,     5817,     5820,     5363,     5360,     5816,     5819,     5362,     5359
    5205,     5364,     5821,     5820,     5363,     5361,     5818,     5817,     5360
    5206,     5819,     5822,     5365,     5362,     5749,     5752,     5295,     5292
    5207,     5820,     5823,     5366,     5363,     5819,     5822,     5365,     5362
    5208,     5367,     5824,     5823,     5366,     5364,     5821,     5820,     5363
    5209,     5822,     5825,     5368,     5365,     5752,     5755,     5298,     5295
    5210,     5823,     5826,     5369,     5366,     5822,     5825,     5368,     5365
    5211,     5370,     5827,     5826,     5369,     5367,     5824,     5823,     5366
    5212,     5825,     5828,     5371,     5368,     5755,     5758,     5301,     5298
    5213,     5826,     5829,     5372,     5369,     5825,     5828,     5371,     5368
    5214,     5373,     5830,     5829,     5372,     5370,     5827,     5826,     5369
    5215,     5828,     5831,     5374,     5371,     5758,     5761,     5304,     5301
    5216,     5829,     5832,     5375,     5372,     5828,     5831,     5374,     5371
    5217,     5376,     5833,     5832,     5375,     5373,     5830,     5829,     5372
    5218,     5831,     5834,     5377,     5374,     5761,     5764,     5307,     5304
    5219,     5832,     5835,     5378,     5375,     5831,     5834,     5377,     5374
    5220,     5379,     5836,     5835,     5378,     5376,     5833,     5832,     5375
    5221,     5834,     5837,     5380,     5377,     5764,     5767,     5310,     5307
    5222,     5835,     5838,     5381,     5378,     5834,     5837,     5380,     5377
    5223,     5382,     5839,     5838,     5381,     5379,     5836,     5835,     5378
    5224,     5837,     5840,     5383,     5380,     5767,     5770,     5313,     5310
    5225,     5838,     5841,     5384,     5381,     5837,     5840,     5383,     5380
    5226,     5385,     5842,     5841,     5384,     5382,     5839,     5838,     5381
    5227,     5840,     5843,     5386,     5383,     5770,     5773,     5316,     5313
    5228,     5841,     5844,     5387,     5384,     5840,     5843,     5386,     5383
    5229,     5388,     5845,     5844,     5387,     5385,     5842,     5841,     5384
    5230,     5843,     5846,     5389,     5386,     5773,     5776,     5319,     5316
    5231,     5844,     5847,     5390,     5387,     5843,     5846,     5389,     5386
    5232,     5391,     5848,     5847,     5390,     5388,     5845,     5844,     5387
    5233,     5846,     5849,     5392,     5389,     5776,     5779,     5322,     5319
    5234,     5847,     5850,     5393,     5390,     5846,     5849,     5392,     5389
    5235,     5394,     5851,     5850,     5393,     5391,     5848,     5847,     5390
    5236,     5849,     5852,     5395,     5392,     5779,     5782,     5325,     5322
    5237,     5850,     5853,     5396,     5393,     5849,     5852,     5395,     5392
    5238,     5397,     5854,     5853,     5396,     5394,     5851,     5850,     5393
    5239,     5852,     5855,     5398,     5395,     5782,     5785,     5328,     5325
    5240,     5853,     5856,     5399,     5396,     5852,     5855,     5398,     5395
    5241,     5400,     5857,     5856,     5399,     5397,     5854,     5853,     5396
    5242,     5855,     5858,     5401,     5398,     5785,     5788,     5331,     5328
    5243,     5856,     5859,     5402,     5399,     5855,     5858,     5401,     5398
    5244,     5403,     5860,     5859,     5402,     5400,     5857,     5856,     5399
    5245,     5858,     5861,     5404,     5401,     5788,     5791,     5334,     5331
    5246,     5859,     5862,     5405,     5402,     5858,     5861,     5404,     5401
    5247,     5406,     5863,     5862,     5405,     5403,     5860,     5859,     5402
    5248,     5861,     5864,     5407,     5404,     5791,     5794,     5337,     5334
    5249,     5862,     5865,     5408,     5405,     5861,     5864,     5407,     5404
    5250,     5409,     5866,     5865,     5408,     5406,     5863,     5862,     5405
    5251,     5864,     5867,     5410,     5407,     5794,     5797,     5340,     5337
    5252,     5865,     5868,     5411,     5408,     5864,     5867,     5410,     5407
    5253,     5412,     5869,     5868,     5411,     5409,     5866,     5865,     5408
    5254,     5867,     5798,     5341,     5410,     5797,     5728,     5271,     5340
    5255,     5868,     5799,     5342,     5411,     5867,     5798,     5341,     5410
    5256,     5869,     5800,     5343,     5412,     5868,     5799,     5342,     5411
    5257,     5870,     5873,     5416,     5413,     5800,     5803,     5346,     5343
    5258,     5871,     5874,     5417,     5414,     5870,     5873,     5416,     5413
    5259,     5418,     5875,     5874,     5417,     5415,     5872,     5871,     5414
    5260,     5873,     5876,     5419,     5416,     5803,     5806,     5349,     5346
    5261,     5874,     5877,     5420,     5417,     5873,     5876,     5419,     5416
    5262,     5421,     5878,     5877,     5420,     5418,     5875,     5874,     5417
    5263,     5876,     5879,     5422,     5419,     5806,     5809,     5352,     5349
    5264,     5877,     5880,     5423,     5420,     5876,     5879,     5422,     5419
    5265,     5424,     5881,     5880,     5423,     5421,     5878,     5877,     5420
    5266,     5879,     5882,     5425,     5422,     5809,     5812,     5355,     5352
    5267,     5880,     5883,     5426,     5423,     5879,     5882,     5425,     5422
    5268,     5427,     5884,     5883,     5426,     5424,     5881,     5880,     5423
    5269,     5882,     5885,     5428,     5425,     5812,     5815,     5358,     5355
    5270,     5883,     5886,     5429,     5426,     5882,     5885,     5428,     5425
    5271,     5430,     5887,     5886,     5429,     5427,     5884,     5883,     5426
    5272,     5885,     5888,     5431,     5428,     5815,     5818,     5361,     5358
    5273,     5886,     5889,     5432,     5429,     5885,     5888,     5431,     5428
    5274,     5433,     5890,     5889,     5432,     5430,     5887,     5886,     5429
    5275,     5888,     5891,     5434,     5431,     5818,     5821,     5364,     5361
    5276,     5889,     5892,     5435,     5432,     5888,     5891,     5434,     5431
    5277,     5436,     5893,     5892,     5435,     5433,     5890,     5889,     5432
    5278,     5891,     5894,     5437,     5434,     5821,     5824,     5367,     5364
    5279,     5892,     5895,     5438,     5435,     5891,     5894,     5437,     5434
    5280,     5439,     5896,     5895,     5438,     5436,     5893,     5892,     5435
    5281,     5894,     5897,     5440,     5437,     5824,     5827,     5370,     5367
    5282,     5895,     5898,     5441,     5438,     5894,     5897,     5440,     5437
    5283,     5442,     5899,     5898,     5441,     5439,     5896,     5895,     5438
    5284,     5897,     5900,     5443,     5440,     5827,     5830,     5373,     5370
    5285,     5898,     5901,     5444,     5441,     5897,     5900,     5443,     5440
    5286,     5445,     5902,     5901,     5444,     5442,     5899,     5898,     5441
    5287,     5900,     5903,     5446,     5443,     5830,     5833,     5376,     5373
    5288,     5901,     5904,     5447,     5444,     5900,     5903,     5446,     5443
    5289,     5448,     5905,     5904,     5447,     5445,     5902,     5901,     5444
    5290,     5903,     5906,     5449,     5446,     5833,     5836,     5379,     5376
    5291,     5904,     5907,     5450,     5447,     5903,     5906,     5449,     5446
    5292,     5451,     5908,     5907,     5450,     5448,     5905,     5904,     5447
    5293,     5906,     5909,     5452,     5449,     5836,     5839,     5382,     5379
    5294,     5907,     5910,     5453,     5450,     5906,     5909,     5452,     5449
    5295,     5454,     5911,     5910,     5453,     5451,     5908,     5907,     5450
    5296,     5909,     5912,     5455,     5452,     5839,     5842,     5385,     5382
    5297,     5910,     5913,     5456,     5453,     5909,     5912,     5455,     5452
    5298,     5457,     5914,     5913,     5456,     5454,     5911,     5910,     5453
    5299,     5912,     5915,     5458,     5455,     5842,     5845,     5388,     5385
    5300,     5913,     5916,     5459,     5456,     5912,     5915,     5458,     5455
    5301,     5460,     5917,     5916,     5459,     5457,     5914,     5913,     5456
    5302,     5915,     5918,     5461,     5458,     5845,     5848,     5391,     5388
    5303,     5916,     5919,     5462,     5459,     5915,     5918,     5461,     5458
    5304,     5463,     5920,     5919,     5462,     5460,     5917,     5916,     5459
    5305,     5918,     5921,     5464,     5461,     5848,     5851,     5394,     5391
    5306,     5919,     5922,     5465,     5462,     5918,     5921,     5464,     5461
    5307,     5466,     5923,     5922,     5465,     5463,     5920,     5919,     5462
    5308,     5921,     5924,     5467,     5464,     5851,     5854,     5397,     5394
    5309,     5922,     5925,     5468,     5465,     5921,     5924,     5467,     5464
    5310,     5469,     5926,     5925,     5468,     5466,     5923,     5922,     5465
    5311,     5924,     5927,     5470,     5467,     5854,     5857,     5400,     5397
    5312,     5925,     5928,     5471,     5468,     5924,     5927,     5470,     5467
    5313,     5472,     5929,     5928,     5471,     5469,     5926,     5925,     5468
    5314,     5927,     5930,     5473,     5470,     5857,     5860,     5403,     5400
    5315,     5928,     5931,     5474,     5471,     5927,     5930,     5473,     5470
    5316,     5475,     5932,     5931,     5474,     5472,     5929,     5928,     5471
    5317,     5930,     5933,     5476,     5473,     5860,     5863,     5406,     5403
    5318,     5931,     5934,     5477,     5474,     5930,     5933,     5476,     5473
    5319,     5478,     5935,     5934,     5477,     5475,     5932,     5931,     5474
    5320,     5933,     5936,     5479,     5476,     5863,     5866,     5409,     5406
    5321,     5934,     5937,     5480,     5477,     5933,     5936,     5479,     5476
    5322,     5481,     5938,     5937,     5480,     5478,     5935,     5934,     5477
    5323,     5936,     5939,     5482,     5479,     5866,     5869,     5412,     5409
    5324,     5937,     5940,     5483,     5480,     5936,     5939,     5482,     5479
    5325,     5484,     5941,     5940,     5483,     5481,     5938,     5937,     5480
    5326,     5939,     5870,     5413,     5482,     5869,     5800,     5343,     5412
    5327,     5940,     5871,     5414,     5483,     5939,     5870,     5413,     5482
    5328,     5941,     5872,     5415,     5484,     5940,     5871,     5414,     5483
*NSET, NSET=POSTERIOR_ON
      1,       2,       3,       4,       5,       6,       7,       8
      9,      10,      11,      12,      13,      14,      15,      16
     17,      18,      19,      20,      21,      22,      23,      24
     25,      26,      27,      28,      29,      30,      31,      32
     33,      34,      35,      36,      37,      38,      39,      40
     41,      42,      43,      44,      45,      46,      47,      48
     49,     540,     541,     542,     543,     544,     545,     546
    547,     548,     549,     550,     551,     552,     553,     554
    555,     556,     557,     558,     559,     560,     561,     562
    563,     564,     565,     566,     567,     568,     569,     570
    571,     572,     573,     574,     575,     576,     577,     578
    579,     580,     581,    1002,    1003,    1004,    1005,    1006
   1007,    1008,    1009,    1010,    1011,    1012,    1013,    1014
   1015,    1016,    1017,    1018,    1019,    1020,    1021,    1022
   1023,    1024,    1025,    1026,    1027,    1028,    1029,    1030
   1031,    1032,    1033,    1034,    1035,    1036,    1037,    1398
   1399,    1400,    1401,    1402,    1403,    1404,    1405,    1406
   1407,    1408,    1409,    1410,    1411,    1412,    1413,    1414
   1415,    1416,    1417,    1418,    1419,    1420,    1421,    1422
   1423,    1424,    1425,    1426,    1427,    1428,    1429,    1430
   1431,    1432,    1433,    1794,    1795,    1796,    1797,    1798
   1799,    1800,    1801,    1802,    1803,    1804,    1805,    1806
   1807,    1808,    1809,    1810,    1811,    1812,    1813,    1814
   1815,    1816,    1817,    1818,    1819,    1820,    1821,    1822
   1823
*NSET, NSET=POSTERIOR_PIA
    545,     551,     557,     563,     569,     575,     581,    1007
   1013,    1019,    1025,    1031,    1037,    1403,    1409,    1415
   1421,    1427,    1433,    1799,    1805,    1811,    1817,    1823
   2124,    2125,    2126,    2127,    2128,    2129,    2130,    2131
   2132,    2133,    2134,    2135,    2136,    2137,    2278,    2279
   2280,    2281,    2282,    2283,    2284,    2285,    2286,    2287
   2288,    2289,    2410,    2411,    2412,    2413,    2414,    2415
   2416,    2417,    2418,    2419,    2420,    2421,    2542,    2543
   2544,    2545,    2546,    2547,    2548,    2549,    2550,    2551
*NSET, NSET=POSTERIOR_SAS
   2125,    2127,    2129,    2131,    2133,    2135,    2137,    2279
   2281,    2283,    2285,    2287,    2289,    2411,    2413,    2415
   2417,    2419,    2421,    2543,    2545,    2547,    2549,    2551
   2652,    2653,    2654,    2655,    2656,    2657,    2658,    2659
   2660,    2661,    2662,    2663,    2664,    2665,    2666,    2667
   2668,    2669,    2670,    2671,    2672,    2883,    2884,    2885
   2886,    2887,    2888,    2889,    2890,    2891,    2892,    2893
   2894,    2895,    2896,    2897,    2898,    2899,    2900,    3081
   3082,    3083,    3084,    3085,    3086,    3087,    3088,    3089
   3090,    3091,    3092,    3093,    3094,    3095,    3096,    3097
   3098,    3279,    3280,    3281,    3282,    3283,    3284,    3285
   3286,    3287,    3288,    3289,    3290,    3291,    3292,    3293
   3444,    3445,    3446,    3447,    3448,    3449,    3450,    3451
   3452,    3453,    3454,    3455,    3456,    3457,    3458,    3459
   3460,    3461,    3462,    3463,    3464,    3675,    3676,    3677
   3678,    3679,    3680,    3681,    3682,    3683,    3684,    3685
   3686,    3687,    3688,    3689,    3690,    3691,    3692,    3873
   3874,    3875,    3876,    3877,    3878,    3879,    3880,    3881
   3882,    3883,    3884,    3885,    3886,    3887,    3888,    3889
   3890,    4071,    4072,    4073,    4074,    4075,    4076,    4077
   4078,    4079,    4080,    4081,    4082,    4083,    4084,    4085
*NSET, NSET=POSTERIOR_DURA
   3446,    3449,    3452,    3455,    3458,    3461,    3464,    3677
   3680,    3683,    3686,    3689,    3692,    3875,    3878,    3881
   3884,    3887,    3890,    4073,    4076,    4079,    4082,    4085
   4236,    4237,    4238,    4239,    4240,    4241,    4242,    4243
   4244,    4245,    4246,    4247,    4248,    4249,    4250,    4251
   4252,    4253,    4254,    4255,    4256,    4467,    4468,    4469
   4470,    4471,    4472,    4473,    4474,    4475,    4476,    4477
   4478,    4479,    4480,    4481,    4482,    4483,    4484,    4665
   4666,    4667,    4668,    4669,    4670,    4671,    4672,    4673
   4674,    4675,    4676,    4677,    4678,    4679,    4680,    4681
   4682,    4863,    4864,    4865,    4866,    4867,    4868,    4869
   4870,    4871,    4872,    4873,    4874,    4875,    4876,    4877
*NSET, NSET=DURA_OUTER
   4238,    4241,    4244,    4247,    4250,    4253,    4256,    4259
   4262,    4265,    4268,    4271,    4274,    4277,    4280,    4283
   4286,    4289,    4292,    4295,    4298,    4301,    4304,    4307
   4310,    4313,    4316,    4319,    4322,    4325,    4328,    4334
   4337,    4340,    4343,    4346,    4349,    4355,    4358,    4361
   4364,    4367,    4370,    4376,    4379,    4382,    4385,    4388
   4391,    4394,    4397,    4400,    4403,    4406,    4409,    4412
   4415,    4418,    4421,    4424,    4427,    4430,    4433,    4436
   4439,    4442,    4445,    4448,    4451,    4454,    4457,    4460
   4463,    4466,    4469,    4472,    4475,    4478,    4481,    4484
   4487,    4490,    4493,    4496,    4499,    4502,    4505,    4508
   4511,    4514,    4517,    4520,    4523,    4526,    4529,    4532
   4535,    4538,    4541,    4544,    4547,    4550,    4553,    4556
   4559,    4562,    4565,    4568,    4571,    4574,    4577,    4580
   4583,    4586,    4589,    4592,    4595,    4598,    4601,    4604
   4607,    4610,    4613,    4616,    4619,    4622,    4625,    4628
   4631,    4634,    4637,    4640,    4643,    4646,    4649,    4652
   4655,    4658,    4661,    4664,    4667,    4670,    4673,    4676
   4679,    4682,    4685,    4688,    4691,    4694,    4697,    4700
   4703,    4706,    4709,    4712,    4715,    4718,    4721,    4724
   4727,    4730,    4733,    4736,    4739,    4742,    4745,    4748
   4751,    4754,    4757,    4760,    4763,    4766,    4769,    4772
   4775,    4778,    4781,    4784,    4787,    4790,    4793,    4796
   4799,    4802,    4805,    4808,    4811,    4814,    4817,    4820
   4823,    4826,    4829,    4832,    4835,    4838,    4841,    4844
   4847,    4850,    4853,    4856,    4859,    4862,    4865,    4868
   4871,    4874,    4877,    4880,    4883,    4886,    4889,    4892
   4895,    4898,    4901,    4904,    4907,    4910,    4913,    4916
   4919,    4922,    4925,    4928,    4931,    4934,    4937,    4940
   4943,    4946,    4949,    4952,    4955,    4958,    4961,    4964
   4967,    4970,    4973,    4976,    4979,    4982,    4985,    4988
   4991,    4994,    4997,    5000,    5003,    5006,    5009,    5012
   5015,    5018,    5021,    5024,    5027
*NSET, NSET=SCLERA_RING_OUTER
   4448,    4451,    4454,    4457,    4460,    4463,    4466,    4649
   4652,    4655,    4658,    4661,    4664,    4847,    4850,    4853
   4856,    4859,    4862,    5015,    5018,    5021,    5024,    5027
   5415,    5418,    5421,    5424,    5427,    5430,    5433,    5436
   5439,    5442,    5445,    5448,    5451,    5454,    5457,    5460
   5463,    5466,    5469,    5472,    5475,    5478,    5481,    5484
*NSET, NSET=GLOBO_OUTER
   5415,    5418,    5421,    5424,    5427,    5430,    5433,    5436
   5439,    5442,    5445,    5448,    5451,    5454,    5457,    5460
   5463,    5466,    5469,    5472,    5475,    5478,    5481,    5484
   5872,    5875,    5878,    5881,    5884,    5887,    5890,    5893
   5896,    5899,    5902,    5905,    5908,    5911,    5914,    5917
   5920,    5923,    5926,    5929,    5932,    5935,    5938,    5941
*NSET, NSET=ANTERIOR_GLOBO
   5485,    5486,    5487,    5488,    5489,    5490,    5491,    5492
   5493,    5494,    5495,    5496,    5497,    5498,    5499,    5500
   5501,    5502,    5503,    5504,    5505,    5506,    5507,    5508
   5509,    5510,    5511,    5512,    5513,    5514,    5515,    5516
   5517,    5518,    5519,    5520,    5521,    5522,    5523,    5524
   5525,    5526,    5527,    5528,    5529,    5530,    5531,    5532
   5533,    5534,    5535,    5536,    5537,    5538,    5539,    5540
   5541,    5542,    5543,    5544,    5545,    5546,    5547,    5548
   5549,    5550,    5551,    5552,    5553,    5554,    5555,    5556
   5557,    5558,    5559,    5560,    5561,    5562,    5563,    5564
   5565,    5566,    5567,    5568,    5569,    5570,    5571,    5572
   5573,    5574,    5575,    5576,    5577,    5578,    5579,    5580
   5581,    5582,    5583,    5584,    5585,    5586,    5587,    5588
   5589,    5590,    5591,    5592,    5593,    5594,    5595,    5596
   5597,    5598,    5599,    5600,    5601,    5602,    5603,    5604
   5605,    5606,    5607,    5608,    5609,    5610,    5611,    5612
   5613,    5614,    5615,    5616,    5617,    5618,    5619,    5620
   5621,    5622,    5623,    5624,    5625,    5626,    5627,    5628
   5629,    5630,    5631,    5632,    5633,    5634,    5635,    5636
   5637,    5638,    5639,    5640,    5641,    5642,    5643,    5644
   5645,    5646,    5647,    5648,    5649,    5650,    5651,    5652
   5653,    5654,    5655,    5656,    5657,    5658,    5659,    5660
   5661,    5662,    5663,    5664,    5665,    5666,    5667,    5668
   5669,    5670,    5671,    5672,    5673,    5674,    5675,    5676
   5677,    5678,    5679,    5680,    5681,    5682,    5683,    5684
   5685,    5686,    5687,    5688,    5689,    5690,    5691,    5692
   5693,    5694,    5695,    5696,    5697,    5698,    5699,    5700
   5701,    5702,    5703,    5704,    5705,    5706,    5707,    5708
   5709,    5710,    5711,    5712,    5713,    5714,    5715,    5716
   5717,    5718,    5719,    5720,    5721,    5722,    5723,    5724
   5725,    5726,    5727,    5728,    5729,    5730,    5731,    5732
   5733,    5734,    5735,    5736,    5737,    5738,    5739,    5740
   5741,    5742,    5743,    5744,    5745,    5746,    5747,    5748
   5749,    5750,    5751,    5752,    5753,    5754,    5755,    5756
   5757,    5758,    5759,    5760,    5761,    5762,    5763,    5764
   5765,    5766,    5767,    5768,    5769,    5770,    5771,    5772
   5773,    5774,    5775,    5776,    5777,    5778,    5779,    5780
   5781,    5782,    5783,    5784,    5785,    5786,    5787,    5788
   5789,    5790,    5791,    5792,    5793,    5794,    5795,    5796
   5797,    5798,    5799,    5800,    5801,    5802,    5803,    5804
   5805,    5806,    5807,    5808,    5809,    5810,    5811,    5812
   5813,    5814,    5815,    5816,    5817,    5818,    5819,    5820
   5821,    5822,    5823,    5824,    5825,    5826,    5827,    5828
   5829,    5830,    5831,    5832,    5833,    5834,    5835,    5836
   5837,    5838,    5839,    5840,    5841,    5842,    5843,    5844
   5845,    5846,    5847,    5848,    5849,    5850,    5851,    5852
   5853,    5854,    5855,    5856,    5857,    5858,    5859,    5860
   5861,    5862,    5863,    5864,    5865,    5866,    5867,    5868
   5869,    5870,    5871,    5872,    5873,    5874,    5875,    5876
   5877,    5878,    5879,    5880,    5881,    5882,    5883,    5884
   5885,    5886,    5887,    5888,    5889,    5890,    5891,    5892
   5893,    5894,    5895,    5896,    5897,    5898,    5899,    5900
   5901,    5902,    5903,    5904,    5905,    5906,    5907,    5908
   5909,    5910,    5911,    5912,    5913,    5914,    5915,    5916
   5917,    5918,    5919,    5920,    5921,    5922,    5923,    5924
   5925,    5926,    5927,    5928,    5929,    5930,    5931,    5932
   5933,    5934,    5935,    5936,    5937,    5938,    5939,    5940
   5941
*NSET, NSET=PERTURBATION_STRIP
   4307,    4310,    4313,    4328,    4331,    4334,    4349,    4352
   4355,    4370,    4373,    4376,    4391,    4394,    4397
*SURFACE, NAME=POSTERIOR_ON_SURF, TYPE=ELEMENT
       1, S5
       7, S5
      13, S5
      19, S5
      25, S5
      31, S5
       2, S5
       8, S5
      14, S5
      20, S5
      26, S5
      32, S5
       3, S5
       9, S5
      15, S5
      21, S5
      27, S5
      33, S5
       4, S5
      10, S5
      16, S5
      22, S5
      28, S5
      34, S5
       5, S5
      11, S5
      17, S5
      23, S5
      29, S5
      35, S5
       6, S6
      12, S6
      18, S6
      24, S6
      30, S6
      36, S2
     361, S5
     367, S5
     373, S5
     379, S5
     385, S5
     391, S5
     362, S5
     368, S5
     374, S5
     380, S5
     386, S5
     392, S5
     363, S5
     369, S5
     375, S5
     381, S5
     387, S5
     393, S5
     364, S5
     370, S5
     376, S5
     382, S5
     388, S5
     394, S5
     365, S5
     371, S5
     377, S5
     383, S5
     389, S5
     395, S5
     366, S6
     372, S6
     378, S6
     384, S6
     390, S6
     396, S2
     721, S5
     727, S5
     733, S5
     739, S5
     745, S5
     751, S5
     722, S5
     728, S5
     734, S5
     740, S5
     746, S5
     752, S5
     723, S5
     729, S5
     735, S5
     741, S5
     747, S5
     753, S5
     724, S5
     730, S5
     736, S5
     742, S5
     748, S5
     754, S5
     725, S5
     731, S5
     737, S5
     743, S5
     749, S5
     755, S5
     726, S6
     732, S6
     738, S6
     744, S6
     750, S6
     756, S2
    1081, S5
    1087, S5
    1093, S5
    1099, S5
    1105, S5
    1111, S5
    1082, S5
    1088, S5
    1094, S5
    1100, S5
    1106, S5
    1112, S5
    1083, S5
    1089, S5
    1095, S5
    1101, S5
    1107, S5
    1113, S5
    1084, S5
    1090, S5
    1096, S5
    1102, S5
    1108, S5
    1114, S5
    1085, S5
    1091, S5
    1097, S5
    1103, S5
    1109, S5
    1115, S5
    1086, S6
    1092, S6
    1098, S6
    1104, S6
    1110, S6
    1116, S2
    1441, S5
    1447, S5
    1453, S5
    1459, S5
    1465, S5
    1471, S5
    1442, S5
    1448, S5
    1454, S5
    1460, S5
    1466, S5
    1472, S5
    1443, S5
    1449, S5
    1455, S5
    1461, S5
    1467, S5
    1473, S5
    1444, S5
    1450, S5
    1456, S5
    1462, S5
    1468, S5
    1474, S5
    1445, S5
    1451, S5
    1457, S5
    1463, S5
    1469, S5
    1475, S5
    1446, S6
    1452, S6
    1458, S6
    1464, S6
    1470, S6
    1476, S2
*SURFACE, NAME=POSTERIOR_PIA_SURF, TYPE=ELEMENT
    1801, S5
    1803, S5
    1805, S5
    1807, S5
    1809, S5
    1811, S5
    1802, S6
    1804, S6
    1806, S6
    1808, S6
    1810, S6
    1812, S2
    1921, S5
    1923, S5
    1925, S5
    1927, S5
    1929, S5
    1931, S5
    1922, S6
    1924, S6
    1926, S6
    1928, S6
    1930, S6
    1932, S2
    2041, S5
    2043, S5
    2045, S5
    2047, S5
    2049, S5
    2051, S5
    2042, S6
    2044, S6
    2046, S6
    2048, S6
    2050, S6
    2052, S2
    2161, S5
    2163, S5
    2165, S5
    2167, S5
    2169, S5
    2171, S5
    2162, S6
    2164, S6
    2166, S6
    2168, S6
    2170, S6
    2172, S2
*SURFACE, NAME=POSTERIOR_SAS_SURF, TYPE=ELEMENT
    2281, S5
    2284, S5
    2287, S5
    2290, S5
    2293, S5
    2296, S5
    2282, S5
    2285, S5
    2288, S5
    2291, S5
    2294, S5
    2297, S5
    2283, S6
    2286, S6
    2289, S6
    2292, S6
    2295, S6
    2298, S2
    2461, S5
    2464, S5
    2467, S5
    2470, S5
    2473, S5
    2476, S5
    2462, S5
    2465, S5
    2468, S5
    2471, S5
    2474, S5
    2477, S5
    2463, S6
    2466, S6
    2469, S6
    2472, S6
    2475, S6
    2478, S2
    2641, S5
    2644, S5
    2647, S5
    2650, S5
    2653, S5
    2656, S5
    2642, S5
    2645, S5
    2648, S5
    2651, S5
    2654, S5
    2657, S5
    2643, S6
    2646, S6
    2649, S6
    2652, S6
    2655, S6
    2658, S2
    2821, S5
    2824, S5
    2827, S5
    2830, S5
    2833, S5
    2836, S5
    2822, S5
    2825, S5
    2828, S5
    2831, S5
    2834, S5
    2837, S5
    2823, S6
    2826, S6
    2829, S6
    2832, S6
    2835, S6
    2838, S2
    3001, S5
    3004, S5
    3007, S5
    3010, S5
    3013, S5
    3016, S5
    3002, S5
    3005, S5
    3008, S5
    3011, S5
    3014, S5
    3017, S5
    3003, S6
    3006, S6
    3009, S6
    3012, S6
    3015, S6
    3018, S2
    3181, S5
    3184, S5
    3187, S5
    3190, S5
    3193, S5
    3196, S5
    3182, S5
    3185, S5
    3188, S5
    3191, S5
    3194, S5
    3197, S5
    3183, S6
    3186, S6
    3189, S6
    3192, S6
    3195, S6
    3198, S2
    3361, S5
    3364, S5
    3367, S5
    3370, S5
    3373, S5
    3376, S5
    3362, S5
    3365, S5
    3368, S5
    3371, S5
    3374, S5
    3377, S5
    3363, S6
    3366, S6
    3369, S6
    3372, S6
    3375, S6
    3378, S2
    3541, S5
    3544, S5
    3547, S5
    3550, S5
    3553, S5
    3556, S5
    3542, S5
    3545, S5
    3548, S5
    3551, S5
    3554, S5
    3557, S5
    3543, S6
    3546, S6
    3549, S6
    3552, S6
    3555, S6
    3558, S2
*SURFACE, NAME=POSTERIOR_DURA_SURF, TYPE=ELEMENT
    3721, S5
    3724, S5
    3727, S5
    3730, S5
    3733, S5
    3736, S5
    3722, S5
    3725, S5
    3728, S5
    3731, S5
    3734, S5
    3737, S5
    3723, S6
    3726, S6
    3729, S6
    3732, S6
    3735, S6
    3738, S2
    3901, S5
    3904, S5
    3907, S5
    3910, S5
    3913, S5
    3916, S5
    3902, S5
    3905, S5
    3908, S5
    3911, S5
    3914, S5
    3917, S5
    3903, S6
    3906, S6
    3909, S6
    3912, S6
    3915, S6
    3918, S2
    4081, S5
    4084, S5
    4087, S5
    4090, S5
    4093, S5
    4096, S5
    4082, S5
    4085, S5
    4088, S5
    4091, S5
    4094, S5
    4097, S5
    4083, S6
    4086, S6
    4089, S6
    4092, S6
    4095, S6
    4098, S2
    4261, S5
    4264, S5
    4267, S5
    4270, S5
    4273, S5
    4276, S5
    4262, S5
    4265, S5
    4268, S5
    4271, S5
    4274, S5
    4277, S5
    4263, S6
    4266, S6
    4269, S6
    4272, S6
    4275, S6
    4278, S2
*SURFACE, NAME=DURA_OUTER_SURF, TYPE=ELEMENT
    3723, S3
    3726, S3
    3729, S3
    3732, S3
    3735, S3
    3738, S4
    3741, S3
    3744, S3
    3747, S3
    3750, S3
    3753, S3
    3756, S4
    3759, S3
    3762, S3
    3765, S3
    3768, S3
    3771, S3
    3774, S4
    3777, S3
    3780, S3
    3789, S3
    3792, S4
    3795, S3
    3798, S3
    3807, S3
    3810, S4
    3813, S3
    3816, S3
    3825, S3
    3828, S4
    3831, S3
    3834, S3
    3843, S3
    3846, S4
    3849, S3
    3852, S3
    3855, S3
    3858, S3
    3861, S3
    3864, S4
    3867, S3
    3870, S3
    3873, S3
    3876, S3
    3879, S3
    3882, S4
    3885, S3
    3888, S3
    3891, S3
    3894, S3
    3897, S3
    3900, S3
    3903, S3
    3906, S3
    3909, S3
    3912, S3
    3915, S3
    3918, S4
    3921, S3
    3924, S3
    3927, S3
    3930, S3
    3933, S3
    3936, S4
    3939, S3
    3942, S3
    3945, S3
    3948, S3
    3951, S3
    3954, S4
    3957, S3
    3960, S3
    3963, S3
    3966, S3
    3969, S3
    3972, S4
    3975, S3
    3978, S3
    3981, S3
    3984, S3
    3987, S3
    3990, S4
    3993, S3
    3996, S3
    3999, S3
    4002, S3
    4005, S3
    4008, S4
    4011, S3
    4014, S3
    4017, S3
    4020, S3
    4023, S3
    4026, S4
    4029, S3
    4032, S3
    4035, S3
    4038, S3
    4041, S3
    4044, S4
    4047, S3
    4050, S3
    4053, S3
    4056, S3
    4059, S3
    4062, S4
    4065, S3
    4068, S3
    4071, S3
    4074, S3
    4077, S3
    4080, S3
    4083, S3
    4086, S3
    4089, S3
    4092, S3
    4095, S3
    4098, S4
    4101, S3
    4104, S3
    4107, S3
    4110, S3
    4113, S3
    4116, S4
    4119, S3
    4122, S3
    4125, S3
    4128, S3
    4131, S3
    4134, S4
    4137, S3
    4140, S3
    4143, S3
    4146, S3
    4149, S3
    4152, S4
    4155, S3
    4158, S3
    4161, S3
    4164, S3
    4167, S3
    4170, S4
    4173, S3
    4176, S3
    4179, S3
    4182, S3
    4185, S3
    4188, S4
    4191, S3
    4194, S3
    4197, S3
    4200, S3
    4203, S3
    4206, S4
    4209, S3
    4212, S3
    4215, S3
    4218, S3
    4221, S3
    4224, S4
    4227, S3
    4230, S3
    4233, S3
    4236, S3
    4239, S3
    4242, S4
    4245, S3
    4248, S3
    4251, S3
    4254, S3
    4257, S3
    4260, S3
    4263, S3
    4266, S3
    4269, S3
    4272, S3
    4275, S3
    4278, S4
    4281, S3
    4284, S3
    4287, S3
    4290, S3
    4293, S3
    4296, S4
    4299, S3
    4302, S3
    4305, S3
    4308, S3
    4311, S3
    4314, S4
    4317, S3
    4320, S3
    4323, S3
    4326, S3
    4329, S3
    4332, S4
    4335, S3
    4338, S3
    4341, S3
    4344, S3
    4347, S3
    4350, S4
    4353, S3
    4356, S3
    4359, S3
    4362, S3
    4365, S3
    4368, S4
    4371, S3
    4374, S3
    4377, S3
    4380, S3
    4383, S3
    4386, S4
    4389, S3
    4392, S3
    4395, S3
    4398, S3
    4401, S3
    4404, S4
    4407, S3
    4410, S3
    4413, S3
    4416, S3
    4419, S3
    4422, S4
    4425, S3
    4428, S3
    4431, S3
    4434, S3
    4437, S3
    4440, S4
*SURFACE, NAME=SCLERA_RING_OUTER_SURF, TYPE=ELEMENT
    4815, S3
    4818, S3
    4821, S3
    4824, S3
    4827, S3
    4830, S3
    4833, S3
    4836, S3
    4839, S3
    4842, S3
    4845, S3
    4848, S3
    4851, S3
    4854, S3
    4857, S3
    4860, S3
    4863, S3
    4866, S3
    4869, S3
    4872, S3
    4875, S3
    4878, S3
    4881, S3
    4884, S4
*SURFACE, NAME=GLOBO_OUTER_SURF, TYPE=ELEMENT
    5259, S3
    5262, S3
    5265, S3
    5268, S3
    5271, S3
    5274, S3
    5277, S3
    5280, S3
    5283, S3
    5286, S3
    5289, S3
    5292, S3
    5295, S3
    5298, S3
    5301, S3
    5304, S3
    5307, S3
    5310, S3
    5313, S3
    5316, S3
    5319, S3
    5322, S3
    5325, S3
    5328, S1
*SURFACE, NAME=ANTERIOR_GLOBO_SURF, TYPE=ELEMENT
    4885, S3
    4891, S3
    4897, S3
    4903, S3
    4909, S3
    4915, S3
    4886, S3
    4892, S3
    4898, S3
    4904, S3
    4910, S3
    4916, S3
    4887, S3
    4893, S3
    4899, S3
    4905, S3
    4911, S3
    4917, S3
    4888, S3
    4894, S3
    4900, S3
    4906, S3
    4912, S3
    4918, S3
    4889, S3
    4895, S3
    4901, S3
    4907, S3
    4913, S3
    4919, S3
    4890, S4
    4896, S4
    4902, S4
    4908, S4
    4914, S4
    4920, S3
    4921, S3
    4927, S3
    4933, S3
    4939, S3
    4945, S3
    4951, S3
    4922, S3
    4928, S3
    4934, S3
    4940, S3
    4946, S3
    4952, S3
    4923, S3
    4929, S3
    4935, S3
    4941, S3
    4947, S3
    4953, S3
    4924, S3
    4930, S3
    4936, S3
    4942, S3
    4948, S3
    4954, S3
    4925, S3
    4931, S3
    4937, S3
    4943, S3
    4949, S3
    4955, S3
    4926, S4
    4932, S4
    4938, S4
    4944, S4
    4950, S4
    4956, S4
    4957, S3
    4963, S3
    4969, S3
    4975, S3
    4981, S3
    4987, S3
    4958, S3
    4964, S3
    4970, S3
    4976, S3
    4982, S3
    4988, S3
    4959, S3
    4965, S3
    4971, S3
    4977, S3
    4983, S3
    4989, S3
    4960, S3
    4966, S3
    4972, S3
    4978, S3
    4984, S3
    4990, S3
    4961, S3
    4967, S3
    4973, S3
    4979, S3
    4985, S3
    4991, S3
    4962, S4
    4968, S4
    4974, S4
    4980, S4
    4986, S4
    4992, S4
    4993, S3
    4999, S3
    5005, S3
    5011, S3
    5017, S3
    5023, S3
    4994, S3
    5000, S3
    5006, S3
    5012, S3
    5018, S3
    5024, S3
    4995, S3
    5001, S3
    5007, S3
    5013, S3
    5019, S3
    5025, S3
    4996, S3
    5002, S3
    5008, S3
    5014, S3
    5020, S3
    5026, S3
    4997, S3
    5003, S3
    5009, S3
    5015, S3
    5021, S3
    5027, S3
    4998, S4
    5004, S4
    5010, S4
    5016, S4
    5022, S4
    5028, S4
    5029, S3
    5035, S3
    5041, S3
    5047, S3
    5053, S3
    5059, S3
    5030, S3
    5036, S3
    5042, S3
    5048, S3
    5054, S3
    5060, S3
    5031, S3
    5037, S3
    5043, S3
    5049, S3
    5055, S3
    5061, S3
    5032, S3
    5038, S3
    5044, S3
    5050, S3
    5056, S3
    5062, S3
    5033, S3
    5039, S3
    5045, S3
    5051, S3
    5057, S3
    5063, S3
    5034, S4
    5040, S4
    5046, S4
    5052, S4
    5058, S4
    5064, S3
    5065, S3
    5067, S3
    5069, S3
    5071, S3
    5073, S3
    5075, S3
    5066, S4
    5068, S4
    5070, S4
    5072, S4
    5074, S4
    5076, S4
    5077, S3
    5079, S3
    5081, S3
    5083, S3
    5085, S3
    5087, S3
    5078, S4
    5080, S4
    5082, S4
    5084, S4
    5086, S4
    5088, S4
    5089, S3
    5091, S3
    5093, S3
    5095, S3
    5097, S3
    5099, S3
    5090, S4
    5092, S4
    5094, S4
    5096, S4
    5098, S4
    5100, S4
    5101, S3
    5103, S3
    5105, S3
    5107, S3
    5109, S3
    5111, S3
    5102, S4
    5104, S4
    5106, S4
    5108, S4
    5110, S4
    5112, S3
    5113, S3
    5116, S3
    5119, S3
    5122, S3
    5125, S3
    5128, S3
    5114, S3
    5117, S3
    5120, S3
    5123, S3
    5126, S3
    5129, S3
    5115, S4
    5118, S4
    5121, S4
    5124, S4
    5127, S4
    5130, S4
    5131, S3
    5134, S3
    5137, S3
    5140, S3
    5143, S3
    5146, S3
    5132, S3
    5135, S3
    5138, S3
    5141, S3
    5144, S3
    5147, S3
    5133, S4
    5136, S4
    5139, S4
    5142, S4
    5145, S4
    5148, S4
    5149, S3
    5152, S3
    5155, S3
    5158, S3
    5161, S3
    5164, S3
    5150, S3
    5153, S3
    5156, S3
    5159, S3
    5162, S3
    5165, S3
    5151, S4
    5154, S4
    5157, S4
    5160, S4
    5163, S4
    5166, S4
    5167, S3
    5170, S3
    5173, S3
    5176, S3
    5179, S3
    5182, S3
    5168, S3
    5171, S3
    5174, S3
    5177, S3
    5180, S3
    5183, S3
    5169, S4
    5172, S4
    5175, S4
    5178, S4
    5181, S4
    5184, S3
    5185, S3
    5188, S3
    5191, S3
    5194, S3
    5197, S3
    5200, S3
    5186, S3
    5189, S3
    5192, S3
    5195, S3
    5198, S3
    5201, S3
    5187, S4
    5190, S4
    5193, S4
    5196, S4
    5199, S4
    5202, S4
    5203, S3
    5206, S3
    5209, S3
    5212, S3
    5215, S3
    5218, S3
    5204, S3
    5207, S3
    5210, S3
    5213, S3
    5216, S3
    5219, S3
    5205, S4
    5208, S4
    5211, S4
    5214, S4
    5217, S4
    5220, S4
    5221, S3
    5224, S3
    5227, S3
    5230, S3
    5233, S3
    5236, S3
    5222, S3
    5225, S3
    5228, S3
    5231, S3
    5234, S3
    5237, S3
    5223, S4
    5226, S4
    5229, S4
    5232, S4
    5235, S4
    5238, S4
    5239, S3
    5242, S3
    5245, S3
    5248, S3
    5251, S3
    5254, S3
    5240, S3
    5243, S3
    5246, S3
    5249, S3
    5252, S3
    5255, S3
    5241, S4
    5244, S4
    5247, S4
    5250, S4
    5253, S4
    5256, S3
    5257, S3
    5260, S3
    5263, S3
    5266, S3
    5269, S3
    5272, S3
    5258, S3
    5261, S3
    5264, S3
    5267, S3
    5270, S3
    5273, S3
    5259, S4
    5262, S4
    5265, S4
    5268, S4
    5271, S4
    5274, S4
    5275, S3
    5278, S3
    5281, S3
    5284, S3
    5287, S3
    5290, S3
    5276, S3
    5279, S3
    5282, S3
    5285, S3
    5288, S3
    5291, S3
    5277, S4
    5280, S4
    5283, S4
    5286, S4
    5289, S4
    5292, S4
    5293, S3
    5296, S3
    5299, S3
    5302, S3
    5305, S3
    5308, S3
    5294, S3
    5297, S3
    5300, S3
    5303, S3
    5306, S3
    5309, S3
    5295, S4
    5298, S4
    5301, S4
    5304, S4
    5307, S4
    5310, S4
    5311, S3
    5314, S3
    5317, S3
    5320, S3
    5323, S3
    5326, S3
    5312, S3
    5315, S3
    5318, S3
    5321, S3
    5324, S3
    5327, S3
    5313, S4
    5316, S4
    5319, S4
    5322, S4
    5325, S4
    5328, S3
*SURFACE, NAME=PERTURBATION_STRIP_SURF, TYPE=ELEMENT
    3783, S3
    3786, S3
    3801, S3
    3804, S3
    3819, S3
    3822, S3
    3837, S3
    3840, S3
*SURFACE, NAME=DURA_INNER_SURF, TYPE=ELEMENT
    3721, S2
    3724, S2
    3727, S2
    3730, S2
    3733, S2
    3736, S2
    3739, S2
    3742, S2
    3745, S2
    3748, S2
    3751, S2
    3754, S2
    3757, S2
    3760, S2
    3763, S2
    3766, S2
    3769, S2
    3772, S2
    3775, S2
    3778, S2
    3781, S2
    3784, S2
    3787, S2
    3790, S2
    3793, S2
    3796, S2
    3799, S2
    3802, S2
    3805, S2
    3808, S2
    3811, S2
    3814, S2
    3817, S2
    3820, S2
    3823, S2
    3826, S2
    3829, S2
    3832, S2
    3835, S2
    3838, S2
    3841, S2
    3844, S2
    3847, S2
    3850, S2
    3853, S2
    3856, S2
    3859, S2
    3862, S2
    3865, S2
    3868, S2
    3871, S2
    3874, S2
    3877, S2
    3880, S2
    3883, S2
    3886, S2
    3889, S2
    3892, S2
    3895, S2
    3898, S2
    3901, S2
    3904, S2
    3907, S2
    3910, S2
    3913, S2
    3916, S2
    3919, S2
    3922, S2
    3925, S2
    3928, S2
    3931, S2
    3934, S2
    3937, S2
    3940, S2
    3943, S2
    3946, S2
    3949, S2
    3952, S2
    3955, S2
    3958, S2
    3961, S2
    3964, S2
    3967, S2
    3970, S2
    3973, S2
    3976, S2
    3979, S2
    3982, S2
    3985, S2
    3988, S2
    3991, S2
    3994, S2
    3997, S2
    4000, S2
    4003, S2
    4006, S2
    4009, S2
    4012, S2
    4015, S2
    4018, S2
    4021, S2
    4024, S2
    4027, S2
    4030, S2
    4033, S2
    4036, S2
    4039, S2
    4042, S2
    4045, S2
    4048, S2
    4051, S2
    4054, S2
    4057, S2
    4060, S2
    4063, S2
    4066, S2
    4069, S2
    4072, S2
    4075, S2
    4078, S2
    4081, S2
    4084, S2
    4087, S2
    4090, S2
    4093, S2
    4096, S2
    4099, S2
    4102, S2
    4105, S2
    4108, S2
    4111, S2
    4114, S2
    4117, S2
    4120, S2
    4123, S2
    4126, S2
    4129, S2
    4132, S2
    4135, S2
    4138, S2
    4141, S2
    4144, S2
    4147, S2
    4150, S2
    4153, S2
    4156, S2
    4159, S2
    4162, S2
    4165, S2
    4168, S2
    4171, S2
    4174, S2
    4177, S2
    4180, S2
    4183, S2
    4186, S2
    4189, S2
    4192, S2
    4195, S2
    4198, S2
    4201, S2
    4204, S2
    4207, S2
    4210, S2
    4213, S2
    4216, S2
    4219, S2
    4222, S2
    4225, S2
    4228, S2
    4231, S2
    4234, S2
    4237, S2
    4240, S2
    4243, S2
    4246, S2
    4249, S2
    4252, S2
    4255, S2
    4258, S2
    4261, S2
    4264, S2
    4267, S2
    4270, S2
    4273, S2
    4276, S2
    4279, S2
    4282, S2
    4285, S2
    4288, S2
    4291, S2
    4294, S2
    4297, S2
    4300, S2
    4303, S2
    4306, S2
    4309, S2
    4312, S2
    4315, S2
    4318, S2
    4321, S2
    4324, S2
    4327, S2
    4330, S2
    4333, S2
    4336, S2
    4339, S2
    4342, S2
    4345, S2
    4348, S2
    4351, S2
    4354, S2
    4357, S2
    4360, S2
    4363, S2
    4366, S2
    4369, S2
    4372, S2
    4375, S2
    4378, S2
    4381, S2
    4384, S2
    4387, S2
    4390, S2
    4393, S2
    4396, S2
    4399, S2
    4402, S2
    4405, S2
    4408, S2
    4411, S2
    4414, S2
    4417, S2
    4420, S2
    4423, S2
    4426, S2
    4429, S2
    4432, S2
    4435, S2
    4438, S2
