** Winkler foundation springs em dura_outer (excluindo perturbation_strip)
** Gerado automaticamente por foam_polymesh_to_ccx_inp.py
** k_winkler = 2.000e+05 Pa/m, 249 springs
*NODE, NSET=GHOST_WINKLER
    5942, -1.43470367e-02, -2.51571253e-02,  1.76847411e-03
    5943, -1.40362522e-02, -2.55715046e-02,  2.16592956e-03
    5944, -1.36743361e-02, -2.60540594e-02,  2.41578050e-03
    5945, -1.32859522e-02, -2.65719046e-02,  2.50100000e-03
    5946, -1.28975683e-02, -2.70897497e-02,  2.41578050e-03
    5947, -1.25356522e-02, -2.75723046e-02,  2.16592956e-03
    5948, -1.22248677e-02, -2.79866839e-02,  1.76847411e-03
    5949, -1.21548175e-02, -2.33527349e-02,  1.76847411e-03
    5950, -1.18079236e-02, -2.37373929e-02,  2.16592956e-03
    5951, -1.14039571e-02, -2.41853366e-02,  2.41578050e-03
    5952, -1.09704476e-02, -2.46660394e-02,  2.50100000e-03
    5953, -1.05369382e-02, -2.51467422e-02,  2.41578050e-03
    5954, -1.01329717e-02, -2.55946859e-02,  2.16592956e-03
    5955, -9.78607776e-03, -2.59793439e-02,  1.76847411e-03
    5956, -1.01342870e-02, -2.13579654e-02,  1.76847411e-03
    5957, -9.75411161e-03, -2.17097662e-02,  2.16592956e-03
    5958, -9.31138802e-03, -2.21194470e-02,  2.41578050e-03
    5959, -8.83628709e-03, -2.25590886e-02,  2.50100000e-03
    5960, -8.36118616e-03, -2.29987302e-02,  2.41578050e-03
    5961, -7.91846257e-03, -2.34084109e-02,  2.16592956e-03
    5962, -7.53828719e-03, -2.37602118e-02,  1.76847411e-03
    5963, -8.30191712e-03, -1.91890785e-02,  1.76847411e-03
    5964, -7.89155959e-03, -1.95051543e-02,  2.16592956e-03
    5965, -5.91017826e-03, -2.10313027e-02,  2.16592956e-03
    5966, -5.49982073e-03, -2.13473785e-02,  1.76847411e-03
    5967, -6.67264600e-03, -1.68637560e-02,  1.76847411e-03
    5968, -6.23545169e-03, -1.71415298e-02,  2.16592956e-03
    5969, -4.12449094e-03, -1.84827404e-02,  2.16592956e-03
    5970, -3.68729664e-03, -1.87605143e-02,  1.76847411e-03
    5971, -5.25975599e-03, -1.44009545e-02,  1.76847411e-03
    5972, -4.79928906e-03, -1.46381619e-02,  2.16592956e-03
    5973, -2.57595814e-03, -1.57835007e-02,  2.16592956e-03
    5974, -2.11549121e-03, -1.60207081e-02,  1.76847411e-03
    5975, -4.07476543e-03, -1.18207517e-02,  1.76847411e-03
    5976, -3.59477975e-03, -1.20154589e-02,  2.16592956e-03
    5977, -1.27720400e-03, -1.29555886e-02,  2.16592956e-03
    5978, -7.97218321e-04, -1.31502958e-02,  1.76847411e-03
    5979, -3.12733476e-03, -9.14418214e-03,  1.76847411e-03
    5980, -2.63174334e-03, -9.29480187e-03,  2.16592956e-03
    5981, -2.38816394e-04, -1.00220583e-02,  2.16592956e-03
    5982,  2.56775024e-04, -1.01726780e-02,  1.76847411e-03
    5983, -2.42518775e-03, -6.39306620e-03,  1.76847411e-03
    5984, -1.91803081e-03, -6.49837053e-03,  2.16592956e-03
    5985, -1.32743407e-03, -6.62100001e-03,  2.41578050e-03
    5986, -6.93645711e-04, -6.75259765e-03,  2.50100000e-03
    5987, -5.98573498e-05, -6.88419529e-03,  2.41578050e-03
    5988,  5.30739388e-04, -7.00682477e-03,  2.16592956e-03
    5989,  1.03789632e-03, -7.11212909e-03,  1.76847411e-03
    5990, -1.97404853e-03, -3.58983187e-03,  1.76847411e-03
    5991, -1.45946059e-03, -3.64896231e-03,  2.16592956e-03
    5992, -8.60210262e-04, -3.71782116e-03,  2.41578050e-03
    5993, -2.17135456e-04, -3.79171581e-03,  2.50100000e-03
    5994,  4.25939350e-04, -3.86561046e-03,  2.41578050e-03
    5995,  1.02518968e-03, -3.93446932e-03,  2.16592956e-03
    5996,  1.53977762e-03, -3.99359976e-03,  1.76847411e-03
    5997, -1.77759495e-03, -7.57332029e-04,  1.76847411e-03
    5998, -1.25977109e-03, -7.69806535e-04,  2.16592956e-03
    5999, -6.56752462e-04, -7.84333403e-04,  2.41578050e-03
    6000, -9.63377023e-06, -7.99922653e-04,  2.50100000e-03
    6001,  6.37484922e-04, -8.15511904e-04,  2.41578050e-03
    6002,  1.24050355e-03, -8.30038772e-04,  2.16592956e-03
    6003,  1.75832740e-03, -8.42513277e-04,  1.76847411e-03
    6004, -1.19863944e-02, -2.83046482e-02,  1.25050002e-03
    6005, -1.18364839e-02, -2.85045290e-02,  6.47306439e-04
    6006, -1.17853522e-02, -2.85727046e-02,  2.22133423e-19
    6007, -1.18364839e-02, -2.85045290e-02, -6.47306439e-04
    6008, -1.19863944e-02, -2.83046482e-02, -1.25050002e-03
    6009, -1.22248677e-02, -2.79866839e-02, -1.76847411e-03
    6010, -9.51989673e-03, -2.62745023e-02,  1.25050002e-03
    6011, -9.35256834e-03, -2.64600467e-02,  6.47306439e-04
    6012, -9.29549575e-03, -2.65233324e-02,  2.22133423e-19
    6013, -9.35256834e-03, -2.64600467e-02, -6.47306439e-04
    6014, -9.51989673e-03, -2.62745023e-02, -1.25050002e-03
    6015, -9.78607776e-03, -2.59793439e-02, -1.76847411e-03
    6016, -7.24656840e-03, -2.40301580e-02,  1.25050002e-03
    6017, -7.06318630e-03, -2.41998533e-02,  6.47306439e-04
    6018, -7.00063808e-03, -2.42577332e-02,  2.22133423e-19
    6019, -7.06318630e-03, -2.41998533e-02, -6.47306439e-04
    6020, -7.24656840e-03, -2.40301580e-02, -1.25050002e-03
    6021, -7.53828719e-03, -2.37602118e-02, -1.76847411e-03
    6022, -5.18494236e-03, -2.15899119e-02,  1.25050002e-03
    6023, -4.98700155e-03, -2.17423747e-02,  6.47306439e-04
    6024, -4.91948762e-03, -2.17943770e-02,  2.22133423e-19
    6025, -4.98700155e-03, -2.17423747e-02, -6.47306439e-04
    6026, -5.18494236e-03, -2.15899119e-02, -1.25050002e-03
    6027, -5.49982073e-03, -2.13473785e-02, -1.76847411e-03
    6028, -3.35182569e-03, -1.89736576e-02,  1.25050002e-03
    6029, -3.14093984e-03, -1.91076451e-02,  6.47306439e-04
    6030, -3.06901060e-03, -1.91533457e-02,  2.22133423e-19
    6031, -3.14093984e-03, -1.91076451e-02, -6.47306439e-04
    6032, -3.35182569e-03, -1.89736576e-02, -1.25050002e-03
    6033, -3.68729664e-03, -1.87605143e-02, -1.76847411e-03
    6034, -1.76216255e-03, -1.62027237e-02,  1.25050002e-03
    6035, -1.54005087e-03, -1.63171436e-02,  6.47306439e-04
    6036, -1.46429271e-03, -1.63561700e-02,  2.22133423e-19
    6037, -1.54005087e-03, -1.63171436e-02, -6.47306439e-04
    6038, -1.76216255e-03, -1.62027237e-02, -1.25050002e-03
    6039, -2.11549121e-03, -1.60207081e-02, -1.76847411e-03
    6040, -4.28912403e-04, -1.32996999e-02,  1.25050002e-03
    6041, -1.97385626e-04, -1.33936193e-02,  6.47306439e-04
    6042, -1.18416156e-04, -1.34256534e-02,  2.22133423e-19
    6043, -1.97385626e-04, -1.33936193e-02, -6.47306439e-04
    6044, -4.28912403e-04, -1.32996999e-02, -1.25050002e-03
    6045, -7.97218321e-04, -1.31502958e-02, -1.76847411e-03
    6046,  6.37055648e-04, -1.02882526e-02,  1.25050002e-03
    6047,  8.76110040e-04, -1.03609058e-02,  6.47306439e-04
    6048,  9.57647039e-04, -1.03856864e-02,  2.22133423e-19
    6049,  8.76110040e-04, -1.03609058e-02, -6.47306439e-04
    6050,  6.37055648e-04, -1.02882526e-02, -1.25050002e-03
    6051,  2.56775024e-04, -1.01726780e-02, -1.76847411e-03
    6052,  1.42705148e-03, -7.19293193e-03,  1.25050002e-03
    6053,  1.67168464e-03, -7.24372672e-03,  6.47306439e-04
    6054,  1.75512445e-03, -7.26105188e-03,  2.22133423e-19
    6055,  1.67168464e-03, -7.24372672e-03, -6.47306439e-04
    6056,  1.42705148e-03, -7.19293193e-03, -1.25050002e-03
    6057,  1.03789632e-03, -7.11212909e-03, -1.76847411e-03
    6058,  1.93463478e-03, -4.03897214e-03,  1.25050002e-03
    6059,  2.18285238e-03, -4.06749441e-03,  6.47306439e-04
    6060,  2.26751477e-03, -4.07722282e-03,  2.22133423e-19
    6061,  2.18285238e-03, -4.06749441e-03, -6.47306439e-04
    6062,  1.93463478e-03, -4.03897214e-03, -1.25050002e-03
    6063,  1.53977762e-03, -3.99359976e-03, -1.76847411e-03
    6064,  2.15566758e-03, -8.52085301e-04,  1.25050002e-03
    6065,  2.40544605e-03, -8.58102526e-04,  6.47306439e-04
    6066,  2.49064083e-03, -8.60154890e-04,  2.22133423e-19
    6067,  2.40544605e-03, -8.58102526e-04, -6.47306439e-04
    6068,  2.15566758e-03, -8.52085301e-04, -1.25050002e-03
    6069,  1.75832740e-03, -8.42513277e-04, -1.76847411e-03
    6070, -1.25356522e-02, -2.75723046e-02, -2.16592956e-03
    6071, -1.28975683e-02, -2.70897497e-02, -2.41578050e-03
    6072, -1.32859522e-02, -2.65719046e-02, -2.50100000e-03
    6073, -1.36743361e-02, -2.60540594e-02, -2.41578050e-03
    6074, -1.40362522e-02, -2.55715046e-02, -2.16592956e-03
    6075, -1.43470367e-02, -2.51571253e-02, -1.76847411e-03
    6076, -1.01329717e-02, -2.55946859e-02, -2.16592956e-03
    6077, -1.05369382e-02, -2.51467422e-02, -2.41578050e-03
    6078, -1.09704476e-02, -2.46660394e-02, -2.50100000e-03
    6079, -1.14039571e-02, -2.41853366e-02, -2.41578050e-03
    6080, -1.18079236e-02, -2.37373929e-02, -2.16592956e-03
    6081, -1.21548175e-02, -2.33527349e-02, -1.76847411e-03
    6082, -7.91846257e-03, -2.34084109e-02, -2.16592956e-03
    6083, -8.36118616e-03, -2.29987302e-02, -2.41578050e-03
    6084, -8.83628709e-03, -2.25590886e-02, -2.50100000e-03
    6085, -9.31138802e-03, -2.21194470e-02, -2.41578050e-03
    6086, -9.75411161e-03, -2.17097662e-02, -2.16592956e-03
    6087, -1.01342870e-02, -2.13579654e-02, -1.76847411e-03
    6088, -5.91017826e-03, -2.10313027e-02, -2.16592956e-03
    6089, -6.38804970e-03, -2.06632248e-02, -2.41578050e-03
    6090, -6.90086893e-03, -2.02682285e-02, -2.50100000e-03
    6091, -7.41368815e-03, -1.98732322e-02, -2.41578050e-03
    6092, -7.89155959e-03, -1.95051543e-02, -2.16592956e-03
    6093, -8.30191712e-03, -1.91890785e-02, -1.76847411e-03
    6094, -4.12449094e-03, -1.84827404e-02, -2.16592956e-03
    6095, -4.63361448e-03, -1.81592660e-02, -2.41578050e-03
    6096, -5.17997132e-03, -1.78121351e-02, -2.50100000e-03
    6097, -5.72632816e-03, -1.74650043e-02, -2.41578050e-03
    6098, -6.23545169e-03, -1.71415298e-02, -2.16592956e-03
    6099, -6.67264600e-03, -1.68637560e-02, -1.76847411e-03
    6100, -2.57595814e-03, -1.57835007e-02, -2.16592956e-03
    6101, -3.11218321e-03, -1.55072668e-02, -2.41578050e-03
    6102, -3.68762360e-03, -1.52108313e-02, -2.50100000e-03
    6103, -4.26306398e-03, -1.49143958e-02, -2.41578050e-03
    6104, -4.79928906e-03, -1.46381619e-02, -2.16592956e-03
    6105, -5.25975599e-03, -1.44009545e-02, -1.76847411e-03
    6106, -1.27720400e-03, -1.29555886e-02, -2.16592956e-03
    6107, -1.83615913e-03, -1.27288472e-02, -2.41578050e-03
    6108, -2.43599187e-03, -1.24855238e-02, -2.50100000e-03
    6109, -3.03582461e-03, -1.22422003e-02, -2.41578050e-03
    6110, -3.59477975e-03, -1.20154589e-02, -2.16592956e-03
    6111, -4.07476543e-03, -1.18207517e-02, -1.76847411e-03
    6112, -2.38816394e-04, -1.00220583e-02, -2.16592956e-03
    6113, -8.15944803e-04, -9.84665786e-03, -2.41578050e-03
    6114, -1.43527987e-03, -9.65843006e-03, -2.50100000e-03
    6115, -2.05461493e-03, -9.47020226e-03, -2.41578050e-03
    6116, -2.63174334e-03, -9.29480187e-03, -2.16592956e-03
    6117, -3.12733476e-03, -9.14418214e-03, -1.76847411e-03
    6118,  5.30739388e-04, -7.00682477e-03, -2.16592956e-03
    6119, -5.98573498e-05, -6.88419529e-03, -2.41578050e-03
    6120, -6.93645711e-04, -6.75259765e-03, -2.50100000e-03
    6121, -1.32743407e-03, -6.62100001e-03, -2.41578050e-03
    6122, -1.91803081e-03, -6.49837053e-03, -2.16592956e-03
    6123, -2.42518775e-03, -6.39306620e-03, -1.76847411e-03
    6124,  1.02518968e-03, -3.93446932e-03, -2.16592956e-03
    6125,  4.25939350e-04, -3.86561046e-03, -2.41578050e-03
    6126, -2.17135456e-04, -3.79171581e-03, -2.50100000e-03
    6127, -8.60210262e-04, -3.71782116e-03, -2.41578050e-03
    6128, -1.45946059e-03, -3.64896231e-03, -2.16592956e-03
    6129, -1.97404853e-03, -3.58983187e-03, -1.76847411e-03
    6130,  1.24050355e-03, -8.30038772e-04, -2.16592956e-03
    6131,  6.37484922e-04, -8.15511904e-04, -2.41578050e-03
    6132, -9.63377023e-06, -7.99922653e-04, -2.50100000e-03
    6133, -6.56752462e-04, -7.84333403e-04, -2.41578050e-03
    6134, -1.25977109e-03, -7.69806535e-04, -2.16592956e-03
    6135, -1.77759495e-03, -7.57332029e-04, -1.76847411e-03
    6136, -1.45855099e-02, -2.48391609e-02, -1.25050002e-03
    6137, -1.47354205e-02, -2.46392802e-02, -6.47306439e-04
    6138, -1.47865522e-02, -2.45711046e-02, -2.22133423e-19
    6139, -1.47354205e-02, -2.46392802e-02,  6.47306439e-04
    6140, -1.45855099e-02, -2.48391609e-02,  1.25050002e-03
    6141, -1.24209985e-02, -2.30575765e-02, -1.25050002e-03
    6142, -1.25883269e-02, -2.28720322e-02, -6.47306439e-04
    6143, -1.26453995e-02, -2.28087465e-02, -2.22133423e-19
    6144, -1.25883269e-02, -2.28720322e-02,  6.47306439e-04
    6145, -1.24209985e-02, -2.30575765e-02,  1.25050002e-03
    6146, -1.04260058e-02, -2.10880191e-02, -1.25050002e-03
    6147, -1.06093879e-02, -2.09183238e-02, -6.47306439e-04
    6148, -1.06719361e-02, -2.08604439e-02, -2.22133423e-19
    6149, -1.06093879e-02, -2.09183238e-02,  6.47306439e-04
    6150, -1.04260058e-02, -2.10880191e-02,  1.25050002e-03
    6151, -8.61679549e-03, -1.89465451e-02, -1.25050002e-03
    6152, -8.81473630e-03, -1.87940823e-02, -6.47306439e-04
    6153, -8.88225023e-03, -1.87420800e-02, -2.22133423e-19
    6154, -8.81473630e-03, -1.87940823e-02,  6.47306439e-04
    6155, -8.61679549e-03, -1.89465451e-02,  1.25050002e-03
    6156, -7.00811695e-03, -1.66506127e-02, -1.25050002e-03
    6157, -7.21900280e-03, -1.65166252e-02, -6.47306439e-04
    6158, -7.29093204e-03, -1.64709245e-02, -2.22133423e-19
    6159, -7.21900280e-03, -1.65166252e-02,  6.47306439e-04
    6160, -7.00811695e-03, -1.66506127e-02,  1.25050002e-03
    6161, -5.61308465e-03, -1.42189389e-02, -1.25050002e-03
    6162, -5.83519633e-03, -1.41045191e-02, -6.47306439e-04
    6163, -5.91095448e-03, -1.40654926e-02, -2.22133423e-19
    6164, -5.83519633e-03, -1.41045191e-02,  6.47306439e-04
    6165, -5.61308465e-03, -1.42189389e-02,  1.25050002e-03
    6166, -4.44307134e-03, -1.16713476e-02, -1.25050002e-03
    6167, -4.67459812e-03, -1.15774282e-02, -6.47306439e-04
    6168, -4.75356759e-03, -1.15453941e-02, -2.22133423e-19
    6169, -4.67459812e-03, -1.15774282e-02,  6.47306439e-04
    6170, -4.44307134e-03, -1.16713476e-02,  1.25050002e-03
    6171, -3.50761538e-03, -9.02860757e-03, -1.25050002e-03
    6172, -3.74666977e-03, -8.95595435e-03, -6.47306439e-04
    6173, -3.82820677e-03, -8.93117370e-03, -2.22133423e-19
    6174, -3.74666977e-03, -8.95595435e-03,  6.47306439e-04
    6175, -3.50761538e-03, -9.02860757e-03,  1.25050002e-03
    6176, -2.81434290e-03, -6.31226336e-03, -1.25050002e-03
    6177, -3.05897606e-03, -6.26146857e-03, -6.47306439e-04
    6178, -3.14241587e-03, -6.24414342e-03, -2.22133423e-19
    6179, -3.05897606e-03, -6.26146857e-03,  6.47306439e-04
    6180, -2.81434290e-03, -6.31226336e-03,  1.25050002e-03
    6181, -2.36890570e-03, -3.54445949e-03, -1.25050002e-03
    6182, -2.61712329e-03, -3.51593722e-03, -6.47306439e-04
    6183, -2.70178568e-03, -3.50620880e-03, -2.22133423e-19
    6184, -2.61712329e-03, -3.51593722e-03,  6.47306439e-04
    6185, -2.36890570e-03, -3.54445949e-03,  1.25050002e-03
    6186, -2.17493512e-03, -7.47760006e-04, -1.25050002e-03
    6187, -2.42471359e-03, -7.41742781e-04, -6.47306439e-04
    6188, -2.50990837e-03, -7.39690417e-04, -2.22133423e-19
    6189, -2.42471359e-03, -7.41742781e-04,  6.47306439e-04
    6190, -2.17493512e-03, -7.47760006e-04,  1.25050002e-03
*ELEMENT, TYPE=SPRINGA, ELSET=WK_0
    5329,     4238,     5942
*SPRING, ELSET=WK_0

1.957893e-01
*ELEMENT, TYPE=SPRINGA, ELSET=WK_1
    5330,     4241,     5943
*SPRING, ELSET=WK_1

1.957893e-01
*ELEMENT, TYPE=SPRINGA, ELSET=WK_2
    5331,     4244,     5944
*SPRING, ELSET=WK_2

1.957893e-01
*ELEMENT, TYPE=SPRINGA, ELSET=WK_3
    5332,     4247,     5945
*SPRING, ELSET=WK_3

1.957893e-01
*ELEMENT, TYPE=SPRINGA, ELSET=WK_4
    5333,     4250,     5946
*SPRING, ELSET=WK_4

1.957893e-01
*ELEMENT, TYPE=SPRINGA, ELSET=WK_5
    5334,     4253,     5947
*SPRING, ELSET=WK_5

1.957893e-01
*ELEMENT, TYPE=SPRINGA, ELSET=WK_6
    5335,     4256,     5948
*SPRING, ELSET=WK_6

1.957893e-01
*ELEMENT, TYPE=SPRINGA, ELSET=WK_7
    5336,     4259,     5949
*SPRING, ELSET=WK_7

3.915786e-01
*ELEMENT, TYPE=SPRINGA, ELSET=WK_8
    5337,     4262,     5950
*SPRING, ELSET=WK_8

3.915786e-01
*ELEMENT, TYPE=SPRINGA, ELSET=WK_9
    5338,     4265,     5951
*SPRING, ELSET=WK_9

3.915786e-01
*ELEMENT, TYPE=SPRINGA, ELSET=WK_10
    5339,     4268,     5952
*SPRING, ELSET=WK_10

3.915786e-01
*ELEMENT, TYPE=SPRINGA, ELSET=WK_11
    5340,     4271,     5953
*SPRING, ELSET=WK_11

3.915786e-01
*ELEMENT, TYPE=SPRINGA, ELSET=WK_12
    5341,     4274,     5954
*SPRING, ELSET=WK_12

3.915786e-01
*ELEMENT, TYPE=SPRINGA, ELSET=WK_13
    5342,     4277,     5955
*SPRING, ELSET=WK_13

3.915786e-01
*ELEMENT, TYPE=SPRINGA, ELSET=WK_14
    5343,     4280,     5956
*SPRING, ELSET=WK_14

3.915786e-01
*ELEMENT, TYPE=SPRINGA, ELSET=WK_15
    5344,     4283,     5957
*SPRING, ELSET=WK_15

3.915786e-01
*ELEMENT, TYPE=SPRINGA, ELSET=WK_16
    5345,     4286,     5958
*SPRING, ELSET=WK_16

3.915786e-01
*ELEMENT, TYPE=SPRINGA, ELSET=WK_17
    5346,     4289,     5959
*SPRING, ELSET=WK_17

3.915786e-01
*ELEMENT, TYPE=SPRINGA, ELSET=WK_18
    5347,     4292,     5960
*SPRING, ELSET=WK_18

3.915786e-01
*ELEMENT, TYPE=SPRINGA, ELSET=WK_19
    5348,     4295,     5961
*SPRING, ELSET=WK_19

3.915786e-01
*ELEMENT, TYPE=SPRINGA, ELSET=WK_20
    5349,     4298,     5962
*SPRING, ELSET=WK_20

3.915786e-01
*ELEMENT, TYPE=SPRINGA, ELSET=WK_21
    5350,     4301,     5963
*SPRING, ELSET=WK_21

3.915786e-01
*ELEMENT, TYPE=SPRINGA, ELSET=WK_22
    5351,     4304,     5964
*SPRING, ELSET=WK_22

3.915786e-01
*ELEMENT, TYPE=SPRINGA, ELSET=WK_23
    5352,     4316,     5965
*SPRING, ELSET=WK_23

3.915786e-01
*ELEMENT, TYPE=SPRINGA, ELSET=WK_24
    5353,     4319,     5966
*SPRING, ELSET=WK_24

3.915786e-01
*ELEMENT, TYPE=SPRINGA, ELSET=WK_25
    5354,     4322,     5967
*SPRING, ELSET=WK_25

3.915786e-01
*ELEMENT, TYPE=SPRINGA, ELSET=WK_26
    5355,     4325,     5968
*SPRING, ELSET=WK_26

3.915786e-01
*ELEMENT, TYPE=SPRINGA, ELSET=WK_27
    5356,     4337,     5969
*SPRING, ELSET=WK_27

3.915786e-01
*ELEMENT, TYPE=SPRINGA, ELSET=WK_28
    5357,     4340,     5970
*SPRING, ELSET=WK_28

3.915786e-01
*ELEMENT, TYPE=SPRINGA, ELSET=WK_29
    5358,     4343,     5971
*SPRING, ELSET=WK_29

3.915786e-01
*ELEMENT, TYPE=SPRINGA, ELSET=WK_30
    5359,     4346,     5972
*SPRING, ELSET=WK_30

3.915786e-01
*ELEMENT, TYPE=SPRINGA, ELSET=WK_31
    5360,     4358,     5973
*SPRING, ELSET=WK_31

3.915786e-01
*ELEMENT, TYPE=SPRINGA, ELSET=WK_32
    5361,     4361,     5974
*SPRING, ELSET=WK_32

3.915786e-01
*ELEMENT, TYPE=SPRINGA, ELSET=WK_33
    5362,     4364,     5975
*SPRING, ELSET=WK_33

3.915786e-01
*ELEMENT, TYPE=SPRINGA, ELSET=WK_34
    5363,     4367,     5976
*SPRING, ELSET=WK_34

3.915786e-01
*ELEMENT, TYPE=SPRINGA, ELSET=WK_35
    5364,     4379,     5977
*SPRING, ELSET=WK_35

3.915786e-01
*ELEMENT, TYPE=SPRINGA, ELSET=WK_36
    5365,     4382,     5978
*SPRING, ELSET=WK_36

3.915786e-01
*ELEMENT, TYPE=SPRINGA, ELSET=WK_37
    5366,     4385,     5979
*SPRING, ELSET=WK_37

3.915786e-01
*ELEMENT, TYPE=SPRINGA, ELSET=WK_38
    5367,     4388,     5980
*SPRING, ELSET=WK_38

3.915786e-01
*ELEMENT, TYPE=SPRINGA, ELSET=WK_39
    5368,     4400,     5981
*SPRING, ELSET=WK_39

3.915786e-01
*ELEMENT, TYPE=SPRINGA, ELSET=WK_40
    5369,     4403,     5982
*SPRING, ELSET=WK_40

3.915786e-01
*ELEMENT, TYPE=SPRINGA, ELSET=WK_41
    5370,     4406,     5983
*SPRING, ELSET=WK_41

3.915786e-01
*ELEMENT, TYPE=SPRINGA, ELSET=WK_42
    5371,     4409,     5984
*SPRING, ELSET=WK_42

3.915786e-01
*ELEMENT, TYPE=SPRINGA, ELSET=WK_43
    5372,     4412,     5985
*SPRING, ELSET=WK_43

3.915786e-01
*ELEMENT, TYPE=SPRINGA, ELSET=WK_44
    5373,     4415,     5986
*SPRING, ELSET=WK_44

3.915786e-01
*ELEMENT, TYPE=SPRINGA, ELSET=WK_45
    5374,     4418,     5987
*SPRING, ELSET=WK_45

3.915786e-01
*ELEMENT, TYPE=SPRINGA, ELSET=WK_46
    5375,     4421,     5988
*SPRING, ELSET=WK_46

3.915786e-01
*ELEMENT, TYPE=SPRINGA, ELSET=WK_47
    5376,     4424,     5989
*SPRING, ELSET=WK_47

3.915786e-01
*ELEMENT, TYPE=SPRINGA, ELSET=WK_48
    5377,     4427,     5990
*SPRING, ELSET=WK_48

3.915786e-01
*ELEMENT, TYPE=SPRINGA, ELSET=WK_49
    5378,     4430,     5991
*SPRING, ELSET=WK_49

3.915786e-01
*ELEMENT, TYPE=SPRINGA, ELSET=WK_50
    5379,     4433,     5992
*SPRING, ELSET=WK_50

3.915786e-01
*ELEMENT, TYPE=SPRINGA, ELSET=WK_51
    5380,     4436,     5993
*SPRING, ELSET=WK_51

3.915786e-01
*ELEMENT, TYPE=SPRINGA, ELSET=WK_52
    5381,     4439,     5994
*SPRING, ELSET=WK_52

3.915786e-01
*ELEMENT, TYPE=SPRINGA, ELSET=WK_53
    5382,     4442,     5995
*SPRING, ELSET=WK_53

3.915786e-01
*ELEMENT, TYPE=SPRINGA, ELSET=WK_54
    5383,     4445,     5996
*SPRING, ELSET=WK_54

3.915786e-01
*ELEMENT, TYPE=SPRINGA, ELSET=WK_55
    5384,     4448,     5997
*SPRING, ELSET=WK_55

1.957893e-01
*ELEMENT, TYPE=SPRINGA, ELSET=WK_56
    5385,     4451,     5998
*SPRING, ELSET=WK_56

1.957893e-01
*ELEMENT, TYPE=SPRINGA, ELSET=WK_57
    5386,     4454,     5999
*SPRING, ELSET=WK_57

1.957893e-01
*ELEMENT, TYPE=SPRINGA, ELSET=WK_58
    5387,     4457,     6000
*SPRING, ELSET=WK_58

1.957893e-01
*ELEMENT, TYPE=SPRINGA, ELSET=WK_59
    5388,     4460,     6001
*SPRING, ELSET=WK_59

1.957893e-01
*ELEMENT, TYPE=SPRINGA, ELSET=WK_60
    5389,     4463,     6002
*SPRING, ELSET=WK_60

1.957893e-01
*ELEMENT, TYPE=SPRINGA, ELSET=WK_61
    5390,     4466,     6003
*SPRING, ELSET=WK_61

1.957893e-01
*ELEMENT, TYPE=SPRINGA, ELSET=WK_62
    5391,     4469,     6004
*SPRING, ELSET=WK_62

1.957893e-01
*ELEMENT, TYPE=SPRINGA, ELSET=WK_63
    5392,     4472,     6005
*SPRING, ELSET=WK_63

1.957893e-01
*ELEMENT, TYPE=SPRINGA, ELSET=WK_64
    5393,     4475,     6006
*SPRING, ELSET=WK_64

1.957893e-01
*ELEMENT, TYPE=SPRINGA, ELSET=WK_65
    5394,     4478,     6007
*SPRING, ELSET=WK_65

1.957893e-01
*ELEMENT, TYPE=SPRINGA, ELSET=WK_66
    5395,     4481,     6008
*SPRING, ELSET=WK_66

1.957893e-01
*ELEMENT, TYPE=SPRINGA, ELSET=WK_67
    5396,     4484,     6009
*SPRING, ELSET=WK_67

1.957893e-01
*ELEMENT, TYPE=SPRINGA, ELSET=WK_68
    5397,     4487,     6010
*SPRING, ELSET=WK_68

3.915786e-01
*ELEMENT, TYPE=SPRINGA, ELSET=WK_69
    5398,     4490,     6011
*SPRING, ELSET=WK_69

3.915786e-01
*ELEMENT, TYPE=SPRINGA, ELSET=WK_70
    5399,     4493,     6012
*SPRING, ELSET=WK_70

3.915786e-01
*ELEMENT, TYPE=SPRINGA, ELSET=WK_71
    5400,     4496,     6013
*SPRING, ELSET=WK_71

3.915786e-01
*ELEMENT, TYPE=SPRINGA, ELSET=WK_72
    5401,     4499,     6014
*SPRING, ELSET=WK_72

3.915786e-01
*ELEMENT, TYPE=SPRINGA, ELSET=WK_73
    5402,     4502,     6015
*SPRING, ELSET=WK_73

3.915786e-01
*ELEMENT, TYPE=SPRINGA, ELSET=WK_74
    5403,     4505,     6016
*SPRING, ELSET=WK_74

3.915786e-01
*ELEMENT, TYPE=SPRINGA, ELSET=WK_75
    5404,     4508,     6017
*SPRING, ELSET=WK_75

3.915786e-01
*ELEMENT, TYPE=SPRINGA, ELSET=WK_76
    5405,     4511,     6018
*SPRING, ELSET=WK_76

3.915786e-01
*ELEMENT, TYPE=SPRINGA, ELSET=WK_77
    5406,     4514,     6019
*SPRING, ELSET=WK_77

3.915786e-01
*ELEMENT, TYPE=SPRINGA, ELSET=WK_78
    5407,     4517,     6020
*SPRING, ELSET=WK_78

3.915786e-01
*ELEMENT, TYPE=SPRINGA, ELSET=WK_79
    5408,     4520,     6021
*SPRING, ELSET=WK_79

3.915786e-01
*ELEMENT, TYPE=SPRINGA, ELSET=WK_80
    5409,     4523,     6022
*SPRING, ELSET=WK_80

3.915786e-01
*ELEMENT, TYPE=SPRINGA, ELSET=WK_81
    5410,     4526,     6023
*SPRING, ELSET=WK_81

3.915786e-01
*ELEMENT, TYPE=SPRINGA, ELSET=WK_82
    5411,     4529,     6024
*SPRING, ELSET=WK_82

3.915786e-01
*ELEMENT, TYPE=SPRINGA, ELSET=WK_83
    5412,     4532,     6025
*SPRING, ELSET=WK_83

3.915786e-01
*ELEMENT, TYPE=SPRINGA, ELSET=WK_84
    5413,     4535,     6026
*SPRING, ELSET=WK_84

3.915786e-01
*ELEMENT, TYPE=SPRINGA, ELSET=WK_85
    5414,     4538,     6027
*SPRING, ELSET=WK_85

3.915786e-01
*ELEMENT, TYPE=SPRINGA, ELSET=WK_86
    5415,     4541,     6028
*SPRING, ELSET=WK_86

3.915786e-01
*ELEMENT, TYPE=SPRINGA, ELSET=WK_87
    5416,     4544,     6029
*SPRING, ELSET=WK_87

3.915786e-01
*ELEMENT, TYPE=SPRINGA, ELSET=WK_88
    5417,     4547,     6030
*SPRING, ELSET=WK_88

3.915786e-01
*ELEMENT, TYPE=SPRINGA, ELSET=WK_89
    5418,     4550,     6031
*SPRING, ELSET=WK_89

3.915786e-01
*ELEMENT, TYPE=SPRINGA, ELSET=WK_90
    5419,     4553,     6032
*SPRING, ELSET=WK_90

3.915786e-01
*ELEMENT, TYPE=SPRINGA, ELSET=WK_91
    5420,     4556,     6033
*SPRING, ELSET=WK_91

3.915786e-01
*ELEMENT, TYPE=SPRINGA, ELSET=WK_92
    5421,     4559,     6034
*SPRING, ELSET=WK_92

3.915786e-01
*ELEMENT, TYPE=SPRINGA, ELSET=WK_93
    5422,     4562,     6035
*SPRING, ELSET=WK_93

3.915786e-01
*ELEMENT, TYPE=SPRINGA, ELSET=WK_94
    5423,     4565,     6036
*SPRING, ELSET=WK_94

3.915786e-01
*ELEMENT, TYPE=SPRINGA, ELSET=WK_95
    5424,     4568,     6037
*SPRING, ELSET=WK_95

3.915786e-01
*ELEMENT, TYPE=SPRINGA, ELSET=WK_96
    5425,     4571,     6038
*SPRING, ELSET=WK_96

3.915786e-01
*ELEMENT, TYPE=SPRINGA, ELSET=WK_97
    5426,     4574,     6039
*SPRING, ELSET=WK_97

3.915786e-01
*ELEMENT, TYPE=SPRINGA, ELSET=WK_98
    5427,     4577,     6040
*SPRING, ELSET=WK_98

3.915786e-01
*ELEMENT, TYPE=SPRINGA, ELSET=WK_99
    5428,     4580,     6041
*SPRING, ELSET=WK_99

3.915786e-01
*ELEMENT, TYPE=SPRINGA, ELSET=WK_100
    5429,     4583,     6042
*SPRING, ELSET=WK_100

3.915786e-01
*ELEMENT, TYPE=SPRINGA, ELSET=WK_101
    5430,     4586,     6043
*SPRING, ELSET=WK_101

3.915786e-01
*ELEMENT, TYPE=SPRINGA, ELSET=WK_102
    5431,     4589,     6044
*SPRING, ELSET=WK_102

3.915786e-01
*ELEMENT, TYPE=SPRINGA, ELSET=WK_103
    5432,     4592,     6045
*SPRING, ELSET=WK_103

3.915786e-01
*ELEMENT, TYPE=SPRINGA, ELSET=WK_104
    5433,     4595,     6046
*SPRING, ELSET=WK_104

3.915786e-01
*ELEMENT, TYPE=SPRINGA, ELSET=WK_105
    5434,     4598,     6047
*SPRING, ELSET=WK_105

3.915786e-01
*ELEMENT, TYPE=SPRINGA, ELSET=WK_106
    5435,     4601,     6048
*SPRING, ELSET=WK_106

3.915786e-01
*ELEMENT, TYPE=SPRINGA, ELSET=WK_107
    5436,     4604,     6049
*SPRING, ELSET=WK_107

3.915786e-01
*ELEMENT, TYPE=SPRINGA, ELSET=WK_108
    5437,     4607,     6050
*SPRING, ELSET=WK_108

3.915786e-01
*ELEMENT, TYPE=SPRINGA, ELSET=WK_109
    5438,     4610,     6051
*SPRING, ELSET=WK_109

3.915786e-01
*ELEMENT, TYPE=SPRINGA, ELSET=WK_110
    5439,     4613,     6052
*SPRING, ELSET=WK_110

3.915786e-01
*ELEMENT, TYPE=SPRINGA, ELSET=WK_111
    5440,     4616,     6053
*SPRING, ELSET=WK_111

3.915786e-01
*ELEMENT, TYPE=SPRINGA, ELSET=WK_112
    5441,     4619,     6054
*SPRING, ELSET=WK_112

3.915786e-01
*ELEMENT, TYPE=SPRINGA, ELSET=WK_113
    5442,     4622,     6055
*SPRING, ELSET=WK_113

3.915786e-01
*ELEMENT, TYPE=SPRINGA, ELSET=WK_114
    5443,     4625,     6056
*SPRING, ELSET=WK_114

3.915786e-01
*ELEMENT, TYPE=SPRINGA, ELSET=WK_115
    5444,     4628,     6057
*SPRING, ELSET=WK_115

3.915786e-01
*ELEMENT, TYPE=SPRINGA, ELSET=WK_116
    5445,     4631,     6058
*SPRING, ELSET=WK_116

3.915786e-01
*ELEMENT, TYPE=SPRINGA, ELSET=WK_117
    5446,     4634,     6059
*SPRING, ELSET=WK_117

3.915786e-01
*ELEMENT, TYPE=SPRINGA, ELSET=WK_118
    5447,     4637,     6060
*SPRING, ELSET=WK_118

3.915786e-01
*ELEMENT, TYPE=SPRINGA, ELSET=WK_119
    5448,     4640,     6061
*SPRING, ELSET=WK_119

3.915786e-01
*ELEMENT, TYPE=SPRINGA, ELSET=WK_120
    5449,     4643,     6062
*SPRING, ELSET=WK_120

3.915786e-01
*ELEMENT, TYPE=SPRINGA, ELSET=WK_121
    5450,     4646,     6063
*SPRING, ELSET=WK_121

3.915786e-01
*ELEMENT, TYPE=SPRINGA, ELSET=WK_122
    5451,     4649,     6064
*SPRING, ELSET=WK_122

1.957893e-01
*ELEMENT, TYPE=SPRINGA, ELSET=WK_123
    5452,     4652,     6065
*SPRING, ELSET=WK_123

1.957893e-01
*ELEMENT, TYPE=SPRINGA, ELSET=WK_124
    5453,     4655,     6066
*SPRING, ELSET=WK_124

1.957893e-01
*ELEMENT, TYPE=SPRINGA, ELSET=WK_125
    5454,     4658,     6067
*SPRING, ELSET=WK_125

1.957893e-01
*ELEMENT, TYPE=SPRINGA, ELSET=WK_126
    5455,     4661,     6068
*SPRING, ELSET=WK_126

1.957893e-01
*ELEMENT, TYPE=SPRINGA, ELSET=WK_127
    5456,     4664,     6069
*SPRING, ELSET=WK_127

1.957893e-01
*ELEMENT, TYPE=SPRINGA, ELSET=WK_128
    5457,     4667,     6070
*SPRING, ELSET=WK_128

1.957893e-01
*ELEMENT, TYPE=SPRINGA, ELSET=WK_129
    5458,     4670,     6071
*SPRING, ELSET=WK_129

1.957893e-01
*ELEMENT, TYPE=SPRINGA, ELSET=WK_130
    5459,     4673,     6072
*SPRING, ELSET=WK_130

1.957893e-01
*ELEMENT, TYPE=SPRINGA, ELSET=WK_131
    5460,     4676,     6073
*SPRING, ELSET=WK_131

1.957893e-01
*ELEMENT, TYPE=SPRINGA, ELSET=WK_132
    5461,     4679,     6074
*SPRING, ELSET=WK_132

1.957893e-01
*ELEMENT, TYPE=SPRINGA, ELSET=WK_133
    5462,     4682,     6075
*SPRING, ELSET=WK_133

1.957893e-01
*ELEMENT, TYPE=SPRINGA, ELSET=WK_134
    5463,     4685,     6076
*SPRING, ELSET=WK_134

3.915786e-01
*ELEMENT, TYPE=SPRINGA, ELSET=WK_135
    5464,     4688,     6077
*SPRING, ELSET=WK_135

3.915786e-01
*ELEMENT, TYPE=SPRINGA, ELSET=WK_136
    5465,     4691,     6078
*SPRING, ELSET=WK_136

3.915786e-01
*ELEMENT, TYPE=SPRINGA, ELSET=WK_137
    5466,     4694,     6079
*SPRING, ELSET=WK_137

3.915786e-01
*ELEMENT, TYPE=SPRINGA, ELSET=WK_138
    5467,     4697,     6080
*SPRING, ELSET=WK_138

3.915786e-01
*ELEMENT, TYPE=SPRINGA, ELSET=WK_139
    5468,     4700,     6081
*SPRING, ELSET=WK_139

3.915786e-01
*ELEMENT, TYPE=SPRINGA, ELSET=WK_140
    5469,     4703,     6082
*SPRING, ELSET=WK_140

3.915786e-01
*ELEMENT, TYPE=SPRINGA, ELSET=WK_141
    5470,     4706,     6083
*SPRING, ELSET=WK_141

3.915786e-01
*ELEMENT, TYPE=SPRINGA, ELSET=WK_142
    5471,     4709,     6084
*SPRING, ELSET=WK_142

3.915786e-01
*ELEMENT, TYPE=SPRINGA, ELSET=WK_143
    5472,     4712,     6085
*SPRING, ELSET=WK_143

3.915786e-01
*ELEMENT, TYPE=SPRINGA, ELSET=WK_144
    5473,     4715,     6086
*SPRING, ELSET=WK_144

3.915786e-01
*ELEMENT, TYPE=SPRINGA, ELSET=WK_145
    5474,     4718,     6087
*SPRING, ELSET=WK_145

3.915786e-01
*ELEMENT, TYPE=SPRINGA, ELSET=WK_146
    5475,     4721,     6088
*SPRING, ELSET=WK_146

3.915786e-01
*ELEMENT, TYPE=SPRINGA, ELSET=WK_147
    5476,     4724,     6089
*SPRING, ELSET=WK_147

3.915786e-01
*ELEMENT, TYPE=SPRINGA, ELSET=WK_148
    5477,     4727,     6090
*SPRING, ELSET=WK_148

3.915786e-01
*ELEMENT, TYPE=SPRINGA, ELSET=WK_149
    5478,     4730,     6091
*SPRING, ELSET=WK_149

3.915786e-01
*ELEMENT, TYPE=SPRINGA, ELSET=WK_150
    5479,     4733,     6092
*SPRING, ELSET=WK_150

3.915786e-01
*ELEMENT, TYPE=SPRINGA, ELSET=WK_151
    5480,     4736,     6093
*SPRING, ELSET=WK_151

3.915786e-01
*ELEMENT, TYPE=SPRINGA, ELSET=WK_152
    5481,     4739,     6094
*SPRING, ELSET=WK_152

3.915786e-01
*ELEMENT, TYPE=SPRINGA, ELSET=WK_153
    5482,     4742,     6095
*SPRING, ELSET=WK_153

3.915786e-01
*ELEMENT, TYPE=SPRINGA, ELSET=WK_154
    5483,     4745,     6096
*SPRING, ELSET=WK_154

3.915786e-01
*ELEMENT, TYPE=SPRINGA, ELSET=WK_155
    5484,     4748,     6097
*SPRING, ELSET=WK_155

3.915786e-01
*ELEMENT, TYPE=SPRINGA, ELSET=WK_156
    5485,     4751,     6098
*SPRING, ELSET=WK_156

3.915786e-01
*ELEMENT, TYPE=SPRINGA, ELSET=WK_157
    5486,     4754,     6099
*SPRING, ELSET=WK_157

3.915786e-01
*ELEMENT, TYPE=SPRINGA, ELSET=WK_158
    5487,     4757,     6100
*SPRING, ELSET=WK_158

3.915786e-01
*ELEMENT, TYPE=SPRINGA, ELSET=WK_159
    5488,     4760,     6101
*SPRING, ELSET=WK_159

3.915786e-01
*ELEMENT, TYPE=SPRINGA, ELSET=WK_160
    5489,     4763,     6102
*SPRING, ELSET=WK_160

3.915786e-01
*ELEMENT, TYPE=SPRINGA, ELSET=WK_161
    5490,     4766,     6103
*SPRING, ELSET=WK_161

3.915786e-01
*ELEMENT, TYPE=SPRINGA, ELSET=WK_162
    5491,     4769,     6104
*SPRING, ELSET=WK_162

3.915786e-01
*ELEMENT, TYPE=SPRINGA, ELSET=WK_163
    5492,     4772,     6105
*SPRING, ELSET=WK_163

3.915786e-01
*ELEMENT, TYPE=SPRINGA, ELSET=WK_164
    5493,     4775,     6106
*SPRING, ELSET=WK_164

3.915786e-01
*ELEMENT, TYPE=SPRINGA, ELSET=WK_165
    5494,     4778,     6107
*SPRING, ELSET=WK_165

3.915786e-01
*ELEMENT, TYPE=SPRINGA, ELSET=WK_166
    5495,     4781,     6108
*SPRING, ELSET=WK_166

3.915786e-01
*ELEMENT, TYPE=SPRINGA, ELSET=WK_167
    5496,     4784,     6109
*SPRING, ELSET=WK_167

3.915786e-01
*ELEMENT, TYPE=SPRINGA, ELSET=WK_168
    5497,     4787,     6110
*SPRING, ELSET=WK_168

3.915786e-01
*ELEMENT, TYPE=SPRINGA, ELSET=WK_169
    5498,     4790,     6111
*SPRING, ELSET=WK_169

3.915786e-01
*ELEMENT, TYPE=SPRINGA, ELSET=WK_170
    5499,     4793,     6112
*SPRING, ELSET=WK_170

3.915786e-01
*ELEMENT, TYPE=SPRINGA, ELSET=WK_171
    5500,     4796,     6113
*SPRING, ELSET=WK_171

3.915786e-01
*ELEMENT, TYPE=SPRINGA, ELSET=WK_172
    5501,     4799,     6114
*SPRING, ELSET=WK_172

3.915786e-01
*ELEMENT, TYPE=SPRINGA, ELSET=WK_173
    5502,     4802,     6115
*SPRING, ELSET=WK_173

3.915786e-01
*ELEMENT, TYPE=SPRINGA, ELSET=WK_174
    5503,     4805,     6116
*SPRING, ELSET=WK_174

3.915786e-01
*ELEMENT, TYPE=SPRINGA, ELSET=WK_175
    5504,     4808,     6117
*SPRING, ELSET=WK_175

3.915786e-01
*ELEMENT, TYPE=SPRINGA, ELSET=WK_176
    5505,     4811,     6118
*SPRING, ELSET=WK_176

3.915786e-01
*ELEMENT, TYPE=SPRINGA, ELSET=WK_177
    5506,     4814,     6119
*SPRING, ELSET=WK_177

3.915786e-01
*ELEMENT, TYPE=SPRINGA, ELSET=WK_178
    5507,     4817,     6120
*SPRING, ELSET=WK_178

3.915786e-01
*ELEMENT, TYPE=SPRINGA, ELSET=WK_179
    5508,     4820,     6121
*SPRING, ELSET=WK_179

3.915786e-01
*ELEMENT, TYPE=SPRINGA, ELSET=WK_180
    5509,     4823,     6122
*SPRING, ELSET=WK_180

3.915786e-01
*ELEMENT, TYPE=SPRINGA, ELSET=WK_181
    5510,     4826,     6123
*SPRING, ELSET=WK_181

3.915786e-01
*ELEMENT, TYPE=SPRINGA, ELSET=WK_182
    5511,     4829,     6124
*SPRING, ELSET=WK_182

3.915786e-01
*ELEMENT, TYPE=SPRINGA, ELSET=WK_183
    5512,     4832,     6125
*SPRING, ELSET=WK_183

3.915786e-01
*ELEMENT, TYPE=SPRINGA, ELSET=WK_184
    5513,     4835,     6126
*SPRING, ELSET=WK_184

3.915786e-01
*ELEMENT, TYPE=SPRINGA, ELSET=WK_185
    5514,     4838,     6127
*SPRING, ELSET=WK_185

3.915786e-01
*ELEMENT, TYPE=SPRINGA, ELSET=WK_186
    5515,     4841,     6128
*SPRING, ELSET=WK_186

3.915786e-01
*ELEMENT, TYPE=SPRINGA, ELSET=WK_187
    5516,     4844,     6129
*SPRING, ELSET=WK_187

3.915786e-01
*ELEMENT, TYPE=SPRINGA, ELSET=WK_188
    5517,     4847,     6130
*SPRING, ELSET=WK_188

1.957893e-01
*ELEMENT, TYPE=SPRINGA, ELSET=WK_189
    5518,     4850,     6131
*SPRING, ELSET=WK_189

1.957893e-01
*ELEMENT, TYPE=SPRINGA, ELSET=WK_190
    5519,     4853,     6132
*SPRING, ELSET=WK_190

1.957893e-01
*ELEMENT, TYPE=SPRINGA, ELSET=WK_191
    5520,     4856,     6133
*SPRING, ELSET=WK_191

1.957893e-01
*ELEMENT, TYPE=SPRINGA, ELSET=WK_192
    5521,     4859,     6134
*SPRING, ELSET=WK_192

1.957893e-01
*ELEMENT, TYPE=SPRINGA, ELSET=WK_193
    5522,     4862,     6135
*SPRING, ELSET=WK_193

1.957893e-01
*ELEMENT, TYPE=SPRINGA, ELSET=WK_194
    5523,     4865,     6136
*SPRING, ELSET=WK_194

1.957893e-01
*ELEMENT, TYPE=SPRINGA, ELSET=WK_195
    5524,     4868,     6137
*SPRING, ELSET=WK_195

1.957893e-01
*ELEMENT, TYPE=SPRINGA, ELSET=WK_196
    5525,     4871,     6138
*SPRING, ELSET=WK_196

1.957893e-01
*ELEMENT, TYPE=SPRINGA, ELSET=WK_197
    5526,     4874,     6139
*SPRING, ELSET=WK_197

1.957893e-01
*ELEMENT, TYPE=SPRINGA, ELSET=WK_198
    5527,     4877,     6140
*SPRING, ELSET=WK_198

1.957893e-01
*ELEMENT, TYPE=SPRINGA, ELSET=WK_199
    5528,     4880,     6141
*SPRING, ELSET=WK_199

3.915786e-01
*ELEMENT, TYPE=SPRINGA, ELSET=WK_200
    5529,     4883,     6142
*SPRING, ELSET=WK_200

3.915786e-01
*ELEMENT, TYPE=SPRINGA, ELSET=WK_201
    5530,     4886,     6143
*SPRING, ELSET=WK_201

3.915786e-01
*ELEMENT, TYPE=SPRINGA, ELSET=WK_202
    5531,     4889,     6144
*SPRING, ELSET=WK_202

3.915786e-01
*ELEMENT, TYPE=SPRINGA, ELSET=WK_203
    5532,     4892,     6145
*SPRING, ELSET=WK_203

3.915786e-01
*ELEMENT, TYPE=SPRINGA, ELSET=WK_204
    5533,     4895,     6146
*SPRING, ELSET=WK_204

3.915786e-01
*ELEMENT, TYPE=SPRINGA, ELSET=WK_205
    5534,     4898,     6147
*SPRING, ELSET=WK_205

3.915786e-01
*ELEMENT, TYPE=SPRINGA, ELSET=WK_206
    5535,     4901,     6148
*SPRING, ELSET=WK_206

3.915786e-01
*ELEMENT, TYPE=SPRINGA, ELSET=WK_207
    5536,     4904,     6149
*SPRING, ELSET=WK_207

3.915786e-01
*ELEMENT, TYPE=SPRINGA, ELSET=WK_208
    5537,     4907,     6150
*SPRING, ELSET=WK_208

3.915786e-01
*ELEMENT, TYPE=SPRINGA, ELSET=WK_209
    5538,     4910,     6151
*SPRING, ELSET=WK_209

3.915786e-01
*ELEMENT, TYPE=SPRINGA, ELSET=WK_210
    5539,     4913,     6152
*SPRING, ELSET=WK_210

3.915786e-01
*ELEMENT, TYPE=SPRINGA, ELSET=WK_211
    5540,     4916,     6153
*SPRING, ELSET=WK_211

3.915786e-01
*ELEMENT, TYPE=SPRINGA, ELSET=WK_212
    5541,     4919,     6154
*SPRING, ELSET=WK_212

3.915786e-01
*ELEMENT, TYPE=SPRINGA, ELSET=WK_213
    5542,     4922,     6155
*SPRING, ELSET=WK_213

3.915786e-01
*ELEMENT, TYPE=SPRINGA, ELSET=WK_214
    5543,     4925,     6156
*SPRING, ELSET=WK_214

3.915786e-01
*ELEMENT, TYPE=SPRINGA, ELSET=WK_215
    5544,     4928,     6157
*SPRING, ELSET=WK_215

3.915786e-01
*ELEMENT, TYPE=SPRINGA, ELSET=WK_216
    5545,     4931,     6158
*SPRING, ELSET=WK_216

3.915786e-01
*ELEMENT, TYPE=SPRINGA, ELSET=WK_217
    5546,     4934,     6159
*SPRING, ELSET=WK_217

3.915786e-01
*ELEMENT, TYPE=SPRINGA, ELSET=WK_218
    5547,     4937,     6160
*SPRING, ELSET=WK_218

3.915786e-01
*ELEMENT, TYPE=SPRINGA, ELSET=WK_219
    5548,     4940,     6161
*SPRING, ELSET=WK_219

3.915786e-01
*ELEMENT, TYPE=SPRINGA, ELSET=WK_220
    5549,     4943,     6162
*SPRING, ELSET=WK_220

3.915786e-01
*ELEMENT, TYPE=SPRINGA, ELSET=WK_221
    5550,     4946,     6163
*SPRING, ELSET=WK_221

3.915786e-01
*ELEMENT, TYPE=SPRINGA, ELSET=WK_222
    5551,     4949,     6164
*SPRING, ELSET=WK_222

3.915786e-01
*ELEMENT, TYPE=SPRINGA, ELSET=WK_223
    5552,     4952,     6165
*SPRING, ELSET=WK_223

3.915786e-01
*ELEMENT, TYPE=SPRINGA, ELSET=WK_224
    5553,     4955,     6166
*SPRING, ELSET=WK_224

3.915786e-01
*ELEMENT, TYPE=SPRINGA, ELSET=WK_225
    5554,     4958,     6167
*SPRING, ELSET=WK_225

3.915786e-01
*ELEMENT, TYPE=SPRINGA, ELSET=WK_226
    5555,     4961,     6168
*SPRING, ELSET=WK_226

3.915786e-01
*ELEMENT, TYPE=SPRINGA, ELSET=WK_227
    5556,     4964,     6169
*SPRING, ELSET=WK_227

3.915786e-01
*ELEMENT, TYPE=SPRINGA, ELSET=WK_228
    5557,     4967,     6170
*SPRING, ELSET=WK_228

3.915786e-01
*ELEMENT, TYPE=SPRINGA, ELSET=WK_229
    5558,     4970,     6171
*SPRING, ELSET=WK_229

3.915786e-01
*ELEMENT, TYPE=SPRINGA, ELSET=WK_230
    5559,     4973,     6172
*SPRING, ELSET=WK_230

3.915786e-01
*ELEMENT, TYPE=SPRINGA, ELSET=WK_231
    5560,     4976,     6173
*SPRING, ELSET=WK_231

3.915786e-01
*ELEMENT, TYPE=SPRINGA, ELSET=WK_232
    5561,     4979,     6174
*SPRING, ELSET=WK_232

3.915786e-01
*ELEMENT, TYPE=SPRINGA, ELSET=WK_233
    5562,     4982,     6175
*SPRING, ELSET=WK_233

3.915786e-01
*ELEMENT, TYPE=SPRINGA, ELSET=WK_234
    5563,     4985,     6176
*SPRING, ELSET=WK_234

3.915786e-01
*ELEMENT, TYPE=SPRINGA, ELSET=WK_235
    5564,     4988,     6177
*SPRING, ELSET=WK_235

3.915786e-01
*ELEMENT, TYPE=SPRINGA, ELSET=WK_236
    5565,     4991,     6178
*SPRING, ELSET=WK_236

3.915786e-01
*ELEMENT, TYPE=SPRINGA, ELSET=WK_237
    5566,     4994,     6179
*SPRING, ELSET=WK_237

3.915786e-01
*ELEMENT, TYPE=SPRINGA, ELSET=WK_238
    5567,     4997,     6180
*SPRING, ELSET=WK_238

3.915786e-01
*ELEMENT, TYPE=SPRINGA, ELSET=WK_239
    5568,     5000,     6181
*SPRING, ELSET=WK_239

3.915786e-01
*ELEMENT, TYPE=SPRINGA, ELSET=WK_240
    5569,     5003,     6182
*SPRING, ELSET=WK_240

3.915786e-01
*ELEMENT, TYPE=SPRINGA, ELSET=WK_241
    5570,     5006,     6183
*SPRING, ELSET=WK_241

3.915786e-01
*ELEMENT, TYPE=SPRINGA, ELSET=WK_242
    5571,     5009,     6184
*SPRING, ELSET=WK_242

3.915786e-01
*ELEMENT, TYPE=SPRINGA, ELSET=WK_243
    5572,     5012,     6185
*SPRING, ELSET=WK_243

3.915786e-01
*ELEMENT, TYPE=SPRINGA, ELSET=WK_244
    5573,     5015,     6186
*SPRING, ELSET=WK_244

1.957893e-01
*ELEMENT, TYPE=SPRINGA, ELSET=WK_245
    5574,     5018,     6187
*SPRING, ELSET=WK_245

1.957893e-01
*ELEMENT, TYPE=SPRINGA, ELSET=WK_246
    5575,     5021,     6188
*SPRING, ELSET=WK_246

1.957893e-01
*ELEMENT, TYPE=SPRINGA, ELSET=WK_247
    5576,     5024,     6189
*SPRING, ELSET=WK_247

1.957893e-01
*ELEMENT, TYPE=SPRINGA, ELSET=WK_248
    5577,     5027,     6190
*SPRING, ELSET=WK_248

1.957893e-01
*BOUNDARY
GHOST_WINKLER, 1, 3, 0
