** Winkler foundation springs em dura_outer (excluindo perturbation_strip)
** Gerado automaticamente por foam_polymesh_to_ccx_inp.py
** k_winkler = 2.000e+05 Pa/m, 1008 springs
*NODE, NSET=GHOST_WINKLER
   40226,  1.76847411e-03, -1.76847411e-03,  0.00000000e+00
   40227,  1.98417674e-03, -1.52251237e-03,  0.00000000e+00
   40228,  2.16592956e-03, -1.25050002e-03,  0.00000000e+00
   40229,  2.31062272e-03, -9.57091277e-04,  0.00000000e+00
   40230,  2.41578050e-03, -6.47306439e-04,  0.00000000e+00
   40231,  2.47960360e-03, -3.26446010e-04,  0.00000000e+00
   40232,  2.50100000e-03,  2.22133423e-19,  0.00000000e+00
   40233,  2.47960360e-03,  3.26446010e-04,  0.00000000e+00
   40234,  2.41578050e-03,  6.47306439e-04,  0.00000000e+00
   40235,  2.31062272e-03,  9.57091277e-04,  0.00000000e+00
   40236,  2.16592956e-03,  1.25050002e-03,  0.00000000e+00
   40237,  1.98417674e-03,  1.52251237e-03,  0.00000000e+00
   40238,  1.76847411e-03,  1.76847411e-03,  0.00000000e+00
   40239,  1.76847411e-03, -1.76847411e-03,  1.50000000e-03
   40240,  1.98417674e-03, -1.52251237e-03,  1.50000000e-03
   40241,  2.16592956e-03, -1.25050002e-03,  1.50000000e-03
   40242,  2.31062272e-03, -9.57091277e-04,  1.50000000e-03
   40243,  2.41578050e-03, -6.47306439e-04,  1.50000000e-03
   40244,  2.47960360e-03, -3.26446010e-04,  1.50000000e-03
   40245,  2.50100000e-03,  2.22133423e-19,  1.50000000e-03
   40246,  2.47960360e-03,  3.26446010e-04,  1.50000000e-03
   40247,  2.41578050e-03,  6.47306439e-04,  1.50000000e-03
   40248,  2.31062272e-03,  9.57091277e-04,  1.50000000e-03
   40249,  2.16592956e-03,  1.25050002e-03,  1.50000000e-03
   40250,  1.98417674e-03,  1.52251237e-03,  1.50000000e-03
   40251,  1.76847411e-03,  1.76847411e-03,  1.50000000e-03
   40252,  1.76847411e-03, -1.76847411e-03,  3.00000000e-03
   40253,  1.98417674e-03, -1.52251237e-03,  3.00000000e-03
   40254,  2.16592956e-03, -1.25050002e-03,  3.00000000e-03
   40255,  2.31062272e-03, -9.57091277e-04,  3.00000000e-03
   40256,  2.41578050e-03, -6.47306439e-04,  3.00000000e-03
   40257,  2.47960360e-03, -3.26446010e-04,  3.00000000e-03
   40258,  2.50100000e-03,  2.22133423e-19,  3.00000000e-03
   40259,  2.47960360e-03,  3.26446010e-04,  3.00000000e-03
   40260,  2.41578050e-03,  6.47306439e-04,  3.00000000e-03
   40261,  2.31062272e-03,  9.57091277e-04,  3.00000000e-03
   40262,  2.16592956e-03,  1.25050002e-03,  3.00000000e-03
   40263,  1.98417674e-03,  1.52251237e-03,  3.00000000e-03
   40264,  1.76847411e-03,  1.76847411e-03,  3.00000000e-03
   40265,  1.76847411e-03, -1.76847411e-03,  4.50000000e-03
   40266,  1.98417674e-03, -1.52251237e-03,  4.50000000e-03
   40267,  2.16592956e-03, -1.25050002e-03,  4.50000000e-03
   40268,  2.31062272e-03, -9.57091277e-04,  4.50000000e-03
   40269,  2.41578050e-03, -6.47306439e-04,  4.50000000e-03
   40270,  2.47960360e-03, -3.26446010e-04,  4.50000000e-03
   40271,  2.50100000e-03,  2.22133423e-19,  4.50000000e-03
   40272,  2.47960360e-03,  3.26446010e-04,  4.50000000e-03
   40273,  2.41578050e-03,  6.47306439e-04,  4.50000000e-03
   40274,  2.31062272e-03,  9.57091277e-04,  4.50000000e-03
   40275,  2.16592956e-03,  1.25050002e-03,  4.50000000e-03
   40276,  1.98417674e-03,  1.52251237e-03,  4.50000000e-03
   40277,  1.76847411e-03,  1.76847411e-03,  4.50000000e-03
   40278,  1.76847411e-03, -1.76847411e-03,  6.00000000e-03
   40279,  1.98417674e-03, -1.52251237e-03,  6.00000000e-03
   40280,  2.16592956e-03, -1.25050002e-03,  6.00000000e-03
   40281,  2.31062272e-03, -9.57091277e-04,  6.00000000e-03
   40282,  2.41578050e-03, -6.47306439e-04,  6.00000000e-03
   40283,  2.47960360e-03, -3.26446010e-04,  6.00000000e-03
   40284,  2.50100000e-03,  2.22133423e-19,  6.00000000e-03
   40285,  2.47960360e-03,  3.26446010e-04,  6.00000000e-03
   40286,  2.41578050e-03,  6.47306439e-04,  6.00000000e-03
   40287,  2.31062272e-03,  9.57091277e-04,  6.00000000e-03
   40288,  2.16592956e-03,  1.25050002e-03,  6.00000000e-03
   40289,  1.98417674e-03,  1.52251237e-03,  6.00000000e-03
   40290,  1.76847411e-03,  1.76847411e-03,  6.00000000e-03
   40291,  1.76847411e-03, -1.76847411e-03,  7.50000000e-03
   40292,  1.98417674e-03, -1.52251237e-03,  7.50000000e-03
   40293,  2.16592956e-03, -1.25050002e-03,  7.50000000e-03
   40294,  2.31062272e-03, -9.57091277e-04,  7.50000000e-03
   40295,  2.41578050e-03, -6.47306439e-04,  7.50000000e-03
   40296,  2.47960360e-03, -3.26446010e-04,  7.50000000e-03
   40297,  2.50100000e-03,  2.22133423e-19,  7.50000000e-03
   40298,  2.47960360e-03,  3.26446010e-04,  7.50000000e-03
   40299,  2.41578050e-03,  6.47306439e-04,  7.50000000e-03
   40300,  2.31062272e-03,  9.57091277e-04,  7.50000000e-03
   40301,  2.16592956e-03,  1.25050002e-03,  7.50000000e-03
   40302,  1.98417674e-03,  1.52251237e-03,  7.50000000e-03
   40303,  1.76847411e-03,  1.76847411e-03,  7.50000000e-03
   40304,  1.76847411e-03, -1.76847411e-03,  9.00000000e-03
   40305,  1.98417674e-03, -1.52251237e-03,  9.00000000e-03
   40306,  2.16592956e-03, -1.25050002e-03,  9.00000000e-03
   40307,  2.31062272e-03, -9.57091277e-04,  9.00000000e-03
   40308,  2.41578050e-03, -6.47306439e-04,  9.00000000e-03
   40309,  2.47960360e-03, -3.26446010e-04,  9.00000000e-03
   40310,  2.50100000e-03,  2.22133423e-19,  9.00000000e-03
   40311,  2.47960360e-03,  3.26446010e-04,  9.00000000e-03
   40312,  2.41578050e-03,  6.47306439e-04,  9.00000000e-03
   40313,  2.31062272e-03,  9.57091277e-04,  9.00000000e-03
   40314,  2.16592956e-03,  1.25050002e-03,  9.00000000e-03
   40315,  1.98417674e-03,  1.52251237e-03,  9.00000000e-03
   40316,  1.76847411e-03,  1.76847411e-03,  9.00000000e-03
   40317,  1.76847411e-03, -1.76847411e-03,  1.05000000e-02
   40318,  1.98417674e-03, -1.52251237e-03,  1.05000000e-02
   40319,  2.16592956e-03, -1.25050002e-03,  1.05000000e-02
   40320,  2.31062272e-03, -9.57091277e-04,  1.05000000e-02
   40321,  2.41578050e-03, -6.47306439e-04,  1.05000000e-02
   40322,  2.47960360e-03, -3.26446010e-04,  1.05000000e-02
   40323,  2.50100000e-03,  2.22133423e-19,  1.05000000e-02
   40324,  2.47960360e-03,  3.26446010e-04,  1.05000000e-02
   40325,  2.41578050e-03,  6.47306439e-04,  1.05000000e-02
   40326,  2.31062272e-03,  9.57091277e-04,  1.05000000e-02
   40327,  2.16592956e-03,  1.25050002e-03,  1.05000000e-02
   40328,  1.98417674e-03,  1.52251237e-03,  1.05000000e-02
   40329,  1.76847411e-03,  1.76847411e-03,  1.05000000e-02
   40330,  1.76847411e-03, -1.76847411e-03,  1.20000000e-02
   40331,  1.98417674e-03, -1.52251237e-03,  1.20000000e-02
   40332,  2.16592956e-03, -1.25050002e-03,  1.20000000e-02
   40333,  2.31062272e-03, -9.57091277e-04,  1.20000000e-02
   40334,  2.41578050e-03, -6.47306439e-04,  1.20000000e-02
   40335,  2.47960360e-03, -3.26446010e-04,  1.20000000e-02
   40336,  2.50100000e-03,  2.22133423e-19,  1.20000000e-02
   40337,  2.47960360e-03,  3.26446010e-04,  1.20000000e-02
   40338,  2.41578050e-03,  6.47306439e-04,  1.20000000e-02
   40339,  2.31062272e-03,  9.57091277e-04,  1.20000000e-02
   40340,  2.16592956e-03,  1.25050002e-03,  1.20000000e-02
   40341,  1.98417674e-03,  1.52251237e-03,  1.20000000e-02
   40342,  1.76847411e-03,  1.76847411e-03,  1.20000000e-02
   40343,  1.76847411e-03, -1.76847411e-03,  1.35000000e-02
   40344,  1.98417674e-03, -1.52251237e-03,  1.35000000e-02
   40345,  2.16592956e-03, -1.25050002e-03,  1.35000000e-02
   40346,  2.31062272e-03, -9.57091277e-04,  1.35000000e-02
   40347,  2.41578050e-03, -6.47306439e-04,  1.35000000e-02
   40348,  2.47960360e-03, -3.26446010e-04,  1.35000000e-02
   40349,  2.50100000e-03,  2.22133423e-19,  1.35000000e-02
   40350,  2.47960360e-03,  3.26446010e-04,  1.35000000e-02
   40351,  2.41578050e-03,  6.47306439e-04,  1.35000000e-02
   40352,  2.31062272e-03,  9.57091277e-04,  1.35000000e-02
   40353,  2.16592956e-03,  1.25050002e-03,  1.35000000e-02
   40354,  1.98417674e-03,  1.52251237e-03,  1.35000000e-02
   40355,  1.76847411e-03,  1.76847411e-03,  1.35000000e-02
   40356,  1.76847411e-03, -1.76847411e-03,  1.50000000e-02
   40357,  1.98417674e-03, -1.52251237e-03,  1.50000000e-02
   40358,  2.16592956e-03, -1.25050002e-03,  1.50000000e-02
   40359,  2.31062272e-03, -9.57091277e-04,  1.50000000e-02
   40360,  2.41578050e-03, -6.47306439e-04,  1.50000000e-02
   40361,  2.47960360e-03, -3.26446010e-04,  1.50000000e-02
   40362,  2.50100000e-03,  2.22133423e-19,  1.50000000e-02
   40363,  2.47960360e-03,  3.26446010e-04,  1.50000000e-02
   40364,  2.41578050e-03,  6.47306439e-04,  1.50000000e-02
   40365,  2.31062272e-03,  9.57091277e-04,  1.50000000e-02
   40366,  2.16592956e-03,  1.25050002e-03,  1.50000000e-02
   40367,  1.98417674e-03,  1.52251237e-03,  1.50000000e-02
   40368,  1.76847411e-03,  1.76847411e-03,  1.50000000e-02
   40369,  1.76847411e-03, -1.76847411e-03,  1.65000000e-02
   40370,  1.98417674e-03, -1.52251237e-03,  1.65000000e-02
   40371,  2.16592956e-03, -1.25050002e-03,  1.65000000e-02
   40372,  2.31062272e-03, -9.57091277e-04,  1.65000000e-02
   40373,  2.41578050e-03, -6.47306439e-04,  1.65000000e-02
   40374,  2.47960360e-03, -3.26446010e-04,  1.65000000e-02
   40375,  2.50100000e-03,  2.22133423e-19,  1.65000000e-02
   40376,  2.47960360e-03,  3.26446010e-04,  1.65000000e-02
   40377,  2.41578050e-03,  6.47306439e-04,  1.65000000e-02
   40378,  2.31062272e-03,  9.57091277e-04,  1.65000000e-02
   40379,  2.16592956e-03,  1.25050002e-03,  1.65000000e-02
   40380,  1.98417674e-03,  1.52251237e-03,  1.65000000e-02
   40381,  1.76847411e-03,  1.76847411e-03,  1.65000000e-02
   40382,  1.76847411e-03, -1.76847411e-03,  1.80000000e-02
   40383,  1.98417674e-03, -1.52251237e-03,  1.80000000e-02
   40384,  2.16592956e-03, -1.25050002e-03,  1.80000000e-02
   40385,  2.31062272e-03, -9.57091277e-04,  1.80000000e-02
   40386,  2.41578050e-03, -6.47306439e-04,  1.80000000e-02
   40387,  2.47960360e-03, -3.26446010e-04,  1.80000000e-02
   40388,  2.50100000e-03,  2.22133423e-19,  1.80000000e-02
   40389,  2.47960360e-03,  3.26446010e-04,  1.80000000e-02
   40390,  2.41578050e-03,  6.47306439e-04,  1.80000000e-02
   40391,  2.31062272e-03,  9.57091277e-04,  1.80000000e-02
   40392,  2.16592956e-03,  1.25050002e-03,  1.80000000e-02
   40393,  1.98417674e-03,  1.52251237e-03,  1.80000000e-02
   40394,  1.76847411e-03,  1.76847411e-03,  1.80000000e-02
   40395,  1.76847411e-03, -1.76847411e-03,  1.95000000e-02
   40396,  1.98417674e-03, -1.52251237e-03,  1.95000000e-02
   40397,  2.16592956e-03, -1.25050002e-03,  1.95000000e-02
   40398,  2.31062272e-03, -9.57091277e-04,  1.95000000e-02
   40399,  2.41578050e-03, -6.47306439e-04,  1.95000000e-02
   40400,  2.47960360e-03, -3.26446010e-04,  1.95000000e-02
   40401,  2.50100000e-03,  2.22133423e-19,  1.95000000e-02
   40402,  2.47960360e-03,  3.26446010e-04,  1.95000000e-02
   40403,  2.41578050e-03,  6.47306439e-04,  1.95000000e-02
   40404,  2.31062272e-03,  9.57091277e-04,  1.95000000e-02
   40405,  2.16592956e-03,  1.25050002e-03,  1.95000000e-02
   40406,  1.98417674e-03,  1.52251237e-03,  1.95000000e-02
   40407,  1.76847411e-03,  1.76847411e-03,  1.95000000e-02
   40408,  1.76847411e-03, -1.76847411e-03,  2.10000000e-02
   40409,  1.98417674e-03, -1.52251237e-03,  2.10000000e-02
   40410,  2.16592956e-03, -1.25050002e-03,  2.10000000e-02
   40411,  2.31062272e-03, -9.57091277e-04,  2.10000000e-02
   40412,  2.41578050e-03, -6.47306439e-04,  2.10000000e-02
   40413,  2.47960360e-03, -3.26446010e-04,  2.10000000e-02
   40414,  2.50100000e-03,  2.22133423e-19,  2.10000000e-02
   40415,  2.47960360e-03,  3.26446010e-04,  2.10000000e-02
   40416,  2.41578050e-03,  6.47306439e-04,  2.10000000e-02
   40417,  2.31062272e-03,  9.57091277e-04,  2.10000000e-02
   40418,  2.16592956e-03,  1.25050002e-03,  2.10000000e-02
   40419,  1.98417674e-03,  1.52251237e-03,  2.10000000e-02
   40420,  1.76847411e-03,  1.76847411e-03,  2.10000000e-02
   40421,  1.76847411e-03, -1.76847411e-03,  2.25000000e-02
   40422,  1.98417674e-03, -1.52251237e-03,  2.25000000e-02
   40423,  2.16592956e-03, -1.25050002e-03,  2.25000000e-02
   40424,  2.31062272e-03, -9.57091277e-04,  2.25000000e-02
   40425,  2.41578050e-03, -6.47306439e-04,  2.25000000e-02
   40426,  2.47960360e-03, -3.26446010e-04,  2.25000000e-02
   40427,  2.50100000e-03,  2.22133423e-19,  2.25000000e-02
   40428,  2.47960360e-03,  3.26446010e-04,  2.25000000e-02
   40429,  2.41578050e-03,  6.47306439e-04,  2.25000000e-02
   40430,  2.31062272e-03,  9.57091277e-04,  2.25000000e-02
   40431,  2.16592956e-03,  1.25050002e-03,  2.25000000e-02
   40432,  1.98417674e-03,  1.52251237e-03,  2.25000000e-02
   40433,  1.76847411e-03,  1.76847411e-03,  2.25000000e-02
   40434,  1.76847411e-03, -1.76847411e-03,  2.40000000e-02
   40435,  1.98417674e-03, -1.52251237e-03,  2.40000000e-02
   40436,  2.16592956e-03, -1.25050002e-03,  2.40000000e-02
   40437,  2.31062272e-03, -9.57091277e-04,  2.40000000e-02
   40438,  2.41578050e-03, -6.47306439e-04,  2.40000000e-02
   40439,  2.47960360e-03, -3.26446010e-04,  2.40000000e-02
   40440,  2.50100000e-03,  2.22133423e-19,  2.40000000e-02
   40441,  2.47960360e-03,  3.26446010e-04,  2.40000000e-02
   40442,  2.41578050e-03,  6.47306439e-04,  2.40000000e-02
   40443,  2.31062272e-03,  9.57091277e-04,  2.40000000e-02
   40444,  2.16592956e-03,  1.25050002e-03,  2.40000000e-02
   40445,  1.98417674e-03,  1.52251237e-03,  2.40000000e-02
   40446,  1.76847411e-03,  1.76847411e-03,  2.40000000e-02
   40447,  1.76847411e-03, -1.76847411e-03,  2.55000000e-02
   40448,  1.98417674e-03, -1.52251237e-03,  2.55000000e-02
   40449,  2.16592956e-03, -1.25050002e-03,  2.55000000e-02
   40450,  2.31062272e-03, -9.57091277e-04,  2.55000000e-02
   40451,  2.41578050e-03, -6.47306439e-04,  2.55000000e-02
   40452,  2.47960360e-03, -3.26446010e-04,  2.55000000e-02
   40453,  2.50100000e-03,  2.22133423e-19,  2.55000000e-02
   40454,  2.47960360e-03,  3.26446010e-04,  2.55000000e-02
   40455,  2.41578050e-03,  6.47306439e-04,  2.55000000e-02
   40456,  2.31062272e-03,  9.57091277e-04,  2.55000000e-02
   40457,  2.16592956e-03,  1.25050002e-03,  2.55000000e-02
   40458,  1.98417674e-03,  1.52251237e-03,  2.55000000e-02
   40459,  1.76847411e-03,  1.76847411e-03,  2.55000000e-02
   40460,  1.76847411e-03, -1.76847411e-03,  2.70000000e-02
   40461,  1.98417674e-03, -1.52251237e-03,  2.70000000e-02
   40462,  2.16592956e-03, -1.25050002e-03,  2.70000000e-02
   40463,  2.31062272e-03, -9.57091277e-04,  2.70000000e-02
   40464,  2.41578050e-03, -6.47306439e-04,  2.70000000e-02
   40465,  2.47960360e-03, -3.26446010e-04,  2.70000000e-02
   40466,  2.50100000e-03,  2.22133423e-19,  2.70000000e-02
   40467,  2.47960360e-03,  3.26446010e-04,  2.70000000e-02
   40468,  2.41578050e-03,  6.47306439e-04,  2.70000000e-02
   40469,  2.31062272e-03,  9.57091277e-04,  2.70000000e-02
   40470,  2.16592956e-03,  1.25050002e-03,  2.70000000e-02
   40471,  1.98417674e-03,  1.52251237e-03,  2.70000000e-02
   40472,  1.76847411e-03,  1.76847411e-03,  2.70000000e-02
   40473,  1.76847411e-03, -1.76847411e-03,  2.85000000e-02
   40474,  1.98417674e-03, -1.52251237e-03,  2.85000000e-02
   40475,  2.16592956e-03, -1.25050002e-03,  2.85000000e-02
   40476,  2.31062272e-03, -9.57091277e-04,  2.85000000e-02
   40477,  2.41578050e-03, -6.47306439e-04,  2.85000000e-02
   40478,  2.47960360e-03, -3.26446010e-04,  2.85000000e-02
   40479,  2.50100000e-03,  2.22133423e-19,  2.85000000e-02
   40480,  2.47960360e-03,  3.26446010e-04,  2.85000000e-02
   40481,  2.41578050e-03,  6.47306439e-04,  2.85000000e-02
   40482,  2.31062272e-03,  9.57091277e-04,  2.85000000e-02
   40483,  2.16592956e-03,  1.25050002e-03,  2.85000000e-02
   40484,  1.98417674e-03,  1.52251237e-03,  2.85000000e-02
   40485,  1.76847411e-03,  1.76847411e-03,  2.85000000e-02
   40486,  1.76847411e-03, -1.76847411e-03,  3.00000000e-02
   40487,  1.98417674e-03, -1.52251237e-03,  3.00000000e-02
   40488,  2.16592956e-03, -1.25050002e-03,  3.00000000e-02
   40489,  2.31062272e-03, -9.57091277e-04,  3.00000000e-02
   40490,  2.41578050e-03, -6.47306439e-04,  3.00000000e-02
   40491,  2.47960360e-03, -3.26446010e-04,  3.00000000e-02
   40492,  2.50100000e-03,  2.22133423e-19,  3.00000000e-02
   40493,  2.47960360e-03,  3.26446010e-04,  3.00000000e-02
   40494,  2.41578050e-03,  6.47306439e-04,  3.00000000e-02
   40495,  2.31062272e-03,  9.57091277e-04,  3.00000000e-02
   40496,  2.16592956e-03,  1.25050002e-03,  3.00000000e-02
   40497,  1.98417674e-03,  1.52251237e-03,  3.00000000e-02
   40498,  1.76847411e-03,  1.76847411e-03,  3.00000000e-02
   40499,  1.52251237e-03,  1.98417674e-03,  0.00000000e+00
   40500,  1.25050002e-03,  2.16592956e-03,  0.00000000e+00
   40501,  9.57091277e-04,  2.31062272e-03,  0.00000000e+00
   40502,  6.47306439e-04,  2.41578050e-03,  0.00000000e+00
   40503,  3.26446010e-04,  2.47960360e-03,  0.00000000e+00
   40504,  2.22133423e-19,  2.50100000e-03,  0.00000000e+00
   40505, -3.26446010e-04,  2.47960360e-03,  0.00000000e+00
   40506, -6.47306439e-04,  2.41578050e-03,  0.00000000e+00
   40507, -9.57091277e-04,  2.31062272e-03,  0.00000000e+00
   40508, -1.25050002e-03,  2.16592956e-03,  0.00000000e+00
   40509, -1.52251237e-03,  1.98417674e-03,  0.00000000e+00
   40510, -1.76847411e-03,  1.76847411e-03,  0.00000000e+00
   40511,  1.52251237e-03,  1.98417674e-03,  1.50000000e-03
   40512,  1.25050002e-03,  2.16592956e-03,  1.50000000e-03
   40513,  9.57091277e-04,  2.31062272e-03,  1.50000000e-03
   40514,  6.47306439e-04,  2.41578050e-03,  1.50000000e-03
   40515,  3.26446010e-04,  2.47960360e-03,  1.50000000e-03
   40516,  2.22133423e-19,  2.50100000e-03,  1.50000000e-03
   40517, -3.26446010e-04,  2.47960360e-03,  1.50000000e-03
   40518, -6.47306439e-04,  2.41578050e-03,  1.50000000e-03
   40519, -9.57091277e-04,  2.31062272e-03,  1.50000000e-03
   40520, -1.25050002e-03,  2.16592956e-03,  1.50000000e-03
   40521, -1.52251237e-03,  1.98417674e-03,  1.50000000e-03
   40522, -1.76847411e-03,  1.76847411e-03,  1.50000000e-03
   40523,  1.52251237e-03,  1.98417674e-03,  3.00000000e-03
   40524,  1.25050002e-03,  2.16592956e-03,  3.00000000e-03
   40525,  9.57091277e-04,  2.31062272e-03,  3.00000000e-03
   40526,  6.47306439e-04,  2.41578050e-03,  3.00000000e-03
   40527,  3.26446010e-04,  2.47960360e-03,  3.00000000e-03
   40528,  2.22133423e-19,  2.50100000e-03,  3.00000000e-03
   40529, -3.26446010e-04,  2.47960360e-03,  3.00000000e-03
   40530, -6.47306439e-04,  2.41578050e-03,  3.00000000e-03
   40531, -9.57091277e-04,  2.31062272e-03,  3.00000000e-03
   40532, -1.25050002e-03,  2.16592956e-03,  3.00000000e-03
   40533, -1.52251237e-03,  1.98417674e-03,  3.00000000e-03
   40534, -1.76847411e-03,  1.76847411e-03,  3.00000000e-03
   40535,  1.52251237e-03,  1.98417674e-03,  4.50000000e-03
   40536,  1.25050002e-03,  2.16592956e-03,  4.50000000e-03
   40537,  9.57091277e-04,  2.31062272e-03,  4.50000000e-03
   40538,  6.47306439e-04,  2.41578050e-03,  4.50000000e-03
   40539,  3.26446010e-04,  2.47960360e-03,  4.50000000e-03
   40540,  2.22133423e-19,  2.50100000e-03,  4.50000000e-03
   40541, -3.26446010e-04,  2.47960360e-03,  4.50000000e-03
   40542, -6.47306439e-04,  2.41578050e-03,  4.50000000e-03
   40543, -9.57091277e-04,  2.31062272e-03,  4.50000000e-03
   40544, -1.25050002e-03,  2.16592956e-03,  4.50000000e-03
   40545, -1.52251237e-03,  1.98417674e-03,  4.50000000e-03
   40546, -1.76847411e-03,  1.76847411e-03,  4.50000000e-03
   40547,  1.52251237e-03,  1.98417674e-03,  6.00000000e-03
   40548,  1.25050002e-03,  2.16592956e-03,  6.00000000e-03
   40549,  9.57091277e-04,  2.31062272e-03,  6.00000000e-03
   40550,  6.47306439e-04,  2.41578050e-03,  6.00000000e-03
   40551,  3.26446010e-04,  2.47960360e-03,  6.00000000e-03
   40552,  2.22133423e-19,  2.50100000e-03,  6.00000000e-03
   40553, -3.26446010e-04,  2.47960360e-03,  6.00000000e-03
   40554, -6.47306439e-04,  2.41578050e-03,  6.00000000e-03
   40555, -9.57091277e-04,  2.31062272e-03,  6.00000000e-03
   40556, -1.25050002e-03,  2.16592956e-03,  6.00000000e-03
   40557, -1.52251237e-03,  1.98417674e-03,  6.00000000e-03
   40558, -1.76847411e-03,  1.76847411e-03,  6.00000000e-03
   40559,  1.52251237e-03,  1.98417674e-03,  7.50000000e-03
   40560,  1.25050002e-03,  2.16592956e-03,  7.50000000e-03
   40561,  9.57091277e-04,  2.31062272e-03,  7.50000000e-03
   40562,  6.47306439e-04,  2.41578050e-03,  7.50000000e-03
   40563,  3.26446010e-04,  2.47960360e-03,  7.50000000e-03
   40564,  2.22133423e-19,  2.50100000e-03,  7.50000000e-03
   40565, -3.26446010e-04,  2.47960360e-03,  7.50000000e-03
   40566, -6.47306439e-04,  2.41578050e-03,  7.50000000e-03
   40567, -9.57091277e-04,  2.31062272e-03,  7.50000000e-03
   40568, -1.25050002e-03,  2.16592956e-03,  7.50000000e-03
   40569, -1.52251237e-03,  1.98417674e-03,  7.50000000e-03
   40570, -1.76847411e-03,  1.76847411e-03,  7.50000000e-03
   40571,  1.52251237e-03,  1.98417674e-03,  9.00000000e-03
   40572,  1.25050002e-03,  2.16592956e-03,  9.00000000e-03
   40573,  9.57091277e-04,  2.31062272e-03,  9.00000000e-03
   40574,  6.47306439e-04,  2.41578050e-03,  9.00000000e-03
   40575,  3.26446010e-04,  2.47960360e-03,  9.00000000e-03
   40576,  2.22133423e-19,  2.50100000e-03,  9.00000000e-03
   40577, -3.26446010e-04,  2.47960360e-03,  9.00000000e-03
   40578, -6.47306439e-04,  2.41578050e-03,  9.00000000e-03
   40579, -9.57091277e-04,  2.31062272e-03,  9.00000000e-03
   40580, -1.25050002e-03,  2.16592956e-03,  9.00000000e-03
   40581, -1.52251237e-03,  1.98417674e-03,  9.00000000e-03
   40582, -1.76847411e-03,  1.76847411e-03,  9.00000000e-03
   40583,  1.52251237e-03,  1.98417674e-03,  1.05000000e-02
   40584,  1.25050002e-03,  2.16592956e-03,  1.05000000e-02
   40585,  9.57091277e-04,  2.31062272e-03,  1.05000000e-02
   40586,  6.47306439e-04,  2.41578050e-03,  1.05000000e-02
   40587,  3.26446010e-04,  2.47960360e-03,  1.05000000e-02
   40588,  2.22133423e-19,  2.50100000e-03,  1.05000000e-02
   40589, -3.26446010e-04,  2.47960360e-03,  1.05000000e-02
   40590, -6.47306439e-04,  2.41578050e-03,  1.05000000e-02
   40591, -9.57091277e-04,  2.31062272e-03,  1.05000000e-02
   40592, -1.25050002e-03,  2.16592956e-03,  1.05000000e-02
   40593, -1.52251237e-03,  1.98417674e-03,  1.05000000e-02
   40594, -1.76847411e-03,  1.76847411e-03,  1.05000000e-02
   40595,  1.52251237e-03,  1.98417674e-03,  1.20000000e-02
   40596,  1.25050002e-03,  2.16592956e-03,  1.20000000e-02
   40597,  9.57091277e-04,  2.31062272e-03,  1.20000000e-02
   40598,  6.47306439e-04,  2.41578050e-03,  1.20000000e-02
   40599,  3.26446010e-04,  2.47960360e-03,  1.20000000e-02
   40600,  2.22133423e-19,  2.50100000e-03,  1.20000000e-02
   40601, -3.26446010e-04,  2.47960360e-03,  1.20000000e-02
   40602, -6.47306439e-04,  2.41578050e-03,  1.20000000e-02
   40603, -9.57091277e-04,  2.31062272e-03,  1.20000000e-02
   40604, -1.25050002e-03,  2.16592956e-03,  1.20000000e-02
   40605, -1.52251237e-03,  1.98417674e-03,  1.20000000e-02
   40606, -1.76847411e-03,  1.76847411e-03,  1.20000000e-02
   40607,  1.52251237e-03,  1.98417674e-03,  1.35000000e-02
   40608,  1.25050002e-03,  2.16592956e-03,  1.35000000e-02
   40609,  9.57091277e-04,  2.31062272e-03,  1.35000000e-02
   40610,  6.47306439e-04,  2.41578050e-03,  1.35000000e-02
   40611,  3.26446010e-04,  2.47960360e-03,  1.35000000e-02
   40612,  2.22133423e-19,  2.50100000e-03,  1.35000000e-02
   40613, -3.26446010e-04,  2.47960360e-03,  1.35000000e-02
   40614, -6.47306439e-04,  2.41578050e-03,  1.35000000e-02
   40615, -9.57091277e-04,  2.31062272e-03,  1.35000000e-02
   40616, -1.25050002e-03,  2.16592956e-03,  1.35000000e-02
   40617, -1.52251237e-03,  1.98417674e-03,  1.35000000e-02
   40618, -1.76847411e-03,  1.76847411e-03,  1.35000000e-02
   40619,  1.52251237e-03,  1.98417674e-03,  1.50000000e-02
   40620,  1.25050002e-03,  2.16592956e-03,  1.50000000e-02
   40621,  9.57091277e-04,  2.31062272e-03,  1.50000000e-02
   40622,  6.47306439e-04,  2.41578050e-03,  1.50000000e-02
   40623,  3.26446010e-04,  2.47960360e-03,  1.50000000e-02
   40624,  2.22133423e-19,  2.50100000e-03,  1.50000000e-02
   40625, -3.26446010e-04,  2.47960360e-03,  1.50000000e-02
   40626, -6.47306439e-04,  2.41578050e-03,  1.50000000e-02
   40627, -9.57091277e-04,  2.31062272e-03,  1.50000000e-02
   40628, -1.25050002e-03,  2.16592956e-03,  1.50000000e-02
   40629, -1.52251237e-03,  1.98417674e-03,  1.50000000e-02
   40630, -1.76847411e-03,  1.76847411e-03,  1.50000000e-02
   40631,  1.52251237e-03,  1.98417674e-03,  1.65000000e-02
   40632,  1.25050002e-03,  2.16592956e-03,  1.65000000e-02
   40633,  9.57091277e-04,  2.31062272e-03,  1.65000000e-02
   40634,  6.47306439e-04,  2.41578050e-03,  1.65000000e-02
   40635,  3.26446010e-04,  2.47960360e-03,  1.65000000e-02
   40636,  2.22133423e-19,  2.50100000e-03,  1.65000000e-02
   40637, -3.26446010e-04,  2.47960360e-03,  1.65000000e-02
   40638, -6.47306439e-04,  2.41578050e-03,  1.65000000e-02
   40639, -9.57091277e-04,  2.31062272e-03,  1.65000000e-02
   40640, -1.25050002e-03,  2.16592956e-03,  1.65000000e-02
   40641, -1.52251237e-03,  1.98417674e-03,  1.65000000e-02
   40642, -1.76847411e-03,  1.76847411e-03,  1.65000000e-02
   40643,  1.52251237e-03,  1.98417674e-03,  1.80000000e-02
   40644,  1.25050002e-03,  2.16592956e-03,  1.80000000e-02
   40645,  9.57091277e-04,  2.31062272e-03,  1.80000000e-02
   40646,  6.47306439e-04,  2.41578050e-03,  1.80000000e-02
   40647,  3.26446010e-04,  2.47960360e-03,  1.80000000e-02
   40648,  2.22133423e-19,  2.50100000e-03,  1.80000000e-02
   40649, -3.26446010e-04,  2.47960360e-03,  1.80000000e-02
   40650, -6.47306439e-04,  2.41578050e-03,  1.80000000e-02
   40651, -9.57091277e-04,  2.31062272e-03,  1.80000000e-02
   40652, -1.25050002e-03,  2.16592956e-03,  1.80000000e-02
   40653, -1.52251237e-03,  1.98417674e-03,  1.80000000e-02
   40654, -1.76847411e-03,  1.76847411e-03,  1.80000000e-02
   40655,  1.52251237e-03,  1.98417674e-03,  1.95000000e-02
   40656,  1.25050002e-03,  2.16592956e-03,  1.95000000e-02
   40657,  9.57091277e-04,  2.31062272e-03,  1.95000000e-02
   40658,  6.47306439e-04,  2.41578050e-03,  1.95000000e-02
   40659,  3.26446010e-04,  2.47960360e-03,  1.95000000e-02
   40660,  2.22133423e-19,  2.50100000e-03,  1.95000000e-02
   40661, -3.26446010e-04,  2.47960360e-03,  1.95000000e-02
   40662, -6.47306439e-04,  2.41578050e-03,  1.95000000e-02
   40663, -9.57091277e-04,  2.31062272e-03,  1.95000000e-02
   40664, -1.25050002e-03,  2.16592956e-03,  1.95000000e-02
   40665, -1.52251237e-03,  1.98417674e-03,  1.95000000e-02
   40666, -1.76847411e-03,  1.76847411e-03,  1.95000000e-02
   40667,  1.52251237e-03,  1.98417674e-03,  2.10000000e-02
   40668,  1.25050002e-03,  2.16592956e-03,  2.10000000e-02
   40669,  9.57091277e-04,  2.31062272e-03,  2.10000000e-02
   40670,  6.47306439e-04,  2.41578050e-03,  2.10000000e-02
   40671,  3.26446010e-04,  2.47960360e-03,  2.10000000e-02
   40672,  2.22133423e-19,  2.50100000e-03,  2.10000000e-02
   40673, -3.26446010e-04,  2.47960360e-03,  2.10000000e-02
   40674, -6.47306439e-04,  2.41578050e-03,  2.10000000e-02
   40675, -9.57091277e-04,  2.31062272e-03,  2.10000000e-02
   40676, -1.25050002e-03,  2.16592956e-03,  2.10000000e-02
   40677, -1.52251237e-03,  1.98417674e-03,  2.10000000e-02
   40678, -1.76847411e-03,  1.76847411e-03,  2.10000000e-02
   40679,  1.52251237e-03,  1.98417674e-03,  2.25000000e-02
   40680,  1.25050002e-03,  2.16592956e-03,  2.25000000e-02
   40681,  9.57091277e-04,  2.31062272e-03,  2.25000000e-02
   40682,  6.47306439e-04,  2.41578050e-03,  2.25000000e-02
   40683,  3.26446010e-04,  2.47960360e-03,  2.25000000e-02
   40684,  2.22133423e-19,  2.50100000e-03,  2.25000000e-02
   40685, -3.26446010e-04,  2.47960360e-03,  2.25000000e-02
   40686, -6.47306439e-04,  2.41578050e-03,  2.25000000e-02
   40687, -9.57091277e-04,  2.31062272e-03,  2.25000000e-02
   40688, -1.25050002e-03,  2.16592956e-03,  2.25000000e-02
   40689, -1.52251237e-03,  1.98417674e-03,  2.25000000e-02
   40690, -1.76847411e-03,  1.76847411e-03,  2.25000000e-02
   40691,  1.52251237e-03,  1.98417674e-03,  2.40000000e-02
   40692,  1.25050002e-03,  2.16592956e-03,  2.40000000e-02
   40693,  9.57091277e-04,  2.31062272e-03,  2.40000000e-02
   40694,  6.47306439e-04,  2.41578050e-03,  2.40000000e-02
   40695,  3.26446010e-04,  2.47960360e-03,  2.40000000e-02
   40696,  2.22133423e-19,  2.50100000e-03,  2.40000000e-02
   40697, -3.26446010e-04,  2.47960360e-03,  2.40000000e-02
   40698, -6.47306439e-04,  2.41578050e-03,  2.40000000e-02
   40699, -9.57091277e-04,  2.31062272e-03,  2.40000000e-02
   40700, -1.25050002e-03,  2.16592956e-03,  2.40000000e-02
   40701, -1.52251237e-03,  1.98417674e-03,  2.40000000e-02
   40702, -1.76847411e-03,  1.76847411e-03,  2.40000000e-02
   40703,  1.52251237e-03,  1.98417674e-03,  2.55000000e-02
   40704,  1.25050002e-03,  2.16592956e-03,  2.55000000e-02
   40705,  9.57091277e-04,  2.31062272e-03,  2.55000000e-02
   40706,  6.47306439e-04,  2.41578050e-03,  2.55000000e-02
   40707,  3.26446010e-04,  2.47960360e-03,  2.55000000e-02
   40708,  2.22133423e-19,  2.50100000e-03,  2.55000000e-02
   40709, -3.26446010e-04,  2.47960360e-03,  2.55000000e-02
   40710, -6.47306439e-04,  2.41578050e-03,  2.55000000e-02
   40711, -9.57091277e-04,  2.31062272e-03,  2.55000000e-02
   40712, -1.25050002e-03,  2.16592956e-03,  2.55000000e-02
   40713, -1.52251237e-03,  1.98417674e-03,  2.55000000e-02
   40714, -1.76847411e-03,  1.76847411e-03,  2.55000000e-02
   40715,  1.52251237e-03,  1.98417674e-03,  2.70000000e-02
   40716,  1.25050002e-03,  2.16592956e-03,  2.70000000e-02
   40717,  9.57091277e-04,  2.31062272e-03,  2.70000000e-02
   40718,  6.47306439e-04,  2.41578050e-03,  2.70000000e-02
   40719,  3.26446010e-04,  2.47960360e-03,  2.70000000e-02
   40720,  2.22133423e-19,  2.50100000e-03,  2.70000000e-02
   40721, -3.26446010e-04,  2.47960360e-03,  2.70000000e-02
   40722, -6.47306439e-04,  2.41578050e-03,  2.70000000e-02
   40723, -9.57091277e-04,  2.31062272e-03,  2.70000000e-02
   40724, -1.25050002e-03,  2.16592956e-03,  2.70000000e-02
   40725, -1.52251237e-03,  1.98417674e-03,  2.70000000e-02
   40726, -1.76847411e-03,  1.76847411e-03,  2.70000000e-02
   40727,  1.52251237e-03,  1.98417674e-03,  2.85000000e-02
   40728,  1.25050002e-03,  2.16592956e-03,  2.85000000e-02
   40729,  9.57091277e-04,  2.31062272e-03,  2.85000000e-02
   40730,  6.47306439e-04,  2.41578050e-03,  2.85000000e-02
   40731,  3.26446010e-04,  2.47960360e-03,  2.85000000e-02
   40732,  2.22133423e-19,  2.50100000e-03,  2.85000000e-02
   40733, -3.26446010e-04,  2.47960360e-03,  2.85000000e-02
   40734, -6.47306439e-04,  2.41578050e-03,  2.85000000e-02
   40735, -9.57091277e-04,  2.31062272e-03,  2.85000000e-02
   40736, -1.25050002e-03,  2.16592956e-03,  2.85000000e-02
   40737, -1.52251237e-03,  1.98417674e-03,  2.85000000e-02
   40738, -1.76847411e-03,  1.76847411e-03,  2.85000000e-02
   40739,  1.52251237e-03,  1.98417674e-03,  3.00000000e-02
   40740,  1.25050002e-03,  2.16592956e-03,  3.00000000e-02
   40741,  9.57091277e-04,  2.31062272e-03,  3.00000000e-02
   40742,  6.47306439e-04,  2.41578050e-03,  3.00000000e-02
   40743,  3.26446010e-04,  2.47960360e-03,  3.00000000e-02
   40744,  2.22133423e-19,  2.50100000e-03,  3.00000000e-02
   40745, -3.26446010e-04,  2.47960360e-03,  3.00000000e-02
   40746, -6.47306439e-04,  2.41578050e-03,  3.00000000e-02
   40747, -9.57091277e-04,  2.31062272e-03,  3.00000000e-02
   40748, -1.25050002e-03,  2.16592956e-03,  3.00000000e-02
   40749, -1.52251237e-03,  1.98417674e-03,  3.00000000e-02
   40750, -1.76847411e-03,  1.76847411e-03,  3.00000000e-02
   40751, -1.98417674e-03,  1.52251237e-03,  0.00000000e+00
   40752, -2.16592956e-03,  1.25050002e-03,  0.00000000e+00
   40753, -2.31062272e-03,  9.57091277e-04,  0.00000000e+00
   40754, -2.41578050e-03,  6.47306439e-04,  0.00000000e+00
   40755, -2.47960360e-03,  3.26446010e-04,  0.00000000e+00
   40756, -2.50100000e-03,  2.22133423e-19,  0.00000000e+00
   40757, -2.47960360e-03, -3.26446010e-04,  0.00000000e+00
   40758, -2.41578050e-03, -6.47306439e-04,  0.00000000e+00
   40759, -2.31062272e-03, -9.57091277e-04,  0.00000000e+00
   40760, -2.16592956e-03, -1.25050002e-03,  0.00000000e+00
   40761, -1.98417674e-03, -1.52251237e-03,  0.00000000e+00
   40762, -1.76847411e-03, -1.76847411e-03,  0.00000000e+00
   40763, -1.98417674e-03,  1.52251237e-03,  1.50000000e-03
   40764, -2.16592956e-03,  1.25050002e-03,  1.50000000e-03
   40765, -2.31062272e-03,  9.57091277e-04,  1.50000000e-03
   40766, -2.41578050e-03,  6.47306439e-04,  1.50000000e-03
   40767, -2.47960360e-03,  3.26446010e-04,  1.50000000e-03
   40768, -2.50100000e-03,  2.22133423e-19,  1.50000000e-03
   40769, -2.47960360e-03, -3.26446010e-04,  1.50000000e-03
   40770, -2.41578050e-03, -6.47306439e-04,  1.50000000e-03
   40771, -2.31062272e-03, -9.57091277e-04,  1.50000000e-03
   40772, -2.16592956e-03, -1.25050002e-03,  1.50000000e-03
   40773, -1.98417674e-03, -1.52251237e-03,  1.50000000e-03
   40774, -1.76847411e-03, -1.76847411e-03,  1.50000000e-03
   40775, -1.98417674e-03,  1.52251237e-03,  3.00000000e-03
   40776, -2.16592956e-03,  1.25050002e-03,  3.00000000e-03
   40777, -2.31062272e-03,  9.57091277e-04,  3.00000000e-03
   40778, -2.41578050e-03,  6.47306439e-04,  3.00000000e-03
   40779, -2.47960360e-03,  3.26446010e-04,  3.00000000e-03
   40780, -2.50100000e-03,  2.22133423e-19,  3.00000000e-03
   40781, -2.47960360e-03, -3.26446010e-04,  3.00000000e-03
   40782, -2.41578050e-03, -6.47306439e-04,  3.00000000e-03
   40783, -2.31062272e-03, -9.57091277e-04,  3.00000000e-03
   40784, -2.16592956e-03, -1.25050002e-03,  3.00000000e-03
   40785, -1.98417674e-03, -1.52251237e-03,  3.00000000e-03
   40786, -1.76847411e-03, -1.76847411e-03,  3.00000000e-03
   40787, -1.98417674e-03,  1.52251237e-03,  4.50000000e-03
   40788, -2.16592956e-03,  1.25050002e-03,  4.50000000e-03
   40789, -2.31062272e-03,  9.57091277e-04,  4.50000000e-03
   40790, -2.41578050e-03,  6.47306439e-04,  4.50000000e-03
   40791, -2.47960360e-03,  3.26446010e-04,  4.50000000e-03
   40792, -2.50100000e-03,  2.22133423e-19,  4.50000000e-03
   40793, -2.47960360e-03, -3.26446010e-04,  4.50000000e-03
   40794, -2.41578050e-03, -6.47306439e-04,  4.50000000e-03
   40795, -2.31062272e-03, -9.57091277e-04,  4.50000000e-03
   40796, -2.16592956e-03, -1.25050002e-03,  4.50000000e-03
   40797, -1.98417674e-03, -1.52251237e-03,  4.50000000e-03
   40798, -1.76847411e-03, -1.76847411e-03,  4.50000000e-03
   40799, -1.98417674e-03,  1.52251237e-03,  6.00000000e-03
   40800, -2.16592956e-03,  1.25050002e-03,  6.00000000e-03
   40801, -2.31062272e-03,  9.57091277e-04,  6.00000000e-03
   40802, -2.41578050e-03,  6.47306439e-04,  6.00000000e-03
   40803, -2.47960360e-03,  3.26446010e-04,  6.00000000e-03
   40804, -2.50100000e-03,  2.22133423e-19,  6.00000000e-03
   40805, -2.47960360e-03, -3.26446010e-04,  6.00000000e-03
   40806, -2.41578050e-03, -6.47306439e-04,  6.00000000e-03
   40807, -2.31062272e-03, -9.57091277e-04,  6.00000000e-03
   40808, -2.16592956e-03, -1.25050002e-03,  6.00000000e-03
   40809, -1.98417674e-03, -1.52251237e-03,  6.00000000e-03
   40810, -1.76847411e-03, -1.76847411e-03,  6.00000000e-03
   40811, -1.98417674e-03,  1.52251237e-03,  7.50000000e-03
   40812, -2.16592956e-03,  1.25050002e-03,  7.50000000e-03
   40813, -2.31062272e-03,  9.57091277e-04,  7.50000000e-03
   40814, -2.41578050e-03,  6.47306439e-04,  7.50000000e-03
   40815, -2.47960360e-03,  3.26446010e-04,  7.50000000e-03
   40816, -2.50100000e-03,  2.22133423e-19,  7.50000000e-03
   40817, -2.47960360e-03, -3.26446010e-04,  7.50000000e-03
   40818, -2.41578050e-03, -6.47306439e-04,  7.50000000e-03
   40819, -2.31062272e-03, -9.57091277e-04,  7.50000000e-03
   40820, -2.16592956e-03, -1.25050002e-03,  7.50000000e-03
   40821, -1.98417674e-03, -1.52251237e-03,  7.50000000e-03
   40822, -1.76847411e-03, -1.76847411e-03,  7.50000000e-03
   40823, -1.98417674e-03,  1.52251237e-03,  9.00000000e-03
   40824, -2.16592956e-03,  1.25050002e-03,  9.00000000e-03
   40825, -2.31062272e-03,  9.57091277e-04,  9.00000000e-03
   40826, -2.41578050e-03,  6.47306439e-04,  9.00000000e-03
   40827, -2.47960360e-03,  3.26446010e-04,  9.00000000e-03
   40828, -2.50100000e-03,  2.22133423e-19,  9.00000000e-03
   40829, -2.47960360e-03, -3.26446010e-04,  9.00000000e-03
   40830, -2.41578050e-03, -6.47306439e-04,  9.00000000e-03
   40831, -2.31062272e-03, -9.57091277e-04,  9.00000000e-03
   40832, -2.16592956e-03, -1.25050002e-03,  9.00000000e-03
   40833, -1.98417674e-03, -1.52251237e-03,  9.00000000e-03
   40834, -1.76847411e-03, -1.76847411e-03,  9.00000000e-03
   40835, -1.98417674e-03,  1.52251237e-03,  1.05000000e-02
   40836, -2.16592956e-03,  1.25050002e-03,  1.05000000e-02
   40837, -2.31062272e-03,  9.57091277e-04,  1.05000000e-02
   40838, -2.41578050e-03,  6.47306439e-04,  1.05000000e-02
   40839, -2.47960360e-03,  3.26446010e-04,  1.05000000e-02
   40840, -2.50100000e-03,  2.22133423e-19,  1.05000000e-02
   40841, -2.47960360e-03, -3.26446010e-04,  1.05000000e-02
   40842, -2.41578050e-03, -6.47306439e-04,  1.05000000e-02
   40843, -2.31062272e-03, -9.57091277e-04,  1.05000000e-02
   40844, -2.16592956e-03, -1.25050002e-03,  1.05000000e-02
   40845, -1.98417674e-03, -1.52251237e-03,  1.05000000e-02
   40846, -1.76847411e-03, -1.76847411e-03,  1.05000000e-02
   40847, -1.98417674e-03,  1.52251237e-03,  1.20000000e-02
   40848, -2.16592956e-03,  1.25050002e-03,  1.20000000e-02
   40849, -2.31062272e-03,  9.57091277e-04,  1.20000000e-02
   40850, -2.41578050e-03,  6.47306439e-04,  1.20000000e-02
   40851, -2.47960360e-03,  3.26446010e-04,  1.20000000e-02
   40852, -2.50100000e-03,  2.22133423e-19,  1.20000000e-02
   40853, -2.47960360e-03, -3.26446010e-04,  1.20000000e-02
   40854, -2.41578050e-03, -6.47306439e-04,  1.20000000e-02
   40855, -2.31062272e-03, -9.57091277e-04,  1.20000000e-02
   40856, -2.16592956e-03, -1.25050002e-03,  1.20000000e-02
   40857, -1.98417674e-03, -1.52251237e-03,  1.20000000e-02
   40858, -1.76847411e-03, -1.76847411e-03,  1.20000000e-02
   40859, -1.98417674e-03,  1.52251237e-03,  1.35000000e-02
   40860, -2.16592956e-03,  1.25050002e-03,  1.35000000e-02
   40861, -2.31062272e-03,  9.57091277e-04,  1.35000000e-02
   40862, -2.41578050e-03,  6.47306439e-04,  1.35000000e-02
   40863, -2.47960360e-03,  3.26446010e-04,  1.35000000e-02
   40864, -2.50100000e-03,  2.22133423e-19,  1.35000000e-02
   40865, -2.47960360e-03, -3.26446010e-04,  1.35000000e-02
   40866, -2.41578050e-03, -6.47306439e-04,  1.35000000e-02
   40867, -2.31062272e-03, -9.57091277e-04,  1.35000000e-02
   40868, -2.16592956e-03, -1.25050002e-03,  1.35000000e-02
   40869, -1.98417674e-03, -1.52251237e-03,  1.35000000e-02
   40870, -1.76847411e-03, -1.76847411e-03,  1.35000000e-02
   40871, -1.98417674e-03,  1.52251237e-03,  1.50000000e-02
   40872, -2.16592956e-03,  1.25050002e-03,  1.50000000e-02
   40873, -2.31062272e-03,  9.57091277e-04,  1.50000000e-02
   40874, -2.41578050e-03,  6.47306439e-04,  1.50000000e-02
   40875, -2.47960360e-03,  3.26446010e-04,  1.50000000e-02
   40876, -2.50100000e-03,  2.22133423e-19,  1.50000000e-02
   40877, -2.47960360e-03, -3.26446010e-04,  1.50000000e-02
   40878, -2.41578050e-03, -6.47306439e-04,  1.50000000e-02
   40879, -2.31062272e-03, -9.57091277e-04,  1.50000000e-02
   40880, -2.16592956e-03, -1.25050002e-03,  1.50000000e-02
   40881, -1.98417674e-03, -1.52251237e-03,  1.50000000e-02
   40882, -1.76847411e-03, -1.76847411e-03,  1.50000000e-02
   40883, -1.98417674e-03,  1.52251237e-03,  1.65000000e-02
   40884, -2.16592956e-03,  1.25050002e-03,  1.65000000e-02
   40885, -2.31062272e-03,  9.57091277e-04,  1.65000000e-02
   40886, -2.41578050e-03,  6.47306439e-04,  1.65000000e-02
   40887, -2.47960360e-03,  3.26446010e-04,  1.65000000e-02
   40888, -2.50100000e-03,  2.22133423e-19,  1.65000000e-02
   40889, -2.47960360e-03, -3.26446010e-04,  1.65000000e-02
   40890, -2.41578050e-03, -6.47306439e-04,  1.65000000e-02
   40891, -2.31062272e-03, -9.57091277e-04,  1.65000000e-02
   40892, -2.16592956e-03, -1.25050002e-03,  1.65000000e-02
   40893, -1.98417674e-03, -1.52251237e-03,  1.65000000e-02
   40894, -1.76847411e-03, -1.76847411e-03,  1.65000000e-02
   40895, -1.98417674e-03,  1.52251237e-03,  1.80000000e-02
   40896, -2.16592956e-03,  1.25050002e-03,  1.80000000e-02
   40897, -2.31062272e-03,  9.57091277e-04,  1.80000000e-02
   40898, -2.41578050e-03,  6.47306439e-04,  1.80000000e-02
   40899, -2.47960360e-03,  3.26446010e-04,  1.80000000e-02
   40900, -2.50100000e-03,  2.22133423e-19,  1.80000000e-02
   40901, -2.47960360e-03, -3.26446010e-04,  1.80000000e-02
   40902, -2.41578050e-03, -6.47306439e-04,  1.80000000e-02
   40903, -2.31062272e-03, -9.57091277e-04,  1.80000000e-02
   40904, -2.16592956e-03, -1.25050002e-03,  1.80000000e-02
   40905, -1.98417674e-03, -1.52251237e-03,  1.80000000e-02
   40906, -1.76847411e-03, -1.76847411e-03,  1.80000000e-02
   40907, -1.98417674e-03,  1.52251237e-03,  1.95000000e-02
   40908, -2.16592956e-03,  1.25050002e-03,  1.95000000e-02
   40909, -2.31062272e-03,  9.57091277e-04,  1.95000000e-02
   40910, -2.41578050e-03,  6.47306439e-04,  1.95000000e-02
   40911, -2.47960360e-03,  3.26446010e-04,  1.95000000e-02
   40912, -2.50100000e-03,  2.22133423e-19,  1.95000000e-02
   40913, -2.47960360e-03, -3.26446010e-04,  1.95000000e-02
   40914, -2.41578050e-03, -6.47306439e-04,  1.95000000e-02
   40915, -2.31062272e-03, -9.57091277e-04,  1.95000000e-02
   40916, -2.16592956e-03, -1.25050002e-03,  1.95000000e-02
   40917, -1.98417674e-03, -1.52251237e-03,  1.95000000e-02
   40918, -1.76847411e-03, -1.76847411e-03,  1.95000000e-02
   40919, -1.98417674e-03,  1.52251237e-03,  2.10000000e-02
   40920, -2.16592956e-03,  1.25050002e-03,  2.10000000e-02
   40921, -2.31062272e-03,  9.57091277e-04,  2.10000000e-02
   40922, -2.41578050e-03,  6.47306439e-04,  2.10000000e-02
   40923, -2.47960360e-03,  3.26446010e-04,  2.10000000e-02
   40924, -2.50100000e-03,  2.22133423e-19,  2.10000000e-02
   40925, -2.47960360e-03, -3.26446010e-04,  2.10000000e-02
   40926, -2.41578050e-03, -6.47306439e-04,  2.10000000e-02
   40927, -2.31062272e-03, -9.57091277e-04,  2.10000000e-02
   40928, -2.16592956e-03, -1.25050002e-03,  2.10000000e-02
   40929, -1.98417674e-03, -1.52251237e-03,  2.10000000e-02
   40930, -1.76847411e-03, -1.76847411e-03,  2.10000000e-02
   40931, -1.98417674e-03,  1.52251237e-03,  2.25000000e-02
   40932, -2.16592956e-03,  1.25050002e-03,  2.25000000e-02
   40933, -2.31062272e-03,  9.57091277e-04,  2.25000000e-02
   40934, -2.41578050e-03,  6.47306439e-04,  2.25000000e-02
   40935, -2.47960360e-03,  3.26446010e-04,  2.25000000e-02
   40936, -2.50100000e-03,  2.22133423e-19,  2.25000000e-02
   40937, -2.47960360e-03, -3.26446010e-04,  2.25000000e-02
   40938, -2.41578050e-03, -6.47306439e-04,  2.25000000e-02
   40939, -2.31062272e-03, -9.57091277e-04,  2.25000000e-02
   40940, -2.16592956e-03, -1.25050002e-03,  2.25000000e-02
   40941, -1.98417674e-03, -1.52251237e-03,  2.25000000e-02
   40942, -1.76847411e-03, -1.76847411e-03,  2.25000000e-02
   40943, -1.98417674e-03,  1.52251237e-03,  2.40000000e-02
   40944, -2.16592956e-03,  1.25050002e-03,  2.40000000e-02
   40945, -2.31062272e-03,  9.57091277e-04,  2.40000000e-02
   40946, -2.41578050e-03,  6.47306439e-04,  2.40000000e-02
   40947, -2.47960360e-03,  3.26446010e-04,  2.40000000e-02
   40948, -2.50100000e-03,  2.22133423e-19,  2.40000000e-02
   40949, -2.47960360e-03, -3.26446010e-04,  2.40000000e-02
   40950, -2.41578050e-03, -6.47306439e-04,  2.40000000e-02
   40951, -2.31062272e-03, -9.57091277e-04,  2.40000000e-02
   40952, -2.16592956e-03, -1.25050002e-03,  2.40000000e-02
   40953, -1.98417674e-03, -1.52251237e-03,  2.40000000e-02
   40954, -1.76847411e-03, -1.76847411e-03,  2.40000000e-02
   40955, -1.98417674e-03,  1.52251237e-03,  2.55000000e-02
   40956, -2.16592956e-03,  1.25050002e-03,  2.55000000e-02
   40957, -2.31062272e-03,  9.57091277e-04,  2.55000000e-02
   40958, -2.41578050e-03,  6.47306439e-04,  2.55000000e-02
   40959, -2.47960360e-03,  3.26446010e-04,  2.55000000e-02
   40960, -2.50100000e-03,  2.22133423e-19,  2.55000000e-02
   40961, -2.47960360e-03, -3.26446010e-04,  2.55000000e-02
   40962, -2.41578050e-03, -6.47306439e-04,  2.55000000e-02
   40963, -2.31062272e-03, -9.57091277e-04,  2.55000000e-02
   40964, -2.16592956e-03, -1.25050002e-03,  2.55000000e-02
   40965, -1.98417674e-03, -1.52251237e-03,  2.55000000e-02
   40966, -1.76847411e-03, -1.76847411e-03,  2.55000000e-02
   40967, -1.98417674e-03,  1.52251237e-03,  2.70000000e-02
   40968, -2.16592956e-03,  1.25050002e-03,  2.70000000e-02
   40969, -2.31062272e-03,  9.57091277e-04,  2.70000000e-02
   40970, -2.41578050e-03,  6.47306439e-04,  2.70000000e-02
   40971, -2.47960360e-03,  3.26446010e-04,  2.70000000e-02
   40972, -2.50100000e-03,  2.22133423e-19,  2.70000000e-02
   40973, -2.47960360e-03, -3.26446010e-04,  2.70000000e-02
   40974, -2.41578050e-03, -6.47306439e-04,  2.70000000e-02
   40975, -2.31062272e-03, -9.57091277e-04,  2.70000000e-02
   40976, -2.16592956e-03, -1.25050002e-03,  2.70000000e-02
   40977, -1.98417674e-03, -1.52251237e-03,  2.70000000e-02
   40978, -1.76847411e-03, -1.76847411e-03,  2.70000000e-02
   40979, -1.98417674e-03,  1.52251237e-03,  2.85000000e-02
   40980, -2.16592956e-03,  1.25050002e-03,  2.85000000e-02
   40981, -2.31062272e-03,  9.57091277e-04,  2.85000000e-02
   40982, -2.41578050e-03,  6.47306439e-04,  2.85000000e-02
   40983, -2.47960360e-03,  3.26446010e-04,  2.85000000e-02
   40984, -2.50100000e-03,  2.22133423e-19,  2.85000000e-02
   40985, -2.47960360e-03, -3.26446010e-04,  2.85000000e-02
   40986, -2.41578050e-03, -6.47306439e-04,  2.85000000e-02
   40987, -2.31062272e-03, -9.57091277e-04,  2.85000000e-02
   40988, -2.16592956e-03, -1.25050002e-03,  2.85000000e-02
   40989, -1.98417674e-03, -1.52251237e-03,  2.85000000e-02
   40990, -1.76847411e-03, -1.76847411e-03,  2.85000000e-02
   40991, -1.98417674e-03,  1.52251237e-03,  3.00000000e-02
   40992, -2.16592956e-03,  1.25050002e-03,  3.00000000e-02
   40993, -2.31062272e-03,  9.57091277e-04,  3.00000000e-02
   40994, -2.41578050e-03,  6.47306439e-04,  3.00000000e-02
   40995, -2.47960360e-03,  3.26446010e-04,  3.00000000e-02
   40996, -2.50100000e-03,  2.22133423e-19,  3.00000000e-02
   40997, -2.47960360e-03, -3.26446010e-04,  3.00000000e-02
   40998, -2.41578050e-03, -6.47306439e-04,  3.00000000e-02
   40999, -2.31062272e-03, -9.57091277e-04,  3.00000000e-02
   41000, -2.16592956e-03, -1.25050002e-03,  3.00000000e-02
   41001, -1.98417674e-03, -1.52251237e-03,  3.00000000e-02
   41002, -1.76847411e-03, -1.76847411e-03,  3.00000000e-02
   41003, -1.52251237e-03, -1.98417674e-03,  0.00000000e+00
   41004, -1.25050002e-03, -2.16592956e-03,  0.00000000e+00
   41005, -9.57091277e-04, -2.31062272e-03,  0.00000000e+00
   41006, -6.47306439e-04, -2.41578050e-03,  0.00000000e+00
   41007, -3.26446010e-04, -2.47960360e-03,  0.00000000e+00
   41008, -2.22133423e-19, -2.50100000e-03,  0.00000000e+00
   41009,  3.26446010e-04, -2.47960360e-03,  0.00000000e+00
   41010,  6.47306439e-04, -2.41578050e-03,  0.00000000e+00
   41011,  9.57091277e-04, -2.31062272e-03,  0.00000000e+00
   41012,  1.25050002e-03, -2.16592956e-03,  0.00000000e+00
   41013,  1.52251237e-03, -1.98417674e-03,  0.00000000e+00
   41014, -1.52251237e-03, -1.98417674e-03,  1.50000000e-03
   41015, -1.25050002e-03, -2.16592956e-03,  1.50000000e-03
   41016, -9.57091277e-04, -2.31062272e-03,  1.50000000e-03
   41017, -6.47306439e-04, -2.41578050e-03,  1.50000000e-03
   41018, -3.26446010e-04, -2.47960360e-03,  1.50000000e-03
   41019, -2.22133423e-19, -2.50100000e-03,  1.50000000e-03
   41020,  3.26446010e-04, -2.47960360e-03,  1.50000000e-03
   41021,  6.47306439e-04, -2.41578050e-03,  1.50000000e-03
   41022,  9.57091277e-04, -2.31062272e-03,  1.50000000e-03
   41023,  1.25050002e-03, -2.16592956e-03,  1.50000000e-03
   41024,  1.52251237e-03, -1.98417674e-03,  1.50000000e-03
   41025, -1.52251237e-03, -1.98417674e-03,  3.00000000e-03
   41026, -1.25050002e-03, -2.16592956e-03,  3.00000000e-03
   41027, -9.57091277e-04, -2.31062272e-03,  3.00000000e-03
   41028, -6.47306439e-04, -2.41578050e-03,  3.00000000e-03
   41029, -3.26446010e-04, -2.47960360e-03,  3.00000000e-03
   41030, -2.22133423e-19, -2.50100000e-03,  3.00000000e-03
   41031,  3.26446010e-04, -2.47960360e-03,  3.00000000e-03
   41032,  6.47306439e-04, -2.41578050e-03,  3.00000000e-03
   41033,  9.57091277e-04, -2.31062272e-03,  3.00000000e-03
   41034,  1.25050002e-03, -2.16592956e-03,  3.00000000e-03
   41035,  1.52251237e-03, -1.98417674e-03,  3.00000000e-03
   41036, -1.52251237e-03, -1.98417674e-03,  4.50000000e-03
   41037, -1.25050002e-03, -2.16592956e-03,  4.50000000e-03
   41038, -9.57091277e-04, -2.31062272e-03,  4.50000000e-03
   41039, -6.47306439e-04, -2.41578050e-03,  4.50000000e-03
   41040, -3.26446010e-04, -2.47960360e-03,  4.50000000e-03
   41041, -2.22133423e-19, -2.50100000e-03,  4.50000000e-03
   41042,  3.26446010e-04, -2.47960360e-03,  4.50000000e-03
   41043,  6.47306439e-04, -2.41578050e-03,  4.50000000e-03
   41044,  9.57091277e-04, -2.31062272e-03,  4.50000000e-03
   41045,  1.25050002e-03, -2.16592956e-03,  4.50000000e-03
   41046,  1.52251237e-03, -1.98417674e-03,  4.50000000e-03
   41047, -1.52251237e-03, -1.98417674e-03,  6.00000000e-03
   41048, -1.25050002e-03, -2.16592956e-03,  6.00000000e-03
   41049, -9.57091277e-04, -2.31062272e-03,  6.00000000e-03
   41050, -6.47306439e-04, -2.41578050e-03,  6.00000000e-03
   41051, -3.26446010e-04, -2.47960360e-03,  6.00000000e-03
   41052, -2.22133423e-19, -2.50100000e-03,  6.00000000e-03
   41053,  3.26446010e-04, -2.47960360e-03,  6.00000000e-03
   41054,  6.47306439e-04, -2.41578050e-03,  6.00000000e-03
   41055,  9.57091277e-04, -2.31062272e-03,  6.00000000e-03
   41056,  1.25050002e-03, -2.16592956e-03,  6.00000000e-03
   41057,  1.52251237e-03, -1.98417674e-03,  6.00000000e-03
   41058, -1.52251237e-03, -1.98417674e-03,  7.50000000e-03
   41059, -1.25050002e-03, -2.16592956e-03,  7.50000000e-03
   41060, -9.57091277e-04, -2.31062272e-03,  7.50000000e-03
   41061, -6.47306439e-04, -2.41578050e-03,  7.50000000e-03
   41062, -3.26446010e-04, -2.47960360e-03,  7.50000000e-03
   41063, -2.22133423e-19, -2.50100000e-03,  7.50000000e-03
   41064,  3.26446010e-04, -2.47960360e-03,  7.50000000e-03
   41065,  6.47306439e-04, -2.41578050e-03,  7.50000000e-03
   41066,  9.57091277e-04, -2.31062272e-03,  7.50000000e-03
   41067,  1.25050002e-03, -2.16592956e-03,  7.50000000e-03
   41068,  1.52251237e-03, -1.98417674e-03,  7.50000000e-03
   41069, -1.52251237e-03, -1.98417674e-03,  9.00000000e-03
   41070, -1.25050002e-03, -2.16592956e-03,  9.00000000e-03
   41071, -9.57091277e-04, -2.31062272e-03,  9.00000000e-03
   41072, -6.47306439e-04, -2.41578050e-03,  9.00000000e-03
   41073, -3.26446010e-04, -2.47960360e-03,  9.00000000e-03
   41074, -2.22133423e-19, -2.50100000e-03,  9.00000000e-03
   41075,  3.26446010e-04, -2.47960360e-03,  9.00000000e-03
   41076,  6.47306439e-04, -2.41578050e-03,  9.00000000e-03
   41077,  9.57091277e-04, -2.31062272e-03,  9.00000000e-03
   41078,  1.25050002e-03, -2.16592956e-03,  9.00000000e-03
   41079,  1.52251237e-03, -1.98417674e-03,  9.00000000e-03
   41080, -1.52251237e-03, -1.98417674e-03,  1.05000000e-02
   41081, -1.25050002e-03, -2.16592956e-03,  1.05000000e-02
   41082, -9.57091277e-04, -2.31062272e-03,  1.05000000e-02
   41083, -6.47306439e-04, -2.41578050e-03,  1.05000000e-02
   41084, -3.26446010e-04, -2.47960360e-03,  1.05000000e-02
   41085, -2.22133423e-19, -2.50100000e-03,  1.05000000e-02
   41086,  3.26446010e-04, -2.47960360e-03,  1.05000000e-02
   41087,  6.47306439e-04, -2.41578050e-03,  1.05000000e-02
   41088,  9.57091277e-04, -2.31062272e-03,  1.05000000e-02
   41089,  1.25050002e-03, -2.16592956e-03,  1.05000000e-02
   41090,  1.52251237e-03, -1.98417674e-03,  1.05000000e-02
   41091, -1.52251237e-03, -1.98417674e-03,  1.20000000e-02
   41092, -1.25050002e-03, -2.16592956e-03,  1.20000000e-02
   41093, -9.57091277e-04, -2.31062272e-03,  1.20000000e-02
   41094, -6.47306439e-04, -2.41578050e-03,  1.20000000e-02
   41095, -3.26446010e-04, -2.47960360e-03,  1.20000000e-02
   41096, -2.22133423e-19, -2.50100000e-03,  1.20000000e-02
   41097,  3.26446010e-04, -2.47960360e-03,  1.20000000e-02
   41098,  6.47306439e-04, -2.41578050e-03,  1.20000000e-02
   41099,  9.57091277e-04, -2.31062272e-03,  1.20000000e-02
   41100,  1.25050002e-03, -2.16592956e-03,  1.20000000e-02
   41101,  1.52251237e-03, -1.98417674e-03,  1.20000000e-02
   41102, -1.52251237e-03, -1.98417674e-03,  1.35000000e-02
   41103, -1.25050002e-03, -2.16592956e-03,  1.35000000e-02
   41104, -9.57091277e-04, -2.31062272e-03,  1.35000000e-02
   41105, -6.47306439e-04, -2.41578050e-03,  1.35000000e-02
   41106, -3.26446010e-04, -2.47960360e-03,  1.35000000e-02
   41107, -2.22133423e-19, -2.50100000e-03,  1.35000000e-02
   41108,  3.26446010e-04, -2.47960360e-03,  1.35000000e-02
   41109,  6.47306439e-04, -2.41578050e-03,  1.35000000e-02
   41110,  9.57091277e-04, -2.31062272e-03,  1.35000000e-02
   41111,  1.25050002e-03, -2.16592956e-03,  1.35000000e-02
   41112,  1.52251237e-03, -1.98417674e-03,  1.35000000e-02
   41113, -1.52251237e-03, -1.98417674e-03,  1.50000000e-02
   41114, -1.25050002e-03, -2.16592956e-03,  1.50000000e-02
   41115, -9.57091277e-04, -2.31062272e-03,  1.50000000e-02
   41116, -6.47306439e-04, -2.41578050e-03,  1.50000000e-02
   41117, -3.26446010e-04, -2.47960360e-03,  1.50000000e-02
   41118, -2.22133423e-19, -2.50100000e-03,  1.50000000e-02
   41119,  3.26446010e-04, -2.47960360e-03,  1.50000000e-02
   41120,  6.47306439e-04, -2.41578050e-03,  1.50000000e-02
   41121,  9.57091277e-04, -2.31062272e-03,  1.50000000e-02
   41122,  1.25050002e-03, -2.16592956e-03,  1.50000000e-02
   41123,  1.52251237e-03, -1.98417674e-03,  1.50000000e-02
   41124, -1.52251237e-03, -1.98417674e-03,  1.65000000e-02
   41125, -1.25050002e-03, -2.16592956e-03,  1.65000000e-02
   41126, -9.57091277e-04, -2.31062272e-03,  1.65000000e-02
   41127, -6.47306439e-04, -2.41578050e-03,  1.65000000e-02
   41128, -3.26446010e-04, -2.47960360e-03,  1.65000000e-02
   41129, -2.22133423e-19, -2.50100000e-03,  1.65000000e-02
   41130,  3.26446010e-04, -2.47960360e-03,  1.65000000e-02
   41131,  6.47306439e-04, -2.41578050e-03,  1.65000000e-02
   41132,  9.57091277e-04, -2.31062272e-03,  1.65000000e-02
   41133,  1.25050002e-03, -2.16592956e-03,  1.65000000e-02
   41134,  1.52251237e-03, -1.98417674e-03,  1.65000000e-02
   41135, -1.52251237e-03, -1.98417674e-03,  1.80000000e-02
   41136, -1.25050002e-03, -2.16592956e-03,  1.80000000e-02
   41137, -9.57091277e-04, -2.31062272e-03,  1.80000000e-02
   41138, -6.47306439e-04, -2.41578050e-03,  1.80000000e-02
   41139, -3.26446010e-04, -2.47960360e-03,  1.80000000e-02
   41140, -2.22133423e-19, -2.50100000e-03,  1.80000000e-02
   41141,  3.26446010e-04, -2.47960360e-03,  1.80000000e-02
   41142,  6.47306439e-04, -2.41578050e-03,  1.80000000e-02
   41143,  9.57091277e-04, -2.31062272e-03,  1.80000000e-02
   41144,  1.25050002e-03, -2.16592956e-03,  1.80000000e-02
   41145,  1.52251237e-03, -1.98417674e-03,  1.80000000e-02
   41146, -1.52251237e-03, -1.98417674e-03,  1.95000000e-02
   41147, -1.25050002e-03, -2.16592956e-03,  1.95000000e-02
   41148, -9.57091277e-04, -2.31062272e-03,  1.95000000e-02
   41149, -6.47306439e-04, -2.41578050e-03,  1.95000000e-02
   41150, -3.26446010e-04, -2.47960360e-03,  1.95000000e-02
   41151, -2.22133423e-19, -2.50100000e-03,  1.95000000e-02
   41152,  3.26446010e-04, -2.47960360e-03,  1.95000000e-02
   41153,  6.47306439e-04, -2.41578050e-03,  1.95000000e-02
   41154,  9.57091277e-04, -2.31062272e-03,  1.95000000e-02
   41155,  1.25050002e-03, -2.16592956e-03,  1.95000000e-02
   41156,  1.52251237e-03, -1.98417674e-03,  1.95000000e-02
   41157, -1.52251237e-03, -1.98417674e-03,  2.10000000e-02
   41158, -1.25050002e-03, -2.16592956e-03,  2.10000000e-02
   41159, -9.57091277e-04, -2.31062272e-03,  2.10000000e-02
   41160, -6.47306439e-04, -2.41578050e-03,  2.10000000e-02
   41161, -3.26446010e-04, -2.47960360e-03,  2.10000000e-02
   41162, -2.22133423e-19, -2.50100000e-03,  2.10000000e-02
   41163,  3.26446010e-04, -2.47960360e-03,  2.10000000e-02
   41164,  6.47306439e-04, -2.41578050e-03,  2.10000000e-02
   41165,  9.57091277e-04, -2.31062272e-03,  2.10000000e-02
   41166,  1.25050002e-03, -2.16592956e-03,  2.10000000e-02
   41167,  1.52251237e-03, -1.98417674e-03,  2.10000000e-02
   41168, -1.52251237e-03, -1.98417674e-03,  2.25000000e-02
   41169, -1.25050002e-03, -2.16592956e-03,  2.25000000e-02
   41170, -9.57091277e-04, -2.31062272e-03,  2.25000000e-02
   41171, -6.47306439e-04, -2.41578050e-03,  2.25000000e-02
   41172, -3.26446010e-04, -2.47960360e-03,  2.25000000e-02
   41173, -2.22133423e-19, -2.50100000e-03,  2.25000000e-02
   41174,  3.26446010e-04, -2.47960360e-03,  2.25000000e-02
   41175,  6.47306439e-04, -2.41578050e-03,  2.25000000e-02
   41176,  9.57091277e-04, -2.31062272e-03,  2.25000000e-02
   41177,  1.25050002e-03, -2.16592956e-03,  2.25000000e-02
   41178,  1.52251237e-03, -1.98417674e-03,  2.25000000e-02
   41179, -1.52251237e-03, -1.98417674e-03,  2.40000000e-02
   41180, -1.25050002e-03, -2.16592956e-03,  2.40000000e-02
   41181, -9.57091277e-04, -2.31062272e-03,  2.40000000e-02
   41182, -6.47306439e-04, -2.41578050e-03,  2.40000000e-02
   41183, -3.26446010e-04, -2.47960360e-03,  2.40000000e-02
   41184, -2.22133423e-19, -2.50100000e-03,  2.40000000e-02
   41185,  3.26446010e-04, -2.47960360e-03,  2.40000000e-02
   41186,  6.47306439e-04, -2.41578050e-03,  2.40000000e-02
   41187,  9.57091277e-04, -2.31062272e-03,  2.40000000e-02
   41188,  1.25050002e-03, -2.16592956e-03,  2.40000000e-02
   41189,  1.52251237e-03, -1.98417674e-03,  2.40000000e-02
   41190, -1.52251237e-03, -1.98417674e-03,  2.55000000e-02
   41191, -1.25050002e-03, -2.16592956e-03,  2.55000000e-02
   41192, -9.57091277e-04, -2.31062272e-03,  2.55000000e-02
   41193, -6.47306439e-04, -2.41578050e-03,  2.55000000e-02
   41194, -3.26446010e-04, -2.47960360e-03,  2.55000000e-02
   41195, -2.22133423e-19, -2.50100000e-03,  2.55000000e-02
   41196,  3.26446010e-04, -2.47960360e-03,  2.55000000e-02
   41197,  6.47306439e-04, -2.41578050e-03,  2.55000000e-02
   41198,  9.57091277e-04, -2.31062272e-03,  2.55000000e-02
   41199,  1.25050002e-03, -2.16592956e-03,  2.55000000e-02
   41200,  1.52251237e-03, -1.98417674e-03,  2.55000000e-02
   41201, -1.52251237e-03, -1.98417674e-03,  2.70000000e-02
   41202, -1.25050002e-03, -2.16592956e-03,  2.70000000e-02
   41203, -9.57091277e-04, -2.31062272e-03,  2.70000000e-02
   41204, -6.47306439e-04, -2.41578050e-03,  2.70000000e-02
   41205, -3.26446010e-04, -2.47960360e-03,  2.70000000e-02
   41206, -2.22133423e-19, -2.50100000e-03,  2.70000000e-02
   41207,  3.26446010e-04, -2.47960360e-03,  2.70000000e-02
   41208,  6.47306439e-04, -2.41578050e-03,  2.70000000e-02
   41209,  9.57091277e-04, -2.31062272e-03,  2.70000000e-02
   41210,  1.25050002e-03, -2.16592956e-03,  2.70000000e-02
   41211,  1.52251237e-03, -1.98417674e-03,  2.70000000e-02
   41212, -1.52251237e-03, -1.98417674e-03,  2.85000000e-02
   41213, -1.25050002e-03, -2.16592956e-03,  2.85000000e-02
   41214, -9.57091277e-04, -2.31062272e-03,  2.85000000e-02
   41215, -6.47306439e-04, -2.41578050e-03,  2.85000000e-02
   41216, -3.26446010e-04, -2.47960360e-03,  2.85000000e-02
   41217, -2.22133423e-19, -2.50100000e-03,  2.85000000e-02
   41218,  3.26446010e-04, -2.47960360e-03,  2.85000000e-02
   41219,  6.47306439e-04, -2.41578050e-03,  2.85000000e-02
   41220,  9.57091277e-04, -2.31062272e-03,  2.85000000e-02
   41221,  1.25050002e-03, -2.16592956e-03,  2.85000000e-02
   41222,  1.52251237e-03, -1.98417674e-03,  2.85000000e-02
   41223, -1.52251237e-03, -1.98417674e-03,  3.00000000e-02
   41224, -1.25050002e-03, -2.16592956e-03,  3.00000000e-02
   41225, -9.57091277e-04, -2.31062272e-03,  3.00000000e-02
   41226, -6.47306439e-04, -2.41578050e-03,  3.00000000e-02
   41227, -3.26446010e-04, -2.47960360e-03,  3.00000000e-02
   41228, -2.22133423e-19, -2.50100000e-03,  3.00000000e-02
   41229,  3.26446010e-04, -2.47960360e-03,  3.00000000e-02
   41230,  6.47306439e-04, -2.41578050e-03,  3.00000000e-02
   41231,  9.57091277e-04, -2.31062272e-03,  3.00000000e-02
   41232,  1.25050002e-03, -2.16592956e-03,  3.00000000e-02
   41233,  1.52251237e-03, -1.98417674e-03,  3.00000000e-02
*ELEMENT, TYPE=SPRINGA, ELSET=WK_0
   38017,    29761,    40226
*SPRING, ELSET=WK_0

4.905235e-02
*ELEMENT, TYPE=SPRINGA, ELSET=WK_1
   38018,    29765,    40227
*SPRING, ELSET=WK_1

4.905235e-02
*ELEMENT, TYPE=SPRINGA, ELSET=WK_2
   38019,    29769,    40228
*SPRING, ELSET=WK_2

4.905235e-02
*ELEMENT, TYPE=SPRINGA, ELSET=WK_3
   38020,    29773,    40229
*SPRING, ELSET=WK_3

4.905235e-02
*ELEMENT, TYPE=SPRINGA, ELSET=WK_4
   38021,    29777,    40230
*SPRING, ELSET=WK_4

4.905235e-02
*ELEMENT, TYPE=SPRINGA, ELSET=WK_5
   38022,    29781,    40231
*SPRING, ELSET=WK_5

4.905235e-02
*ELEMENT, TYPE=SPRINGA, ELSET=WK_6
   38023,    29785,    40232
*SPRING, ELSET=WK_6

4.905235e-02
*ELEMENT, TYPE=SPRINGA, ELSET=WK_7
   38024,    29789,    40233
*SPRING, ELSET=WK_7

4.905235e-02
*ELEMENT, TYPE=SPRINGA, ELSET=WK_8
   38025,    29793,    40234
*SPRING, ELSET=WK_8

4.905235e-02
*ELEMENT, TYPE=SPRINGA, ELSET=WK_9
   38026,    29797,    40235
*SPRING, ELSET=WK_9

4.905235e-02
*ELEMENT, TYPE=SPRINGA, ELSET=WK_10
   38027,    29801,    40236
*SPRING, ELSET=WK_10

4.905235e-02
*ELEMENT, TYPE=SPRINGA, ELSET=WK_11
   38028,    29805,    40237
*SPRING, ELSET=WK_11

4.905235e-02
*ELEMENT, TYPE=SPRINGA, ELSET=WK_12
   38029,    29809,    40238
*SPRING, ELSET=WK_12

4.905235e-02
*ELEMENT, TYPE=SPRINGA, ELSET=WK_13
   38030,    29813,    40239
*SPRING, ELSET=WK_13

9.810469e-02
*ELEMENT, TYPE=SPRINGA, ELSET=WK_14
   38031,    29817,    40240
*SPRING, ELSET=WK_14

9.810469e-02
*ELEMENT, TYPE=SPRINGA, ELSET=WK_15
   38032,    29821,    40241
*SPRING, ELSET=WK_15

9.810469e-02
*ELEMENT, TYPE=SPRINGA, ELSET=WK_16
   38033,    29825,    40242
*SPRING, ELSET=WK_16

9.810469e-02
*ELEMENT, TYPE=SPRINGA, ELSET=WK_17
   38034,    29829,    40243
*SPRING, ELSET=WK_17

9.810469e-02
*ELEMENT, TYPE=SPRINGA, ELSET=WK_18
   38035,    29833,    40244
*SPRING, ELSET=WK_18

9.810469e-02
*ELEMENT, TYPE=SPRINGA, ELSET=WK_19
   38036,    29837,    40245
*SPRING, ELSET=WK_19

9.810469e-02
*ELEMENT, TYPE=SPRINGA, ELSET=WK_20
   38037,    29841,    40246
*SPRING, ELSET=WK_20

9.810469e-02
*ELEMENT, TYPE=SPRINGA, ELSET=WK_21
   38038,    29845,    40247
*SPRING, ELSET=WK_21

9.810469e-02
*ELEMENT, TYPE=SPRINGA, ELSET=WK_22
   38039,    29849,    40248
*SPRING, ELSET=WK_22

9.810469e-02
*ELEMENT, TYPE=SPRINGA, ELSET=WK_23
   38040,    29853,    40249
*SPRING, ELSET=WK_23

9.810469e-02
*ELEMENT, TYPE=SPRINGA, ELSET=WK_24
   38041,    29857,    40250
*SPRING, ELSET=WK_24

9.810469e-02
*ELEMENT, TYPE=SPRINGA, ELSET=WK_25
   38042,    29861,    40251
*SPRING, ELSET=WK_25

9.810469e-02
*ELEMENT, TYPE=SPRINGA, ELSET=WK_26
   38043,    29865,    40252
*SPRING, ELSET=WK_26

9.810469e-02
*ELEMENT, TYPE=SPRINGA, ELSET=WK_27
   38044,    29869,    40253
*SPRING, ELSET=WK_27

9.810469e-02
*ELEMENT, TYPE=SPRINGA, ELSET=WK_28
   38045,    29873,    40254
*SPRING, ELSET=WK_28

9.810469e-02
*ELEMENT, TYPE=SPRINGA, ELSET=WK_29
   38046,    29877,    40255
*SPRING, ELSET=WK_29

9.810469e-02
*ELEMENT, TYPE=SPRINGA, ELSET=WK_30
   38047,    29881,    40256
*SPRING, ELSET=WK_30

9.810469e-02
*ELEMENT, TYPE=SPRINGA, ELSET=WK_31
   38048,    29885,    40257
*SPRING, ELSET=WK_31

9.810469e-02
*ELEMENT, TYPE=SPRINGA, ELSET=WK_32
   38049,    29889,    40258
*SPRING, ELSET=WK_32

9.810469e-02
*ELEMENT, TYPE=SPRINGA, ELSET=WK_33
   38050,    29893,    40259
*SPRING, ELSET=WK_33

9.810469e-02
*ELEMENT, TYPE=SPRINGA, ELSET=WK_34
   38051,    29897,    40260
*SPRING, ELSET=WK_34

9.810469e-02
*ELEMENT, TYPE=SPRINGA, ELSET=WK_35
   38052,    29901,    40261
*SPRING, ELSET=WK_35

9.810469e-02
*ELEMENT, TYPE=SPRINGA, ELSET=WK_36
   38053,    29905,    40262
*SPRING, ELSET=WK_36

9.810469e-02
*ELEMENT, TYPE=SPRINGA, ELSET=WK_37
   38054,    29909,    40263
*SPRING, ELSET=WK_37

9.810469e-02
*ELEMENT, TYPE=SPRINGA, ELSET=WK_38
   38055,    29913,    40264
*SPRING, ELSET=WK_38

9.810469e-02
*ELEMENT, TYPE=SPRINGA, ELSET=WK_39
   38056,    29917,    40265
*SPRING, ELSET=WK_39

9.810469e-02
*ELEMENT, TYPE=SPRINGA, ELSET=WK_40
   38057,    29921,    40266
*SPRING, ELSET=WK_40

9.810469e-02
*ELEMENT, TYPE=SPRINGA, ELSET=WK_41
   38058,    29925,    40267
*SPRING, ELSET=WK_41

9.810469e-02
*ELEMENT, TYPE=SPRINGA, ELSET=WK_42
   38059,    29929,    40268
*SPRING, ELSET=WK_42

9.810469e-02
*ELEMENT, TYPE=SPRINGA, ELSET=WK_43
   38060,    29933,    40269
*SPRING, ELSET=WK_43

9.810469e-02
*ELEMENT, TYPE=SPRINGA, ELSET=WK_44
   38061,    29937,    40270
*SPRING, ELSET=WK_44

9.810469e-02
*ELEMENT, TYPE=SPRINGA, ELSET=WK_45
   38062,    29941,    40271
*SPRING, ELSET=WK_45

9.810469e-02
*ELEMENT, TYPE=SPRINGA, ELSET=WK_46
   38063,    29945,    40272
*SPRING, ELSET=WK_46

9.810469e-02
*ELEMENT, TYPE=SPRINGA, ELSET=WK_47
   38064,    29949,    40273
*SPRING, ELSET=WK_47

9.810469e-02
*ELEMENT, TYPE=SPRINGA, ELSET=WK_48
   38065,    29953,    40274
*SPRING, ELSET=WK_48

9.810469e-02
*ELEMENT, TYPE=SPRINGA, ELSET=WK_49
   38066,    29957,    40275
*SPRING, ELSET=WK_49

9.810469e-02
*ELEMENT, TYPE=SPRINGA, ELSET=WK_50
   38067,    29961,    40276
*SPRING, ELSET=WK_50

9.810469e-02
*ELEMENT, TYPE=SPRINGA, ELSET=WK_51
   38068,    29965,    40277
*SPRING, ELSET=WK_51

9.810469e-02
*ELEMENT, TYPE=SPRINGA, ELSET=WK_52
   38069,    29969,    40278
*SPRING, ELSET=WK_52

9.810469e-02
*ELEMENT, TYPE=SPRINGA, ELSET=WK_53
   38070,    29973,    40279
*SPRING, ELSET=WK_53

9.810469e-02
*ELEMENT, TYPE=SPRINGA, ELSET=WK_54
   38071,    29977,    40280
*SPRING, ELSET=WK_54

9.810469e-02
*ELEMENT, TYPE=SPRINGA, ELSET=WK_55
   38072,    29981,    40281
*SPRING, ELSET=WK_55

9.810469e-02
*ELEMENT, TYPE=SPRINGA, ELSET=WK_56
   38073,    29985,    40282
*SPRING, ELSET=WK_56

9.810469e-02
*ELEMENT, TYPE=SPRINGA, ELSET=WK_57
   38074,    29989,    40283
*SPRING, ELSET=WK_57

9.810469e-02
*ELEMENT, TYPE=SPRINGA, ELSET=WK_58
   38075,    29993,    40284
*SPRING, ELSET=WK_58

9.810469e-02
*ELEMENT, TYPE=SPRINGA, ELSET=WK_59
   38076,    29997,    40285
*SPRING, ELSET=WK_59

9.810469e-02
*ELEMENT, TYPE=SPRINGA, ELSET=WK_60
   38077,    30001,    40286
*SPRING, ELSET=WK_60

9.810469e-02
*ELEMENT, TYPE=SPRINGA, ELSET=WK_61
   38078,    30005,    40287
*SPRING, ELSET=WK_61

9.810469e-02
*ELEMENT, TYPE=SPRINGA, ELSET=WK_62
   38079,    30009,    40288
*SPRING, ELSET=WK_62

9.810469e-02
*ELEMENT, TYPE=SPRINGA, ELSET=WK_63
   38080,    30013,    40289
*SPRING, ELSET=WK_63

9.810469e-02
*ELEMENT, TYPE=SPRINGA, ELSET=WK_64
   38081,    30017,    40290
*SPRING, ELSET=WK_64

9.810469e-02
*ELEMENT, TYPE=SPRINGA, ELSET=WK_65
   38082,    30021,    40291
*SPRING, ELSET=WK_65

9.810469e-02
*ELEMENT, TYPE=SPRINGA, ELSET=WK_66
   38083,    30025,    40292
*SPRING, ELSET=WK_66

9.810469e-02
*ELEMENT, TYPE=SPRINGA, ELSET=WK_67
   38084,    30029,    40293
*SPRING, ELSET=WK_67

9.810469e-02
*ELEMENT, TYPE=SPRINGA, ELSET=WK_68
   38085,    30033,    40294
*SPRING, ELSET=WK_68

9.810469e-02
*ELEMENT, TYPE=SPRINGA, ELSET=WK_69
   38086,    30037,    40295
*SPRING, ELSET=WK_69

9.810469e-02
*ELEMENT, TYPE=SPRINGA, ELSET=WK_70
   38087,    30041,    40296
*SPRING, ELSET=WK_70

9.810469e-02
*ELEMENT, TYPE=SPRINGA, ELSET=WK_71
   38088,    30045,    40297
*SPRING, ELSET=WK_71

9.810469e-02
*ELEMENT, TYPE=SPRINGA, ELSET=WK_72
   38089,    30049,    40298
*SPRING, ELSET=WK_72

9.810469e-02
*ELEMENT, TYPE=SPRINGA, ELSET=WK_73
   38090,    30053,    40299
*SPRING, ELSET=WK_73

9.810469e-02
*ELEMENT, TYPE=SPRINGA, ELSET=WK_74
   38091,    30057,    40300
*SPRING, ELSET=WK_74

9.810469e-02
*ELEMENT, TYPE=SPRINGA, ELSET=WK_75
   38092,    30061,    40301
*SPRING, ELSET=WK_75

9.810469e-02
*ELEMENT, TYPE=SPRINGA, ELSET=WK_76
   38093,    30065,    40302
*SPRING, ELSET=WK_76

9.810469e-02
*ELEMENT, TYPE=SPRINGA, ELSET=WK_77
   38094,    30069,    40303
*SPRING, ELSET=WK_77

9.810469e-02
*ELEMENT, TYPE=SPRINGA, ELSET=WK_78
   38095,    30073,    40304
*SPRING, ELSET=WK_78

9.810469e-02
*ELEMENT, TYPE=SPRINGA, ELSET=WK_79
   38096,    30077,    40305
*SPRING, ELSET=WK_79

9.810469e-02
*ELEMENT, TYPE=SPRINGA, ELSET=WK_80
   38097,    30081,    40306
*SPRING, ELSET=WK_80

9.810469e-02
*ELEMENT, TYPE=SPRINGA, ELSET=WK_81
   38098,    30085,    40307
*SPRING, ELSET=WK_81

9.810469e-02
*ELEMENT, TYPE=SPRINGA, ELSET=WK_82
   38099,    30089,    40308
*SPRING, ELSET=WK_82

9.810469e-02
*ELEMENT, TYPE=SPRINGA, ELSET=WK_83
   38100,    30093,    40309
*SPRING, ELSET=WK_83

9.810469e-02
*ELEMENT, TYPE=SPRINGA, ELSET=WK_84
   38101,    30097,    40310
*SPRING, ELSET=WK_84

9.810469e-02
*ELEMENT, TYPE=SPRINGA, ELSET=WK_85
   38102,    30101,    40311
*SPRING, ELSET=WK_85

9.810469e-02
*ELEMENT, TYPE=SPRINGA, ELSET=WK_86
   38103,    30105,    40312
*SPRING, ELSET=WK_86

9.810469e-02
*ELEMENT, TYPE=SPRINGA, ELSET=WK_87
   38104,    30109,    40313
*SPRING, ELSET=WK_87

9.810469e-02
*ELEMENT, TYPE=SPRINGA, ELSET=WK_88
   38105,    30113,    40314
*SPRING, ELSET=WK_88

9.810469e-02
*ELEMENT, TYPE=SPRINGA, ELSET=WK_89
   38106,    30117,    40315
*SPRING, ELSET=WK_89

9.810469e-02
*ELEMENT, TYPE=SPRINGA, ELSET=WK_90
   38107,    30121,    40316
*SPRING, ELSET=WK_90

9.810469e-02
*ELEMENT, TYPE=SPRINGA, ELSET=WK_91
   38108,    30125,    40317
*SPRING, ELSET=WK_91

9.810469e-02
*ELEMENT, TYPE=SPRINGA, ELSET=WK_92
   38109,    30129,    40318
*SPRING, ELSET=WK_92

9.810469e-02
*ELEMENT, TYPE=SPRINGA, ELSET=WK_93
   38110,    30133,    40319
*SPRING, ELSET=WK_93

9.810469e-02
*ELEMENT, TYPE=SPRINGA, ELSET=WK_94
   38111,    30137,    40320
*SPRING, ELSET=WK_94

9.810469e-02
*ELEMENT, TYPE=SPRINGA, ELSET=WK_95
   38112,    30141,    40321
*SPRING, ELSET=WK_95

9.810469e-02
*ELEMENT, TYPE=SPRINGA, ELSET=WK_96
   38113,    30145,    40322
*SPRING, ELSET=WK_96

9.810469e-02
*ELEMENT, TYPE=SPRINGA, ELSET=WK_97
   38114,    30149,    40323
*SPRING, ELSET=WK_97

9.810469e-02
*ELEMENT, TYPE=SPRINGA, ELSET=WK_98
   38115,    30153,    40324
*SPRING, ELSET=WK_98

9.810469e-02
*ELEMENT, TYPE=SPRINGA, ELSET=WK_99
   38116,    30157,    40325
*SPRING, ELSET=WK_99

9.810469e-02
*ELEMENT, TYPE=SPRINGA, ELSET=WK_100
   38117,    30161,    40326
*SPRING, ELSET=WK_100

9.810469e-02
*ELEMENT, TYPE=SPRINGA, ELSET=WK_101
   38118,    30165,    40327
*SPRING, ELSET=WK_101

9.810469e-02
*ELEMENT, TYPE=SPRINGA, ELSET=WK_102
   38119,    30169,    40328
*SPRING, ELSET=WK_102

9.810469e-02
*ELEMENT, TYPE=SPRINGA, ELSET=WK_103
   38120,    30173,    40329
*SPRING, ELSET=WK_103

9.810469e-02
*ELEMENT, TYPE=SPRINGA, ELSET=WK_104
   38121,    30177,    40330
*SPRING, ELSET=WK_104

9.810469e-02
*ELEMENT, TYPE=SPRINGA, ELSET=WK_105
   38122,    30181,    40331
*SPRING, ELSET=WK_105

9.810469e-02
*ELEMENT, TYPE=SPRINGA, ELSET=WK_106
   38123,    30185,    40332
*SPRING, ELSET=WK_106

9.810469e-02
*ELEMENT, TYPE=SPRINGA, ELSET=WK_107
   38124,    30189,    40333
*SPRING, ELSET=WK_107

9.810469e-02
*ELEMENT, TYPE=SPRINGA, ELSET=WK_108
   38125,    30193,    40334
*SPRING, ELSET=WK_108

9.810469e-02
*ELEMENT, TYPE=SPRINGA, ELSET=WK_109
   38126,    30197,    40335
*SPRING, ELSET=WK_109

9.810469e-02
*ELEMENT, TYPE=SPRINGA, ELSET=WK_110
   38127,    30201,    40336
*SPRING, ELSET=WK_110

9.810469e-02
*ELEMENT, TYPE=SPRINGA, ELSET=WK_111
   38128,    30205,    40337
*SPRING, ELSET=WK_111

9.810469e-02
*ELEMENT, TYPE=SPRINGA, ELSET=WK_112
   38129,    30209,    40338
*SPRING, ELSET=WK_112

9.810469e-02
*ELEMENT, TYPE=SPRINGA, ELSET=WK_113
   38130,    30213,    40339
*SPRING, ELSET=WK_113

9.810469e-02
*ELEMENT, TYPE=SPRINGA, ELSET=WK_114
   38131,    30217,    40340
*SPRING, ELSET=WK_114

9.810469e-02
*ELEMENT, TYPE=SPRINGA, ELSET=WK_115
   38132,    30221,    40341
*SPRING, ELSET=WK_115

9.810469e-02
*ELEMENT, TYPE=SPRINGA, ELSET=WK_116
   38133,    30225,    40342
*SPRING, ELSET=WK_116

9.810469e-02
*ELEMENT, TYPE=SPRINGA, ELSET=WK_117
   38134,    30229,    40343
*SPRING, ELSET=WK_117

9.810469e-02
*ELEMENT, TYPE=SPRINGA, ELSET=WK_118
   38135,    30233,    40344
*SPRING, ELSET=WK_118

9.810469e-02
*ELEMENT, TYPE=SPRINGA, ELSET=WK_119
   38136,    30237,    40345
*SPRING, ELSET=WK_119

9.810469e-02
*ELEMENT, TYPE=SPRINGA, ELSET=WK_120
   38137,    30241,    40346
*SPRING, ELSET=WK_120

9.810469e-02
*ELEMENT, TYPE=SPRINGA, ELSET=WK_121
   38138,    30245,    40347
*SPRING, ELSET=WK_121

9.810469e-02
*ELEMENT, TYPE=SPRINGA, ELSET=WK_122
   38139,    30249,    40348
*SPRING, ELSET=WK_122

9.810469e-02
*ELEMENT, TYPE=SPRINGA, ELSET=WK_123
   38140,    30253,    40349
*SPRING, ELSET=WK_123

9.810469e-02
*ELEMENT, TYPE=SPRINGA, ELSET=WK_124
   38141,    30257,    40350
*SPRING, ELSET=WK_124

9.810469e-02
*ELEMENT, TYPE=SPRINGA, ELSET=WK_125
   38142,    30261,    40351
*SPRING, ELSET=WK_125

9.810469e-02
*ELEMENT, TYPE=SPRINGA, ELSET=WK_126
   38143,    30265,    40352
*SPRING, ELSET=WK_126

9.810469e-02
*ELEMENT, TYPE=SPRINGA, ELSET=WK_127
   38144,    30269,    40353
*SPRING, ELSET=WK_127

9.810469e-02
*ELEMENT, TYPE=SPRINGA, ELSET=WK_128
   38145,    30273,    40354
*SPRING, ELSET=WK_128

9.810469e-02
*ELEMENT, TYPE=SPRINGA, ELSET=WK_129
   38146,    30277,    40355
*SPRING, ELSET=WK_129

9.810469e-02
*ELEMENT, TYPE=SPRINGA, ELSET=WK_130
   38147,    30281,    40356
*SPRING, ELSET=WK_130

9.810469e-02
*ELEMENT, TYPE=SPRINGA, ELSET=WK_131
   38148,    30285,    40357
*SPRING, ELSET=WK_131

9.810469e-02
*ELEMENT, TYPE=SPRINGA, ELSET=WK_132
   38149,    30289,    40358
*SPRING, ELSET=WK_132

9.810469e-02
*ELEMENT, TYPE=SPRINGA, ELSET=WK_133
   38150,    30293,    40359
*SPRING, ELSET=WK_133

9.810469e-02
*ELEMENT, TYPE=SPRINGA, ELSET=WK_134
   38151,    30297,    40360
*SPRING, ELSET=WK_134

9.810469e-02
*ELEMENT, TYPE=SPRINGA, ELSET=WK_135
   38152,    30301,    40361
*SPRING, ELSET=WK_135

9.810469e-02
*ELEMENT, TYPE=SPRINGA, ELSET=WK_136
   38153,    30305,    40362
*SPRING, ELSET=WK_136

9.810469e-02
*ELEMENT, TYPE=SPRINGA, ELSET=WK_137
   38154,    30309,    40363
*SPRING, ELSET=WK_137

9.810469e-02
*ELEMENT, TYPE=SPRINGA, ELSET=WK_138
   38155,    30313,    40364
*SPRING, ELSET=WK_138

9.810469e-02
*ELEMENT, TYPE=SPRINGA, ELSET=WK_139
   38156,    30317,    40365
*SPRING, ELSET=WK_139

9.810469e-02
*ELEMENT, TYPE=SPRINGA, ELSET=WK_140
   38157,    30321,    40366
*SPRING, ELSET=WK_140

9.810469e-02
*ELEMENT, TYPE=SPRINGA, ELSET=WK_141
   38158,    30325,    40367
*SPRING, ELSET=WK_141

9.810469e-02
*ELEMENT, TYPE=SPRINGA, ELSET=WK_142
   38159,    30329,    40368
*SPRING, ELSET=WK_142

9.810469e-02
*ELEMENT, TYPE=SPRINGA, ELSET=WK_143
   38160,    30333,    40369
*SPRING, ELSET=WK_143

9.810469e-02
*ELEMENT, TYPE=SPRINGA, ELSET=WK_144
   38161,    30337,    40370
*SPRING, ELSET=WK_144

9.810469e-02
*ELEMENT, TYPE=SPRINGA, ELSET=WK_145
   38162,    30341,    40371
*SPRING, ELSET=WK_145

9.810469e-02
*ELEMENT, TYPE=SPRINGA, ELSET=WK_146
   38163,    30345,    40372
*SPRING, ELSET=WK_146

9.810469e-02
*ELEMENT, TYPE=SPRINGA, ELSET=WK_147
   38164,    30349,    40373
*SPRING, ELSET=WK_147

9.810469e-02
*ELEMENT, TYPE=SPRINGA, ELSET=WK_148
   38165,    30353,    40374
*SPRING, ELSET=WK_148

9.810469e-02
*ELEMENT, TYPE=SPRINGA, ELSET=WK_149
   38166,    30357,    40375
*SPRING, ELSET=WK_149

9.810469e-02
*ELEMENT, TYPE=SPRINGA, ELSET=WK_150
   38167,    30361,    40376
*SPRING, ELSET=WK_150

9.810469e-02
*ELEMENT, TYPE=SPRINGA, ELSET=WK_151
   38168,    30365,    40377
*SPRING, ELSET=WK_151

9.810469e-02
*ELEMENT, TYPE=SPRINGA, ELSET=WK_152
   38169,    30369,    40378
*SPRING, ELSET=WK_152

9.810469e-02
*ELEMENT, TYPE=SPRINGA, ELSET=WK_153
   38170,    30373,    40379
*SPRING, ELSET=WK_153

9.810469e-02
*ELEMENT, TYPE=SPRINGA, ELSET=WK_154
   38171,    30377,    40380
*SPRING, ELSET=WK_154

9.810469e-02
*ELEMENT, TYPE=SPRINGA, ELSET=WK_155
   38172,    30381,    40381
*SPRING, ELSET=WK_155

9.810469e-02
*ELEMENT, TYPE=SPRINGA, ELSET=WK_156
   38173,    30385,    40382
*SPRING, ELSET=WK_156

9.810469e-02
*ELEMENT, TYPE=SPRINGA, ELSET=WK_157
   38174,    30389,    40383
*SPRING, ELSET=WK_157

9.810469e-02
*ELEMENT, TYPE=SPRINGA, ELSET=WK_158
   38175,    30393,    40384
*SPRING, ELSET=WK_158

9.810469e-02
*ELEMENT, TYPE=SPRINGA, ELSET=WK_159
   38176,    30397,    40385
*SPRING, ELSET=WK_159

9.810469e-02
*ELEMENT, TYPE=SPRINGA, ELSET=WK_160
   38177,    30401,    40386
*SPRING, ELSET=WK_160

9.810469e-02
*ELEMENT, TYPE=SPRINGA, ELSET=WK_161
   38178,    30405,    40387
*SPRING, ELSET=WK_161

9.810469e-02
*ELEMENT, TYPE=SPRINGA, ELSET=WK_162
   38179,    30409,    40388
*SPRING, ELSET=WK_162

9.810469e-02
*ELEMENT, TYPE=SPRINGA, ELSET=WK_163
   38180,    30413,    40389
*SPRING, ELSET=WK_163

9.810469e-02
*ELEMENT, TYPE=SPRINGA, ELSET=WK_164
   38181,    30417,    40390
*SPRING, ELSET=WK_164

9.810469e-02
*ELEMENT, TYPE=SPRINGA, ELSET=WK_165
   38182,    30421,    40391
*SPRING, ELSET=WK_165

9.810469e-02
*ELEMENT, TYPE=SPRINGA, ELSET=WK_166
   38183,    30425,    40392
*SPRING, ELSET=WK_166

9.810469e-02
*ELEMENT, TYPE=SPRINGA, ELSET=WK_167
   38184,    30429,    40393
*SPRING, ELSET=WK_167

9.810469e-02
*ELEMENT, TYPE=SPRINGA, ELSET=WK_168
   38185,    30433,    40394
*SPRING, ELSET=WK_168

9.810469e-02
*ELEMENT, TYPE=SPRINGA, ELSET=WK_169
   38186,    30437,    40395
*SPRING, ELSET=WK_169

9.810469e-02
*ELEMENT, TYPE=SPRINGA, ELSET=WK_170
   38187,    30441,    40396
*SPRING, ELSET=WK_170

9.810469e-02
*ELEMENT, TYPE=SPRINGA, ELSET=WK_171
   38188,    30445,    40397
*SPRING, ELSET=WK_171

9.810469e-02
*ELEMENT, TYPE=SPRINGA, ELSET=WK_172
   38189,    30449,    40398
*SPRING, ELSET=WK_172

9.810469e-02
*ELEMENT, TYPE=SPRINGA, ELSET=WK_173
   38190,    30453,    40399
*SPRING, ELSET=WK_173

9.810469e-02
*ELEMENT, TYPE=SPRINGA, ELSET=WK_174
   38191,    30457,    40400
*SPRING, ELSET=WK_174

9.810469e-02
*ELEMENT, TYPE=SPRINGA, ELSET=WK_175
   38192,    30461,    40401
*SPRING, ELSET=WK_175

9.810469e-02
*ELEMENT, TYPE=SPRINGA, ELSET=WK_176
   38193,    30465,    40402
*SPRING, ELSET=WK_176

9.810469e-02
*ELEMENT, TYPE=SPRINGA, ELSET=WK_177
   38194,    30469,    40403
*SPRING, ELSET=WK_177

9.810469e-02
*ELEMENT, TYPE=SPRINGA, ELSET=WK_178
   38195,    30473,    40404
*SPRING, ELSET=WK_178

9.810469e-02
*ELEMENT, TYPE=SPRINGA, ELSET=WK_179
   38196,    30477,    40405
*SPRING, ELSET=WK_179

9.810469e-02
*ELEMENT, TYPE=SPRINGA, ELSET=WK_180
   38197,    30481,    40406
*SPRING, ELSET=WK_180

9.810469e-02
*ELEMENT, TYPE=SPRINGA, ELSET=WK_181
   38198,    30485,    40407
*SPRING, ELSET=WK_181

9.810469e-02
*ELEMENT, TYPE=SPRINGA, ELSET=WK_182
   38199,    30489,    40408
*SPRING, ELSET=WK_182

9.810469e-02
*ELEMENT, TYPE=SPRINGA, ELSET=WK_183
   38200,    30493,    40409
*SPRING, ELSET=WK_183

9.810469e-02
*ELEMENT, TYPE=SPRINGA, ELSET=WK_184
   38201,    30497,    40410
*SPRING, ELSET=WK_184

9.810469e-02
*ELEMENT, TYPE=SPRINGA, ELSET=WK_185
   38202,    30501,    40411
*SPRING, ELSET=WK_185

9.810469e-02
*ELEMENT, TYPE=SPRINGA, ELSET=WK_186
   38203,    30505,    40412
*SPRING, ELSET=WK_186

9.810469e-02
*ELEMENT, TYPE=SPRINGA, ELSET=WK_187
   38204,    30509,    40413
*SPRING, ELSET=WK_187

9.810469e-02
*ELEMENT, TYPE=SPRINGA, ELSET=WK_188
   38205,    30513,    40414
*SPRING, ELSET=WK_188

9.810469e-02
*ELEMENT, TYPE=SPRINGA, ELSET=WK_189
   38206,    30517,    40415
*SPRING, ELSET=WK_189

9.810469e-02
*ELEMENT, TYPE=SPRINGA, ELSET=WK_190
   38207,    30521,    40416
*SPRING, ELSET=WK_190

9.810469e-02
*ELEMENT, TYPE=SPRINGA, ELSET=WK_191
   38208,    30525,    40417
*SPRING, ELSET=WK_191

9.810469e-02
*ELEMENT, TYPE=SPRINGA, ELSET=WK_192
   38209,    30529,    40418
*SPRING, ELSET=WK_192

9.810469e-02
*ELEMENT, TYPE=SPRINGA, ELSET=WK_193
   38210,    30533,    40419
*SPRING, ELSET=WK_193

9.810469e-02
*ELEMENT, TYPE=SPRINGA, ELSET=WK_194
   38211,    30537,    40420
*SPRING, ELSET=WK_194

9.810469e-02
*ELEMENT, TYPE=SPRINGA, ELSET=WK_195
   38212,    30541,    40421
*SPRING, ELSET=WK_195

9.810469e-02
*ELEMENT, TYPE=SPRINGA, ELSET=WK_196
   38213,    30545,    40422
*SPRING, ELSET=WK_196

9.810469e-02
*ELEMENT, TYPE=SPRINGA, ELSET=WK_197
   38214,    30549,    40423
*SPRING, ELSET=WK_197

9.810469e-02
*ELEMENT, TYPE=SPRINGA, ELSET=WK_198
   38215,    30553,    40424
*SPRING, ELSET=WK_198

9.810469e-02
*ELEMENT, TYPE=SPRINGA, ELSET=WK_199
   38216,    30557,    40425
*SPRING, ELSET=WK_199

9.810469e-02
*ELEMENT, TYPE=SPRINGA, ELSET=WK_200
   38217,    30561,    40426
*SPRING, ELSET=WK_200

9.810469e-02
*ELEMENT, TYPE=SPRINGA, ELSET=WK_201
   38218,    30565,    40427
*SPRING, ELSET=WK_201

9.810469e-02
*ELEMENT, TYPE=SPRINGA, ELSET=WK_202
   38219,    30569,    40428
*SPRING, ELSET=WK_202

9.810469e-02
*ELEMENT, TYPE=SPRINGA, ELSET=WK_203
   38220,    30573,    40429
*SPRING, ELSET=WK_203

9.810469e-02
*ELEMENT, TYPE=SPRINGA, ELSET=WK_204
   38221,    30577,    40430
*SPRING, ELSET=WK_204

9.810469e-02
*ELEMENT, TYPE=SPRINGA, ELSET=WK_205
   38222,    30581,    40431
*SPRING, ELSET=WK_205

9.810469e-02
*ELEMENT, TYPE=SPRINGA, ELSET=WK_206
   38223,    30585,    40432
*SPRING, ELSET=WK_206

9.810469e-02
*ELEMENT, TYPE=SPRINGA, ELSET=WK_207
   38224,    30589,    40433
*SPRING, ELSET=WK_207

9.810469e-02
*ELEMENT, TYPE=SPRINGA, ELSET=WK_208
   38225,    30593,    40434
*SPRING, ELSET=WK_208

9.810469e-02
*ELEMENT, TYPE=SPRINGA, ELSET=WK_209
   38226,    30597,    40435
*SPRING, ELSET=WK_209

9.810469e-02
*ELEMENT, TYPE=SPRINGA, ELSET=WK_210
   38227,    30601,    40436
*SPRING, ELSET=WK_210

9.810469e-02
*ELEMENT, TYPE=SPRINGA, ELSET=WK_211
   38228,    30605,    40437
*SPRING, ELSET=WK_211

9.810469e-02
*ELEMENT, TYPE=SPRINGA, ELSET=WK_212
   38229,    30609,    40438
*SPRING, ELSET=WK_212

9.810469e-02
*ELEMENT, TYPE=SPRINGA, ELSET=WK_213
   38230,    30613,    40439
*SPRING, ELSET=WK_213

9.810469e-02
*ELEMENT, TYPE=SPRINGA, ELSET=WK_214
   38231,    30617,    40440
*SPRING, ELSET=WK_214

9.810469e-02
*ELEMENT, TYPE=SPRINGA, ELSET=WK_215
   38232,    30621,    40441
*SPRING, ELSET=WK_215

9.810469e-02
*ELEMENT, TYPE=SPRINGA, ELSET=WK_216
   38233,    30625,    40442
*SPRING, ELSET=WK_216

9.810469e-02
*ELEMENT, TYPE=SPRINGA, ELSET=WK_217
   38234,    30629,    40443
*SPRING, ELSET=WK_217

9.810469e-02
*ELEMENT, TYPE=SPRINGA, ELSET=WK_218
   38235,    30633,    40444
*SPRING, ELSET=WK_218

9.810469e-02
*ELEMENT, TYPE=SPRINGA, ELSET=WK_219
   38236,    30637,    40445
*SPRING, ELSET=WK_219

9.810469e-02
*ELEMENT, TYPE=SPRINGA, ELSET=WK_220
   38237,    30641,    40446
*SPRING, ELSET=WK_220

9.810469e-02
*ELEMENT, TYPE=SPRINGA, ELSET=WK_221
   38238,    30645,    40447
*SPRING, ELSET=WK_221

9.810469e-02
*ELEMENT, TYPE=SPRINGA, ELSET=WK_222
   38239,    30649,    40448
*SPRING, ELSET=WK_222

9.810469e-02
*ELEMENT, TYPE=SPRINGA, ELSET=WK_223
   38240,    30653,    40449
*SPRING, ELSET=WK_223

9.810469e-02
*ELEMENT, TYPE=SPRINGA, ELSET=WK_224
   38241,    30657,    40450
*SPRING, ELSET=WK_224

9.810469e-02
*ELEMENT, TYPE=SPRINGA, ELSET=WK_225
   38242,    30661,    40451
*SPRING, ELSET=WK_225

9.810469e-02
*ELEMENT, TYPE=SPRINGA, ELSET=WK_226
   38243,    30665,    40452
*SPRING, ELSET=WK_226

9.810469e-02
*ELEMENT, TYPE=SPRINGA, ELSET=WK_227
   38244,    30669,    40453
*SPRING, ELSET=WK_227

9.810469e-02
*ELEMENT, TYPE=SPRINGA, ELSET=WK_228
   38245,    30673,    40454
*SPRING, ELSET=WK_228

9.810469e-02
*ELEMENT, TYPE=SPRINGA, ELSET=WK_229
   38246,    30677,    40455
*SPRING, ELSET=WK_229

9.810469e-02
*ELEMENT, TYPE=SPRINGA, ELSET=WK_230
   38247,    30681,    40456
*SPRING, ELSET=WK_230

9.810469e-02
*ELEMENT, TYPE=SPRINGA, ELSET=WK_231
   38248,    30685,    40457
*SPRING, ELSET=WK_231

9.810469e-02
*ELEMENT, TYPE=SPRINGA, ELSET=WK_232
   38249,    30689,    40458
*SPRING, ELSET=WK_232

9.810469e-02
*ELEMENT, TYPE=SPRINGA, ELSET=WK_233
   38250,    30693,    40459
*SPRING, ELSET=WK_233

9.810469e-02
*ELEMENT, TYPE=SPRINGA, ELSET=WK_234
   38251,    30697,    40460
*SPRING, ELSET=WK_234

9.810469e-02
*ELEMENT, TYPE=SPRINGA, ELSET=WK_235
   38252,    30701,    40461
*SPRING, ELSET=WK_235

9.810469e-02
*ELEMENT, TYPE=SPRINGA, ELSET=WK_236
   38253,    30705,    40462
*SPRING, ELSET=WK_236

9.810469e-02
*ELEMENT, TYPE=SPRINGA, ELSET=WK_237
   38254,    30709,    40463
*SPRING, ELSET=WK_237

9.810469e-02
*ELEMENT, TYPE=SPRINGA, ELSET=WK_238
   38255,    30713,    40464
*SPRING, ELSET=WK_238

9.810469e-02
*ELEMENT, TYPE=SPRINGA, ELSET=WK_239
   38256,    30717,    40465
*SPRING, ELSET=WK_239

9.810469e-02
*ELEMENT, TYPE=SPRINGA, ELSET=WK_240
   38257,    30721,    40466
*SPRING, ELSET=WK_240

9.810469e-02
*ELEMENT, TYPE=SPRINGA, ELSET=WK_241
   38258,    30725,    40467
*SPRING, ELSET=WK_241

9.810469e-02
*ELEMENT, TYPE=SPRINGA, ELSET=WK_242
   38259,    30729,    40468
*SPRING, ELSET=WK_242

9.810469e-02
*ELEMENT, TYPE=SPRINGA, ELSET=WK_243
   38260,    30733,    40469
*SPRING, ELSET=WK_243

9.810469e-02
*ELEMENT, TYPE=SPRINGA, ELSET=WK_244
   38261,    30737,    40470
*SPRING, ELSET=WK_244

9.810469e-02
*ELEMENT, TYPE=SPRINGA, ELSET=WK_245
   38262,    30741,    40471
*SPRING, ELSET=WK_245

9.810469e-02
*ELEMENT, TYPE=SPRINGA, ELSET=WK_246
   38263,    30745,    40472
*SPRING, ELSET=WK_246

9.810469e-02
*ELEMENT, TYPE=SPRINGA, ELSET=WK_247
   38264,    30749,    40473
*SPRING, ELSET=WK_247

9.810469e-02
*ELEMENT, TYPE=SPRINGA, ELSET=WK_248
   38265,    30753,    40474
*SPRING, ELSET=WK_248

9.810469e-02
*ELEMENT, TYPE=SPRINGA, ELSET=WK_249
   38266,    30757,    40475
*SPRING, ELSET=WK_249

9.810469e-02
*ELEMENT, TYPE=SPRINGA, ELSET=WK_250
   38267,    30761,    40476
*SPRING, ELSET=WK_250

9.810469e-02
*ELEMENT, TYPE=SPRINGA, ELSET=WK_251
   38268,    30765,    40477
*SPRING, ELSET=WK_251

9.810469e-02
*ELEMENT, TYPE=SPRINGA, ELSET=WK_252
   38269,    30769,    40478
*SPRING, ELSET=WK_252

9.810469e-02
*ELEMENT, TYPE=SPRINGA, ELSET=WK_253
   38270,    30773,    40479
*SPRING, ELSET=WK_253

9.810469e-02
*ELEMENT, TYPE=SPRINGA, ELSET=WK_254
   38271,    30777,    40480
*SPRING, ELSET=WK_254

9.810469e-02
*ELEMENT, TYPE=SPRINGA, ELSET=WK_255
   38272,    30781,    40481
*SPRING, ELSET=WK_255

9.810469e-02
*ELEMENT, TYPE=SPRINGA, ELSET=WK_256
   38273,    30785,    40482
*SPRING, ELSET=WK_256

9.810469e-02
*ELEMENT, TYPE=SPRINGA, ELSET=WK_257
   38274,    30789,    40483
*SPRING, ELSET=WK_257

9.810469e-02
*ELEMENT, TYPE=SPRINGA, ELSET=WK_258
   38275,    30793,    40484
*SPRING, ELSET=WK_258

9.810469e-02
*ELEMENT, TYPE=SPRINGA, ELSET=WK_259
   38276,    30797,    40485
*SPRING, ELSET=WK_259

9.810469e-02
*ELEMENT, TYPE=SPRINGA, ELSET=WK_260
   38277,    30801,    40486
*SPRING, ELSET=WK_260

4.905235e-02
*ELEMENT, TYPE=SPRINGA, ELSET=WK_261
   38278,    30805,    40487
*SPRING, ELSET=WK_261

4.905235e-02
*ELEMENT, TYPE=SPRINGA, ELSET=WK_262
   38279,    30809,    40488
*SPRING, ELSET=WK_262

4.905235e-02
*ELEMENT, TYPE=SPRINGA, ELSET=WK_263
   38280,    30813,    40489
*SPRING, ELSET=WK_263

4.905235e-02
*ELEMENT, TYPE=SPRINGA, ELSET=WK_264
   38281,    30817,    40490
*SPRING, ELSET=WK_264

4.905235e-02
*ELEMENT, TYPE=SPRINGA, ELSET=WK_265
   38282,    30821,    40491
*SPRING, ELSET=WK_265

4.905235e-02
*ELEMENT, TYPE=SPRINGA, ELSET=WK_266
   38283,    30825,    40492
*SPRING, ELSET=WK_266

4.905235e-02
*ELEMENT, TYPE=SPRINGA, ELSET=WK_267
   38284,    30829,    40493
*SPRING, ELSET=WK_267

4.905235e-02
*ELEMENT, TYPE=SPRINGA, ELSET=WK_268
   38285,    30833,    40494
*SPRING, ELSET=WK_268

4.905235e-02
*ELEMENT, TYPE=SPRINGA, ELSET=WK_269
   38286,    30837,    40495
*SPRING, ELSET=WK_269

4.905235e-02
*ELEMENT, TYPE=SPRINGA, ELSET=WK_270
   38287,    30841,    40496
*SPRING, ELSET=WK_270

4.905235e-02
*ELEMENT, TYPE=SPRINGA, ELSET=WK_271
   38288,    30845,    40497
*SPRING, ELSET=WK_271

4.905235e-02
*ELEMENT, TYPE=SPRINGA, ELSET=WK_272
   38289,    30849,    40498
*SPRING, ELSET=WK_272

4.905235e-02
*ELEMENT, TYPE=SPRINGA, ELSET=WK_273
   38290,    30853,    40499
*SPRING, ELSET=WK_273

4.905235e-02
*ELEMENT, TYPE=SPRINGA, ELSET=WK_274
   38291,    30857,    40500
*SPRING, ELSET=WK_274

4.905235e-02
*ELEMENT, TYPE=SPRINGA, ELSET=WK_275
   38292,    30861,    40501
*SPRING, ELSET=WK_275

4.905235e-02
*ELEMENT, TYPE=SPRINGA, ELSET=WK_276
   38293,    30865,    40502
*SPRING, ELSET=WK_276

4.905235e-02
*ELEMENT, TYPE=SPRINGA, ELSET=WK_277
   38294,    30869,    40503
*SPRING, ELSET=WK_277

4.905235e-02
*ELEMENT, TYPE=SPRINGA, ELSET=WK_278
   38295,    30873,    40504
*SPRING, ELSET=WK_278

4.905235e-02
*ELEMENT, TYPE=SPRINGA, ELSET=WK_279
   38296,    30877,    40505
*SPRING, ELSET=WK_279

4.905235e-02
*ELEMENT, TYPE=SPRINGA, ELSET=WK_280
   38297,    30881,    40506
*SPRING, ELSET=WK_280

4.905235e-02
*ELEMENT, TYPE=SPRINGA, ELSET=WK_281
   38298,    30885,    40507
*SPRING, ELSET=WK_281

4.905235e-02
*ELEMENT, TYPE=SPRINGA, ELSET=WK_282
   38299,    30889,    40508
*SPRING, ELSET=WK_282

4.905235e-02
*ELEMENT, TYPE=SPRINGA, ELSET=WK_283
   38300,    30893,    40509
*SPRING, ELSET=WK_283

4.905235e-02
*ELEMENT, TYPE=SPRINGA, ELSET=WK_284
   38301,    30897,    40510
*SPRING, ELSET=WK_284

4.905235e-02
*ELEMENT, TYPE=SPRINGA, ELSET=WK_285
   38302,    30901,    40511
*SPRING, ELSET=WK_285

9.810469e-02
*ELEMENT, TYPE=SPRINGA, ELSET=WK_286
   38303,    30905,    40512
*SPRING, ELSET=WK_286

9.810469e-02
*ELEMENT, TYPE=SPRINGA, ELSET=WK_287
   38304,    30909,    40513
*SPRING, ELSET=WK_287

9.810469e-02
*ELEMENT, TYPE=SPRINGA, ELSET=WK_288
   38305,    30913,    40514
*SPRING, ELSET=WK_288

9.810469e-02
*ELEMENT, TYPE=SPRINGA, ELSET=WK_289
   38306,    30917,    40515
*SPRING, ELSET=WK_289

9.810469e-02
*ELEMENT, TYPE=SPRINGA, ELSET=WK_290
   38307,    30921,    40516
*SPRING, ELSET=WK_290

9.810469e-02
*ELEMENT, TYPE=SPRINGA, ELSET=WK_291
   38308,    30925,    40517
*SPRING, ELSET=WK_291

9.810469e-02
*ELEMENT, TYPE=SPRINGA, ELSET=WK_292
   38309,    30929,    40518
*SPRING, ELSET=WK_292

9.810469e-02
*ELEMENT, TYPE=SPRINGA, ELSET=WK_293
   38310,    30933,    40519
*SPRING, ELSET=WK_293

9.810469e-02
*ELEMENT, TYPE=SPRINGA, ELSET=WK_294
   38311,    30937,    40520
*SPRING, ELSET=WK_294

9.810469e-02
*ELEMENT, TYPE=SPRINGA, ELSET=WK_295
   38312,    30941,    40521
*SPRING, ELSET=WK_295

9.810469e-02
*ELEMENT, TYPE=SPRINGA, ELSET=WK_296
   38313,    30945,    40522
*SPRING, ELSET=WK_296

9.810469e-02
*ELEMENT, TYPE=SPRINGA, ELSET=WK_297
   38314,    30949,    40523
*SPRING, ELSET=WK_297

9.810469e-02
*ELEMENT, TYPE=SPRINGA, ELSET=WK_298
   38315,    30953,    40524
*SPRING, ELSET=WK_298

9.810469e-02
*ELEMENT, TYPE=SPRINGA, ELSET=WK_299
   38316,    30957,    40525
*SPRING, ELSET=WK_299

9.810469e-02
*ELEMENT, TYPE=SPRINGA, ELSET=WK_300
   38317,    30961,    40526
*SPRING, ELSET=WK_300

9.810469e-02
*ELEMENT, TYPE=SPRINGA, ELSET=WK_301
   38318,    30965,    40527
*SPRING, ELSET=WK_301

9.810469e-02
*ELEMENT, TYPE=SPRINGA, ELSET=WK_302
   38319,    30969,    40528
*SPRING, ELSET=WK_302

9.810469e-02
*ELEMENT, TYPE=SPRINGA, ELSET=WK_303
   38320,    30973,    40529
*SPRING, ELSET=WK_303

9.810469e-02
*ELEMENT, TYPE=SPRINGA, ELSET=WK_304
   38321,    30977,    40530
*SPRING, ELSET=WK_304

9.810469e-02
*ELEMENT, TYPE=SPRINGA, ELSET=WK_305
   38322,    30981,    40531
*SPRING, ELSET=WK_305

9.810469e-02
*ELEMENT, TYPE=SPRINGA, ELSET=WK_306
   38323,    30985,    40532
*SPRING, ELSET=WK_306

9.810469e-02
*ELEMENT, TYPE=SPRINGA, ELSET=WK_307
   38324,    30989,    40533
*SPRING, ELSET=WK_307

9.810469e-02
*ELEMENT, TYPE=SPRINGA, ELSET=WK_308
   38325,    30993,    40534
*SPRING, ELSET=WK_308

9.810469e-02
*ELEMENT, TYPE=SPRINGA, ELSET=WK_309
   38326,    30997,    40535
*SPRING, ELSET=WK_309

9.810469e-02
*ELEMENT, TYPE=SPRINGA, ELSET=WK_310
   38327,    31001,    40536
*SPRING, ELSET=WK_310

9.810469e-02
*ELEMENT, TYPE=SPRINGA, ELSET=WK_311
   38328,    31005,    40537
*SPRING, ELSET=WK_311

9.810469e-02
*ELEMENT, TYPE=SPRINGA, ELSET=WK_312
   38329,    31009,    40538
*SPRING, ELSET=WK_312

9.810469e-02
*ELEMENT, TYPE=SPRINGA, ELSET=WK_313
   38330,    31013,    40539
*SPRING, ELSET=WK_313

9.810469e-02
*ELEMENT, TYPE=SPRINGA, ELSET=WK_314
   38331,    31017,    40540
*SPRING, ELSET=WK_314

9.810469e-02
*ELEMENT, TYPE=SPRINGA, ELSET=WK_315
   38332,    31021,    40541
*SPRING, ELSET=WK_315

9.810469e-02
*ELEMENT, TYPE=SPRINGA, ELSET=WK_316
   38333,    31025,    40542
*SPRING, ELSET=WK_316

9.810469e-02
*ELEMENT, TYPE=SPRINGA, ELSET=WK_317
   38334,    31029,    40543
*SPRING, ELSET=WK_317

9.810469e-02
*ELEMENT, TYPE=SPRINGA, ELSET=WK_318
   38335,    31033,    40544
*SPRING, ELSET=WK_318

9.810469e-02
*ELEMENT, TYPE=SPRINGA, ELSET=WK_319
   38336,    31037,    40545
*SPRING, ELSET=WK_319

9.810469e-02
*ELEMENT, TYPE=SPRINGA, ELSET=WK_320
   38337,    31041,    40546
*SPRING, ELSET=WK_320

9.810469e-02
*ELEMENT, TYPE=SPRINGA, ELSET=WK_321
   38338,    31045,    40547
*SPRING, ELSET=WK_321

9.810469e-02
*ELEMENT, TYPE=SPRINGA, ELSET=WK_322
   38339,    31049,    40548
*SPRING, ELSET=WK_322

9.810469e-02
*ELEMENT, TYPE=SPRINGA, ELSET=WK_323
   38340,    31053,    40549
*SPRING, ELSET=WK_323

9.810469e-02
*ELEMENT, TYPE=SPRINGA, ELSET=WK_324
   38341,    31057,    40550
*SPRING, ELSET=WK_324

9.810469e-02
*ELEMENT, TYPE=SPRINGA, ELSET=WK_325
   38342,    31061,    40551
*SPRING, ELSET=WK_325

9.810469e-02
*ELEMENT, TYPE=SPRINGA, ELSET=WK_326
   38343,    31065,    40552
*SPRING, ELSET=WK_326

9.810469e-02
*ELEMENT, TYPE=SPRINGA, ELSET=WK_327
   38344,    31069,    40553
*SPRING, ELSET=WK_327

9.810469e-02
*ELEMENT, TYPE=SPRINGA, ELSET=WK_328
   38345,    31073,    40554
*SPRING, ELSET=WK_328

9.810469e-02
*ELEMENT, TYPE=SPRINGA, ELSET=WK_329
   38346,    31077,    40555
*SPRING, ELSET=WK_329

9.810469e-02
*ELEMENT, TYPE=SPRINGA, ELSET=WK_330
   38347,    31081,    40556
*SPRING, ELSET=WK_330

9.810469e-02
*ELEMENT, TYPE=SPRINGA, ELSET=WK_331
   38348,    31085,    40557
*SPRING, ELSET=WK_331

9.810469e-02
*ELEMENT, TYPE=SPRINGA, ELSET=WK_332
   38349,    31089,    40558
*SPRING, ELSET=WK_332

9.810469e-02
*ELEMENT, TYPE=SPRINGA, ELSET=WK_333
   38350,    31093,    40559
*SPRING, ELSET=WK_333

9.810469e-02
*ELEMENT, TYPE=SPRINGA, ELSET=WK_334
   38351,    31097,    40560
*SPRING, ELSET=WK_334

9.810469e-02
*ELEMENT, TYPE=SPRINGA, ELSET=WK_335
   38352,    31101,    40561
*SPRING, ELSET=WK_335

9.810469e-02
*ELEMENT, TYPE=SPRINGA, ELSET=WK_336
   38353,    31105,    40562
*SPRING, ELSET=WK_336

9.810469e-02
*ELEMENT, TYPE=SPRINGA, ELSET=WK_337
   38354,    31109,    40563
*SPRING, ELSET=WK_337

9.810469e-02
*ELEMENT, TYPE=SPRINGA, ELSET=WK_338
   38355,    31113,    40564
*SPRING, ELSET=WK_338

9.810469e-02
*ELEMENT, TYPE=SPRINGA, ELSET=WK_339
   38356,    31117,    40565
*SPRING, ELSET=WK_339

9.810469e-02
*ELEMENT, TYPE=SPRINGA, ELSET=WK_340
   38357,    31121,    40566
*SPRING, ELSET=WK_340

9.810469e-02
*ELEMENT, TYPE=SPRINGA, ELSET=WK_341
   38358,    31125,    40567
*SPRING, ELSET=WK_341

9.810469e-02
*ELEMENT, TYPE=SPRINGA, ELSET=WK_342
   38359,    31129,    40568
*SPRING, ELSET=WK_342

9.810469e-02
*ELEMENT, TYPE=SPRINGA, ELSET=WK_343
   38360,    31133,    40569
*SPRING, ELSET=WK_343

9.810469e-02
*ELEMENT, TYPE=SPRINGA, ELSET=WK_344
   38361,    31137,    40570
*SPRING, ELSET=WK_344

9.810469e-02
*ELEMENT, TYPE=SPRINGA, ELSET=WK_345
   38362,    31141,    40571
*SPRING, ELSET=WK_345

9.810469e-02
*ELEMENT, TYPE=SPRINGA, ELSET=WK_346
   38363,    31145,    40572
*SPRING, ELSET=WK_346

9.810469e-02
*ELEMENT, TYPE=SPRINGA, ELSET=WK_347
   38364,    31149,    40573
*SPRING, ELSET=WK_347

9.810469e-02
*ELEMENT, TYPE=SPRINGA, ELSET=WK_348
   38365,    31153,    40574
*SPRING, ELSET=WK_348

9.810469e-02
*ELEMENT, TYPE=SPRINGA, ELSET=WK_349
   38366,    31157,    40575
*SPRING, ELSET=WK_349

9.810469e-02
*ELEMENT, TYPE=SPRINGA, ELSET=WK_350
   38367,    31161,    40576
*SPRING, ELSET=WK_350

9.810469e-02
*ELEMENT, TYPE=SPRINGA, ELSET=WK_351
   38368,    31165,    40577
*SPRING, ELSET=WK_351

9.810469e-02
*ELEMENT, TYPE=SPRINGA, ELSET=WK_352
   38369,    31169,    40578
*SPRING, ELSET=WK_352

9.810469e-02
*ELEMENT, TYPE=SPRINGA, ELSET=WK_353
   38370,    31173,    40579
*SPRING, ELSET=WK_353

9.810469e-02
*ELEMENT, TYPE=SPRINGA, ELSET=WK_354
   38371,    31177,    40580
*SPRING, ELSET=WK_354

9.810469e-02
*ELEMENT, TYPE=SPRINGA, ELSET=WK_355
   38372,    31181,    40581
*SPRING, ELSET=WK_355

9.810469e-02
*ELEMENT, TYPE=SPRINGA, ELSET=WK_356
   38373,    31185,    40582
*SPRING, ELSET=WK_356

9.810469e-02
*ELEMENT, TYPE=SPRINGA, ELSET=WK_357
   38374,    31189,    40583
*SPRING, ELSET=WK_357

9.810469e-02
*ELEMENT, TYPE=SPRINGA, ELSET=WK_358
   38375,    31193,    40584
*SPRING, ELSET=WK_358

9.810469e-02
*ELEMENT, TYPE=SPRINGA, ELSET=WK_359
   38376,    31197,    40585
*SPRING, ELSET=WK_359

9.810469e-02
*ELEMENT, TYPE=SPRINGA, ELSET=WK_360
   38377,    31201,    40586
*SPRING, ELSET=WK_360

9.810469e-02
*ELEMENT, TYPE=SPRINGA, ELSET=WK_361
   38378,    31205,    40587
*SPRING, ELSET=WK_361

9.810469e-02
*ELEMENT, TYPE=SPRINGA, ELSET=WK_362
   38379,    31209,    40588
*SPRING, ELSET=WK_362

9.810469e-02
*ELEMENT, TYPE=SPRINGA, ELSET=WK_363
   38380,    31213,    40589
*SPRING, ELSET=WK_363

9.810469e-02
*ELEMENT, TYPE=SPRINGA, ELSET=WK_364
   38381,    31217,    40590
*SPRING, ELSET=WK_364

9.810469e-02
*ELEMENT, TYPE=SPRINGA, ELSET=WK_365
   38382,    31221,    40591
*SPRING, ELSET=WK_365

9.810469e-02
*ELEMENT, TYPE=SPRINGA, ELSET=WK_366
   38383,    31225,    40592
*SPRING, ELSET=WK_366

9.810469e-02
*ELEMENT, TYPE=SPRINGA, ELSET=WK_367
   38384,    31229,    40593
*SPRING, ELSET=WK_367

9.810469e-02
*ELEMENT, TYPE=SPRINGA, ELSET=WK_368
   38385,    31233,    40594
*SPRING, ELSET=WK_368

9.810469e-02
*ELEMENT, TYPE=SPRINGA, ELSET=WK_369
   38386,    31237,    40595
*SPRING, ELSET=WK_369

9.810469e-02
*ELEMENT, TYPE=SPRINGA, ELSET=WK_370
   38387,    31241,    40596
*SPRING, ELSET=WK_370

9.810469e-02
*ELEMENT, TYPE=SPRINGA, ELSET=WK_371
   38388,    31245,    40597
*SPRING, ELSET=WK_371

9.810469e-02
*ELEMENT, TYPE=SPRINGA, ELSET=WK_372
   38389,    31249,    40598
*SPRING, ELSET=WK_372

9.810469e-02
*ELEMENT, TYPE=SPRINGA, ELSET=WK_373
   38390,    31253,    40599
*SPRING, ELSET=WK_373

9.810469e-02
*ELEMENT, TYPE=SPRINGA, ELSET=WK_374
   38391,    31257,    40600
*SPRING, ELSET=WK_374

9.810469e-02
*ELEMENT, TYPE=SPRINGA, ELSET=WK_375
   38392,    31261,    40601
*SPRING, ELSET=WK_375

9.810469e-02
*ELEMENT, TYPE=SPRINGA, ELSET=WK_376
   38393,    31265,    40602
*SPRING, ELSET=WK_376

9.810469e-02
*ELEMENT, TYPE=SPRINGA, ELSET=WK_377
   38394,    31269,    40603
*SPRING, ELSET=WK_377

9.810469e-02
*ELEMENT, TYPE=SPRINGA, ELSET=WK_378
   38395,    31273,    40604
*SPRING, ELSET=WK_378

9.810469e-02
*ELEMENT, TYPE=SPRINGA, ELSET=WK_379
   38396,    31277,    40605
*SPRING, ELSET=WK_379

9.810469e-02
*ELEMENT, TYPE=SPRINGA, ELSET=WK_380
   38397,    31281,    40606
*SPRING, ELSET=WK_380

9.810469e-02
*ELEMENT, TYPE=SPRINGA, ELSET=WK_381
   38398,    31285,    40607
*SPRING, ELSET=WK_381

9.810469e-02
*ELEMENT, TYPE=SPRINGA, ELSET=WK_382
   38399,    31289,    40608
*SPRING, ELSET=WK_382

9.810469e-02
*ELEMENT, TYPE=SPRINGA, ELSET=WK_383
   38400,    31293,    40609
*SPRING, ELSET=WK_383

9.810469e-02
*ELEMENT, TYPE=SPRINGA, ELSET=WK_384
   38401,    31297,    40610
*SPRING, ELSET=WK_384

9.810469e-02
*ELEMENT, TYPE=SPRINGA, ELSET=WK_385
   38402,    31301,    40611
*SPRING, ELSET=WK_385

9.810469e-02
*ELEMENT, TYPE=SPRINGA, ELSET=WK_386
   38403,    31305,    40612
*SPRING, ELSET=WK_386

9.810469e-02
*ELEMENT, TYPE=SPRINGA, ELSET=WK_387
   38404,    31309,    40613
*SPRING, ELSET=WK_387

9.810469e-02
*ELEMENT, TYPE=SPRINGA, ELSET=WK_388
   38405,    31313,    40614
*SPRING, ELSET=WK_388

9.810469e-02
*ELEMENT, TYPE=SPRINGA, ELSET=WK_389
   38406,    31317,    40615
*SPRING, ELSET=WK_389

9.810469e-02
*ELEMENT, TYPE=SPRINGA, ELSET=WK_390
   38407,    31321,    40616
*SPRING, ELSET=WK_390

9.810469e-02
*ELEMENT, TYPE=SPRINGA, ELSET=WK_391
   38408,    31325,    40617
*SPRING, ELSET=WK_391

9.810469e-02
*ELEMENT, TYPE=SPRINGA, ELSET=WK_392
   38409,    31329,    40618
*SPRING, ELSET=WK_392

9.810469e-02
*ELEMENT, TYPE=SPRINGA, ELSET=WK_393
   38410,    31333,    40619
*SPRING, ELSET=WK_393

9.810469e-02
*ELEMENT, TYPE=SPRINGA, ELSET=WK_394
   38411,    31337,    40620
*SPRING, ELSET=WK_394

9.810469e-02
*ELEMENT, TYPE=SPRINGA, ELSET=WK_395
   38412,    31341,    40621
*SPRING, ELSET=WK_395

9.810469e-02
*ELEMENT, TYPE=SPRINGA, ELSET=WK_396
   38413,    31345,    40622
*SPRING, ELSET=WK_396

9.810469e-02
*ELEMENT, TYPE=SPRINGA, ELSET=WK_397
   38414,    31349,    40623
*SPRING, ELSET=WK_397

9.810469e-02
*ELEMENT, TYPE=SPRINGA, ELSET=WK_398
   38415,    31353,    40624
*SPRING, ELSET=WK_398

9.810469e-02
*ELEMENT, TYPE=SPRINGA, ELSET=WK_399
   38416,    31357,    40625
*SPRING, ELSET=WK_399

9.810469e-02
*ELEMENT, TYPE=SPRINGA, ELSET=WK_400
   38417,    31361,    40626
*SPRING, ELSET=WK_400

9.810469e-02
*ELEMENT, TYPE=SPRINGA, ELSET=WK_401
   38418,    31365,    40627
*SPRING, ELSET=WK_401

9.810469e-02
*ELEMENT, TYPE=SPRINGA, ELSET=WK_402
   38419,    31369,    40628
*SPRING, ELSET=WK_402

9.810469e-02
*ELEMENT, TYPE=SPRINGA, ELSET=WK_403
   38420,    31373,    40629
*SPRING, ELSET=WK_403

9.810469e-02
*ELEMENT, TYPE=SPRINGA, ELSET=WK_404
   38421,    31377,    40630
*SPRING, ELSET=WK_404

9.810469e-02
*ELEMENT, TYPE=SPRINGA, ELSET=WK_405
   38422,    31381,    40631
*SPRING, ELSET=WK_405

9.810469e-02
*ELEMENT, TYPE=SPRINGA, ELSET=WK_406
   38423,    31385,    40632
*SPRING, ELSET=WK_406

9.810469e-02
*ELEMENT, TYPE=SPRINGA, ELSET=WK_407
   38424,    31389,    40633
*SPRING, ELSET=WK_407

9.810469e-02
*ELEMENT, TYPE=SPRINGA, ELSET=WK_408
   38425,    31393,    40634
*SPRING, ELSET=WK_408

9.810469e-02
*ELEMENT, TYPE=SPRINGA, ELSET=WK_409
   38426,    31397,    40635
*SPRING, ELSET=WK_409

9.810469e-02
*ELEMENT, TYPE=SPRINGA, ELSET=WK_410
   38427,    31401,    40636
*SPRING, ELSET=WK_410

9.810469e-02
*ELEMENT, TYPE=SPRINGA, ELSET=WK_411
   38428,    31405,    40637
*SPRING, ELSET=WK_411

9.810469e-02
*ELEMENT, TYPE=SPRINGA, ELSET=WK_412
   38429,    31409,    40638
*SPRING, ELSET=WK_412

9.810469e-02
*ELEMENT, TYPE=SPRINGA, ELSET=WK_413
   38430,    31413,    40639
*SPRING, ELSET=WK_413

9.810469e-02
*ELEMENT, TYPE=SPRINGA, ELSET=WK_414
   38431,    31417,    40640
*SPRING, ELSET=WK_414

9.810469e-02
*ELEMENT, TYPE=SPRINGA, ELSET=WK_415
   38432,    31421,    40641
*SPRING, ELSET=WK_415

9.810469e-02
*ELEMENT, TYPE=SPRINGA, ELSET=WK_416
   38433,    31425,    40642
*SPRING, ELSET=WK_416

9.810469e-02
*ELEMENT, TYPE=SPRINGA, ELSET=WK_417
   38434,    31429,    40643
*SPRING, ELSET=WK_417

9.810469e-02
*ELEMENT, TYPE=SPRINGA, ELSET=WK_418
   38435,    31433,    40644
*SPRING, ELSET=WK_418

9.810469e-02
*ELEMENT, TYPE=SPRINGA, ELSET=WK_419
   38436,    31437,    40645
*SPRING, ELSET=WK_419

9.810469e-02
*ELEMENT, TYPE=SPRINGA, ELSET=WK_420
   38437,    31441,    40646
*SPRING, ELSET=WK_420

9.810469e-02
*ELEMENT, TYPE=SPRINGA, ELSET=WK_421
   38438,    31445,    40647
*SPRING, ELSET=WK_421

9.810469e-02
*ELEMENT, TYPE=SPRINGA, ELSET=WK_422
   38439,    31449,    40648
*SPRING, ELSET=WK_422

9.810469e-02
*ELEMENT, TYPE=SPRINGA, ELSET=WK_423
   38440,    31453,    40649
*SPRING, ELSET=WK_423

9.810469e-02
*ELEMENT, TYPE=SPRINGA, ELSET=WK_424
   38441,    31457,    40650
*SPRING, ELSET=WK_424

9.810469e-02
*ELEMENT, TYPE=SPRINGA, ELSET=WK_425
   38442,    31461,    40651
*SPRING, ELSET=WK_425

9.810469e-02
*ELEMENT, TYPE=SPRINGA, ELSET=WK_426
   38443,    31465,    40652
*SPRING, ELSET=WK_426

9.810469e-02
*ELEMENT, TYPE=SPRINGA, ELSET=WK_427
   38444,    31469,    40653
*SPRING, ELSET=WK_427

9.810469e-02
*ELEMENT, TYPE=SPRINGA, ELSET=WK_428
   38445,    31473,    40654
*SPRING, ELSET=WK_428

9.810469e-02
*ELEMENT, TYPE=SPRINGA, ELSET=WK_429
   38446,    31477,    40655
*SPRING, ELSET=WK_429

9.810469e-02
*ELEMENT, TYPE=SPRINGA, ELSET=WK_430
   38447,    31481,    40656
*SPRING, ELSET=WK_430

9.810469e-02
*ELEMENT, TYPE=SPRINGA, ELSET=WK_431
   38448,    31485,    40657
*SPRING, ELSET=WK_431

9.810469e-02
*ELEMENT, TYPE=SPRINGA, ELSET=WK_432
   38449,    31489,    40658
*SPRING, ELSET=WK_432

9.810469e-02
*ELEMENT, TYPE=SPRINGA, ELSET=WK_433
   38450,    31493,    40659
*SPRING, ELSET=WK_433

9.810469e-02
*ELEMENT, TYPE=SPRINGA, ELSET=WK_434
   38451,    31497,    40660
*SPRING, ELSET=WK_434

9.810469e-02
*ELEMENT, TYPE=SPRINGA, ELSET=WK_435
   38452,    31501,    40661
*SPRING, ELSET=WK_435

9.810469e-02
*ELEMENT, TYPE=SPRINGA, ELSET=WK_436
   38453,    31505,    40662
*SPRING, ELSET=WK_436

9.810469e-02
*ELEMENT, TYPE=SPRINGA, ELSET=WK_437
   38454,    31509,    40663
*SPRING, ELSET=WK_437

9.810469e-02
*ELEMENT, TYPE=SPRINGA, ELSET=WK_438
   38455,    31513,    40664
*SPRING, ELSET=WK_438

9.810469e-02
*ELEMENT, TYPE=SPRINGA, ELSET=WK_439
   38456,    31517,    40665
*SPRING, ELSET=WK_439

9.810469e-02
*ELEMENT, TYPE=SPRINGA, ELSET=WK_440
   38457,    31521,    40666
*SPRING, ELSET=WK_440

9.810469e-02
*ELEMENT, TYPE=SPRINGA, ELSET=WK_441
   38458,    31525,    40667
*SPRING, ELSET=WK_441

9.810469e-02
*ELEMENT, TYPE=SPRINGA, ELSET=WK_442
   38459,    31529,    40668
*SPRING, ELSET=WK_442

9.810469e-02
*ELEMENT, TYPE=SPRINGA, ELSET=WK_443
   38460,    31533,    40669
*SPRING, ELSET=WK_443

9.810469e-02
*ELEMENT, TYPE=SPRINGA, ELSET=WK_444
   38461,    31537,    40670
*SPRING, ELSET=WK_444

9.810469e-02
*ELEMENT, TYPE=SPRINGA, ELSET=WK_445
   38462,    31541,    40671
*SPRING, ELSET=WK_445

9.810469e-02
*ELEMENT, TYPE=SPRINGA, ELSET=WK_446
   38463,    31545,    40672
*SPRING, ELSET=WK_446

9.810469e-02
*ELEMENT, TYPE=SPRINGA, ELSET=WK_447
   38464,    31549,    40673
*SPRING, ELSET=WK_447

9.810469e-02
*ELEMENT, TYPE=SPRINGA, ELSET=WK_448
   38465,    31553,    40674
*SPRING, ELSET=WK_448

9.810469e-02
*ELEMENT, TYPE=SPRINGA, ELSET=WK_449
   38466,    31557,    40675
*SPRING, ELSET=WK_449

9.810469e-02
*ELEMENT, TYPE=SPRINGA, ELSET=WK_450
   38467,    31561,    40676
*SPRING, ELSET=WK_450

9.810469e-02
*ELEMENT, TYPE=SPRINGA, ELSET=WK_451
   38468,    31565,    40677
*SPRING, ELSET=WK_451

9.810469e-02
*ELEMENT, TYPE=SPRINGA, ELSET=WK_452
   38469,    31569,    40678
*SPRING, ELSET=WK_452

9.810469e-02
*ELEMENT, TYPE=SPRINGA, ELSET=WK_453
   38470,    31573,    40679
*SPRING, ELSET=WK_453

9.810469e-02
*ELEMENT, TYPE=SPRINGA, ELSET=WK_454
   38471,    31577,    40680
*SPRING, ELSET=WK_454

9.810469e-02
*ELEMENT, TYPE=SPRINGA, ELSET=WK_455
   38472,    31581,    40681
*SPRING, ELSET=WK_455

9.810469e-02
*ELEMENT, TYPE=SPRINGA, ELSET=WK_456
   38473,    31585,    40682
*SPRING, ELSET=WK_456

9.810469e-02
*ELEMENT, TYPE=SPRINGA, ELSET=WK_457
   38474,    31589,    40683
*SPRING, ELSET=WK_457

9.810469e-02
*ELEMENT, TYPE=SPRINGA, ELSET=WK_458
   38475,    31593,    40684
*SPRING, ELSET=WK_458

9.810469e-02
*ELEMENT, TYPE=SPRINGA, ELSET=WK_459
   38476,    31597,    40685
*SPRING, ELSET=WK_459

9.810469e-02
*ELEMENT, TYPE=SPRINGA, ELSET=WK_460
   38477,    31601,    40686
*SPRING, ELSET=WK_460

9.810469e-02
*ELEMENT, TYPE=SPRINGA, ELSET=WK_461
   38478,    31605,    40687
*SPRING, ELSET=WK_461

9.810469e-02
*ELEMENT, TYPE=SPRINGA, ELSET=WK_462
   38479,    31609,    40688
*SPRING, ELSET=WK_462

9.810469e-02
*ELEMENT, TYPE=SPRINGA, ELSET=WK_463
   38480,    31613,    40689
*SPRING, ELSET=WK_463

9.810469e-02
*ELEMENT, TYPE=SPRINGA, ELSET=WK_464
   38481,    31617,    40690
*SPRING, ELSET=WK_464

9.810469e-02
*ELEMENT, TYPE=SPRINGA, ELSET=WK_465
   38482,    31621,    40691
*SPRING, ELSET=WK_465

9.810469e-02
*ELEMENT, TYPE=SPRINGA, ELSET=WK_466
   38483,    31625,    40692
*SPRING, ELSET=WK_466

9.810469e-02
*ELEMENT, TYPE=SPRINGA, ELSET=WK_467
   38484,    31629,    40693
*SPRING, ELSET=WK_467

9.810469e-02
*ELEMENT, TYPE=SPRINGA, ELSET=WK_468
   38485,    31633,    40694
*SPRING, ELSET=WK_468

9.810469e-02
*ELEMENT, TYPE=SPRINGA, ELSET=WK_469
   38486,    31637,    40695
*SPRING, ELSET=WK_469

9.810469e-02
*ELEMENT, TYPE=SPRINGA, ELSET=WK_470
   38487,    31641,    40696
*SPRING, ELSET=WK_470

9.810469e-02
*ELEMENT, TYPE=SPRINGA, ELSET=WK_471
   38488,    31645,    40697
*SPRING, ELSET=WK_471

9.810469e-02
*ELEMENT, TYPE=SPRINGA, ELSET=WK_472
   38489,    31649,    40698
*SPRING, ELSET=WK_472

9.810469e-02
*ELEMENT, TYPE=SPRINGA, ELSET=WK_473
   38490,    31653,    40699
*SPRING, ELSET=WK_473

9.810469e-02
*ELEMENT, TYPE=SPRINGA, ELSET=WK_474
   38491,    31657,    40700
*SPRING, ELSET=WK_474

9.810469e-02
*ELEMENT, TYPE=SPRINGA, ELSET=WK_475
   38492,    31661,    40701
*SPRING, ELSET=WK_475

9.810469e-02
*ELEMENT, TYPE=SPRINGA, ELSET=WK_476
   38493,    31665,    40702
*SPRING, ELSET=WK_476

9.810469e-02
*ELEMENT, TYPE=SPRINGA, ELSET=WK_477
   38494,    31669,    40703
*SPRING, ELSET=WK_477

9.810469e-02
*ELEMENT, TYPE=SPRINGA, ELSET=WK_478
   38495,    31673,    40704
*SPRING, ELSET=WK_478

9.810469e-02
*ELEMENT, TYPE=SPRINGA, ELSET=WK_479
   38496,    31677,    40705
*SPRING, ELSET=WK_479

9.810469e-02
*ELEMENT, TYPE=SPRINGA, ELSET=WK_480
   38497,    31681,    40706
*SPRING, ELSET=WK_480

9.810469e-02
*ELEMENT, TYPE=SPRINGA, ELSET=WK_481
   38498,    31685,    40707
*SPRING, ELSET=WK_481

9.810469e-02
*ELEMENT, TYPE=SPRINGA, ELSET=WK_482
   38499,    31689,    40708
*SPRING, ELSET=WK_482

9.810469e-02
*ELEMENT, TYPE=SPRINGA, ELSET=WK_483
   38500,    31693,    40709
*SPRING, ELSET=WK_483

9.810469e-02
*ELEMENT, TYPE=SPRINGA, ELSET=WK_484
   38501,    31697,    40710
*SPRING, ELSET=WK_484

9.810469e-02
*ELEMENT, TYPE=SPRINGA, ELSET=WK_485
   38502,    31701,    40711
*SPRING, ELSET=WK_485

9.810469e-02
*ELEMENT, TYPE=SPRINGA, ELSET=WK_486
   38503,    31705,    40712
*SPRING, ELSET=WK_486

9.810469e-02
*ELEMENT, TYPE=SPRINGA, ELSET=WK_487
   38504,    31709,    40713
*SPRING, ELSET=WK_487

9.810469e-02
*ELEMENT, TYPE=SPRINGA, ELSET=WK_488
   38505,    31713,    40714
*SPRING, ELSET=WK_488

9.810469e-02
*ELEMENT, TYPE=SPRINGA, ELSET=WK_489
   38506,    31717,    40715
*SPRING, ELSET=WK_489

9.810469e-02
*ELEMENT, TYPE=SPRINGA, ELSET=WK_490
   38507,    31721,    40716
*SPRING, ELSET=WK_490

9.810469e-02
*ELEMENT, TYPE=SPRINGA, ELSET=WK_491
   38508,    31725,    40717
*SPRING, ELSET=WK_491

9.810469e-02
*ELEMENT, TYPE=SPRINGA, ELSET=WK_492
   38509,    31729,    40718
*SPRING, ELSET=WK_492

9.810469e-02
*ELEMENT, TYPE=SPRINGA, ELSET=WK_493
   38510,    31733,    40719
*SPRING, ELSET=WK_493

9.810469e-02
*ELEMENT, TYPE=SPRINGA, ELSET=WK_494
   38511,    31737,    40720
*SPRING, ELSET=WK_494

9.810469e-02
*ELEMENT, TYPE=SPRINGA, ELSET=WK_495
   38512,    31741,    40721
*SPRING, ELSET=WK_495

9.810469e-02
*ELEMENT, TYPE=SPRINGA, ELSET=WK_496
   38513,    31745,    40722
*SPRING, ELSET=WK_496

9.810469e-02
*ELEMENT, TYPE=SPRINGA, ELSET=WK_497
   38514,    31749,    40723
*SPRING, ELSET=WK_497

9.810469e-02
*ELEMENT, TYPE=SPRINGA, ELSET=WK_498
   38515,    31753,    40724
*SPRING, ELSET=WK_498

9.810469e-02
*ELEMENT, TYPE=SPRINGA, ELSET=WK_499
   38516,    31757,    40725
*SPRING, ELSET=WK_499

9.810469e-02
*ELEMENT, TYPE=SPRINGA, ELSET=WK_500
   38517,    31761,    40726
*SPRING, ELSET=WK_500

9.810469e-02
*ELEMENT, TYPE=SPRINGA, ELSET=WK_501
   38518,    31765,    40727
*SPRING, ELSET=WK_501

9.810469e-02
*ELEMENT, TYPE=SPRINGA, ELSET=WK_502
   38519,    31769,    40728
*SPRING, ELSET=WK_502

9.810469e-02
*ELEMENT, TYPE=SPRINGA, ELSET=WK_503
   38520,    31773,    40729
*SPRING, ELSET=WK_503

9.810469e-02
*ELEMENT, TYPE=SPRINGA, ELSET=WK_504
   38521,    31777,    40730
*SPRING, ELSET=WK_504

9.810469e-02
*ELEMENT, TYPE=SPRINGA, ELSET=WK_505
   38522,    31781,    40731
*SPRING, ELSET=WK_505

9.810469e-02
*ELEMENT, TYPE=SPRINGA, ELSET=WK_506
   38523,    31785,    40732
*SPRING, ELSET=WK_506

9.810469e-02
*ELEMENT, TYPE=SPRINGA, ELSET=WK_507
   38524,    31789,    40733
*SPRING, ELSET=WK_507

9.810469e-02
*ELEMENT, TYPE=SPRINGA, ELSET=WK_508
   38525,    31793,    40734
*SPRING, ELSET=WK_508

9.810469e-02
*ELEMENT, TYPE=SPRINGA, ELSET=WK_509
   38526,    31797,    40735
*SPRING, ELSET=WK_509

9.810469e-02
*ELEMENT, TYPE=SPRINGA, ELSET=WK_510
   38527,    31801,    40736
*SPRING, ELSET=WK_510

9.810469e-02
*ELEMENT, TYPE=SPRINGA, ELSET=WK_511
   38528,    31805,    40737
*SPRING, ELSET=WK_511

9.810469e-02
*ELEMENT, TYPE=SPRINGA, ELSET=WK_512
   38529,    31809,    40738
*SPRING, ELSET=WK_512

9.810469e-02
*ELEMENT, TYPE=SPRINGA, ELSET=WK_513
   38530,    31813,    40739
*SPRING, ELSET=WK_513

4.905235e-02
*ELEMENT, TYPE=SPRINGA, ELSET=WK_514
   38531,    31817,    40740
*SPRING, ELSET=WK_514

4.905235e-02
*ELEMENT, TYPE=SPRINGA, ELSET=WK_515
   38532,    31821,    40741
*SPRING, ELSET=WK_515

4.905235e-02
*ELEMENT, TYPE=SPRINGA, ELSET=WK_516
   38533,    31825,    40742
*SPRING, ELSET=WK_516

4.905235e-02
*ELEMENT, TYPE=SPRINGA, ELSET=WK_517
   38534,    31829,    40743
*SPRING, ELSET=WK_517

4.905235e-02
*ELEMENT, TYPE=SPRINGA, ELSET=WK_518
   38535,    31833,    40744
*SPRING, ELSET=WK_518

4.905235e-02
*ELEMENT, TYPE=SPRINGA, ELSET=WK_519
   38536,    31837,    40745
*SPRING, ELSET=WK_519

4.905235e-02
*ELEMENT, TYPE=SPRINGA, ELSET=WK_520
   38537,    31841,    40746
*SPRING, ELSET=WK_520

4.905235e-02
*ELEMENT, TYPE=SPRINGA, ELSET=WK_521
   38538,    31845,    40747
*SPRING, ELSET=WK_521

4.905235e-02
*ELEMENT, TYPE=SPRINGA, ELSET=WK_522
   38539,    31849,    40748
*SPRING, ELSET=WK_522

4.905235e-02
*ELEMENT, TYPE=SPRINGA, ELSET=WK_523
   38540,    31853,    40749
*SPRING, ELSET=WK_523

4.905235e-02
*ELEMENT, TYPE=SPRINGA, ELSET=WK_524
   38541,    31857,    40750
*SPRING, ELSET=WK_524

4.905235e-02
*ELEMENT, TYPE=SPRINGA, ELSET=WK_525
   38542,    31861,    40751
*SPRING, ELSET=WK_525

4.905235e-02
*ELEMENT, TYPE=SPRINGA, ELSET=WK_526
   38543,    31865,    40752
*SPRING, ELSET=WK_526

4.905235e-02
*ELEMENT, TYPE=SPRINGA, ELSET=WK_527
   38544,    31869,    40753
*SPRING, ELSET=WK_527

4.905235e-02
*ELEMENT, TYPE=SPRINGA, ELSET=WK_528
   38545,    31873,    40754
*SPRING, ELSET=WK_528

4.905235e-02
*ELEMENT, TYPE=SPRINGA, ELSET=WK_529
   38546,    31877,    40755
*SPRING, ELSET=WK_529

4.905235e-02
*ELEMENT, TYPE=SPRINGA, ELSET=WK_530
   38547,    31881,    40756
*SPRING, ELSET=WK_530

4.905235e-02
*ELEMENT, TYPE=SPRINGA, ELSET=WK_531
   38548,    31885,    40757
*SPRING, ELSET=WK_531

4.905235e-02
*ELEMENT, TYPE=SPRINGA, ELSET=WK_532
   38549,    31889,    40758
*SPRING, ELSET=WK_532

4.905235e-02
*ELEMENT, TYPE=SPRINGA, ELSET=WK_533
   38550,    31893,    40759
*SPRING, ELSET=WK_533

4.905235e-02
*ELEMENT, TYPE=SPRINGA, ELSET=WK_534
   38551,    31897,    40760
*SPRING, ELSET=WK_534

4.905235e-02
*ELEMENT, TYPE=SPRINGA, ELSET=WK_535
   38552,    31901,    40761
*SPRING, ELSET=WK_535

4.905235e-02
*ELEMENT, TYPE=SPRINGA, ELSET=WK_536
   38553,    31905,    40762
*SPRING, ELSET=WK_536

4.905235e-02
*ELEMENT, TYPE=SPRINGA, ELSET=WK_537
   38554,    31909,    40763
*SPRING, ELSET=WK_537

9.810469e-02
*ELEMENT, TYPE=SPRINGA, ELSET=WK_538
   38555,    31913,    40764
*SPRING, ELSET=WK_538

9.810469e-02
*ELEMENT, TYPE=SPRINGA, ELSET=WK_539
   38556,    31917,    40765
*SPRING, ELSET=WK_539

9.810469e-02
*ELEMENT, TYPE=SPRINGA, ELSET=WK_540
   38557,    31921,    40766
*SPRING, ELSET=WK_540

9.810469e-02
*ELEMENT, TYPE=SPRINGA, ELSET=WK_541
   38558,    31925,    40767
*SPRING, ELSET=WK_541

9.810469e-02
*ELEMENT, TYPE=SPRINGA, ELSET=WK_542
   38559,    31929,    40768
*SPRING, ELSET=WK_542

9.810469e-02
*ELEMENT, TYPE=SPRINGA, ELSET=WK_543
   38560,    31933,    40769
*SPRING, ELSET=WK_543

9.810469e-02
*ELEMENT, TYPE=SPRINGA, ELSET=WK_544
   38561,    31937,    40770
*SPRING, ELSET=WK_544

9.810469e-02
*ELEMENT, TYPE=SPRINGA, ELSET=WK_545
   38562,    31941,    40771
*SPRING, ELSET=WK_545

9.810469e-02
*ELEMENT, TYPE=SPRINGA, ELSET=WK_546
   38563,    31945,    40772
*SPRING, ELSET=WK_546

9.810469e-02
*ELEMENT, TYPE=SPRINGA, ELSET=WK_547
   38564,    31949,    40773
*SPRING, ELSET=WK_547

9.810469e-02
*ELEMENT, TYPE=SPRINGA, ELSET=WK_548
   38565,    31953,    40774
*SPRING, ELSET=WK_548

9.810469e-02
*ELEMENT, TYPE=SPRINGA, ELSET=WK_549
   38566,    31957,    40775
*SPRING, ELSET=WK_549

9.810469e-02
*ELEMENT, TYPE=SPRINGA, ELSET=WK_550
   38567,    31961,    40776
*SPRING, ELSET=WK_550

9.810469e-02
*ELEMENT, TYPE=SPRINGA, ELSET=WK_551
   38568,    31965,    40777
*SPRING, ELSET=WK_551

9.810469e-02
*ELEMENT, TYPE=SPRINGA, ELSET=WK_552
   38569,    31969,    40778
*SPRING, ELSET=WK_552

9.810469e-02
*ELEMENT, TYPE=SPRINGA, ELSET=WK_553
   38570,    31973,    40779
*SPRING, ELSET=WK_553

9.810469e-02
*ELEMENT, TYPE=SPRINGA, ELSET=WK_554
   38571,    31977,    40780
*SPRING, ELSET=WK_554

9.810469e-02
*ELEMENT, TYPE=SPRINGA, ELSET=WK_555
   38572,    31981,    40781
*SPRING, ELSET=WK_555

9.810469e-02
*ELEMENT, TYPE=SPRINGA, ELSET=WK_556
   38573,    31985,    40782
*SPRING, ELSET=WK_556

9.810469e-02
*ELEMENT, TYPE=SPRINGA, ELSET=WK_557
   38574,    31989,    40783
*SPRING, ELSET=WK_557

9.810469e-02
*ELEMENT, TYPE=SPRINGA, ELSET=WK_558
   38575,    31993,    40784
*SPRING, ELSET=WK_558

9.810469e-02
*ELEMENT, TYPE=SPRINGA, ELSET=WK_559
   38576,    31997,    40785
*SPRING, ELSET=WK_559

9.810469e-02
*ELEMENT, TYPE=SPRINGA, ELSET=WK_560
   38577,    32001,    40786
*SPRING, ELSET=WK_560

9.810469e-02
*ELEMENT, TYPE=SPRINGA, ELSET=WK_561
   38578,    32005,    40787
*SPRING, ELSET=WK_561

9.810469e-02
*ELEMENT, TYPE=SPRINGA, ELSET=WK_562
   38579,    32009,    40788
*SPRING, ELSET=WK_562

9.810469e-02
*ELEMENT, TYPE=SPRINGA, ELSET=WK_563
   38580,    32013,    40789
*SPRING, ELSET=WK_563

9.810469e-02
*ELEMENT, TYPE=SPRINGA, ELSET=WK_564
   38581,    32017,    40790
*SPRING, ELSET=WK_564

9.810469e-02
*ELEMENT, TYPE=SPRINGA, ELSET=WK_565
   38582,    32021,    40791
*SPRING, ELSET=WK_565

9.810469e-02
*ELEMENT, TYPE=SPRINGA, ELSET=WK_566
   38583,    32025,    40792
*SPRING, ELSET=WK_566

9.810469e-02
*ELEMENT, TYPE=SPRINGA, ELSET=WK_567
   38584,    32029,    40793
*SPRING, ELSET=WK_567

9.810469e-02
*ELEMENT, TYPE=SPRINGA, ELSET=WK_568
   38585,    32033,    40794
*SPRING, ELSET=WK_568

9.810469e-02
*ELEMENT, TYPE=SPRINGA, ELSET=WK_569
   38586,    32037,    40795
*SPRING, ELSET=WK_569

9.810469e-02
*ELEMENT, TYPE=SPRINGA, ELSET=WK_570
   38587,    32041,    40796
*SPRING, ELSET=WK_570

9.810469e-02
*ELEMENT, TYPE=SPRINGA, ELSET=WK_571
   38588,    32045,    40797
*SPRING, ELSET=WK_571

9.810469e-02
*ELEMENT, TYPE=SPRINGA, ELSET=WK_572
   38589,    32049,    40798
*SPRING, ELSET=WK_572

9.810469e-02
*ELEMENT, TYPE=SPRINGA, ELSET=WK_573
   38590,    32053,    40799
*SPRING, ELSET=WK_573

9.810469e-02
*ELEMENT, TYPE=SPRINGA, ELSET=WK_574
   38591,    32057,    40800
*SPRING, ELSET=WK_574

9.810469e-02
*ELEMENT, TYPE=SPRINGA, ELSET=WK_575
   38592,    32061,    40801
*SPRING, ELSET=WK_575

9.810469e-02
*ELEMENT, TYPE=SPRINGA, ELSET=WK_576
   38593,    32065,    40802
*SPRING, ELSET=WK_576

9.810469e-02
*ELEMENT, TYPE=SPRINGA, ELSET=WK_577
   38594,    32069,    40803
*SPRING, ELSET=WK_577

9.810469e-02
*ELEMENT, TYPE=SPRINGA, ELSET=WK_578
   38595,    32073,    40804
*SPRING, ELSET=WK_578

9.810469e-02
*ELEMENT, TYPE=SPRINGA, ELSET=WK_579
   38596,    32077,    40805
*SPRING, ELSET=WK_579

9.810469e-02
*ELEMENT, TYPE=SPRINGA, ELSET=WK_580
   38597,    32081,    40806
*SPRING, ELSET=WK_580

9.810469e-02
*ELEMENT, TYPE=SPRINGA, ELSET=WK_581
   38598,    32085,    40807
*SPRING, ELSET=WK_581

9.810469e-02
*ELEMENT, TYPE=SPRINGA, ELSET=WK_582
   38599,    32089,    40808
*SPRING, ELSET=WK_582

9.810469e-02
*ELEMENT, TYPE=SPRINGA, ELSET=WK_583
   38600,    32093,    40809
*SPRING, ELSET=WK_583

9.810469e-02
*ELEMENT, TYPE=SPRINGA, ELSET=WK_584
   38601,    32097,    40810
*SPRING, ELSET=WK_584

9.810469e-02
*ELEMENT, TYPE=SPRINGA, ELSET=WK_585
   38602,    32101,    40811
*SPRING, ELSET=WK_585

9.810469e-02
*ELEMENT, TYPE=SPRINGA, ELSET=WK_586
   38603,    32105,    40812
*SPRING, ELSET=WK_586

9.810469e-02
*ELEMENT, TYPE=SPRINGA, ELSET=WK_587
   38604,    32109,    40813
*SPRING, ELSET=WK_587

9.810469e-02
*ELEMENT, TYPE=SPRINGA, ELSET=WK_588
   38605,    32113,    40814
*SPRING, ELSET=WK_588

9.810469e-02
*ELEMENT, TYPE=SPRINGA, ELSET=WK_589
   38606,    32117,    40815
*SPRING, ELSET=WK_589

9.810469e-02
*ELEMENT, TYPE=SPRINGA, ELSET=WK_590
   38607,    32121,    40816
*SPRING, ELSET=WK_590

9.810469e-02
*ELEMENT, TYPE=SPRINGA, ELSET=WK_591
   38608,    32125,    40817
*SPRING, ELSET=WK_591

9.810469e-02
*ELEMENT, TYPE=SPRINGA, ELSET=WK_592
   38609,    32129,    40818
*SPRING, ELSET=WK_592

9.810469e-02
*ELEMENT, TYPE=SPRINGA, ELSET=WK_593
   38610,    32133,    40819
*SPRING, ELSET=WK_593

9.810469e-02
*ELEMENT, TYPE=SPRINGA, ELSET=WK_594
   38611,    32137,    40820
*SPRING, ELSET=WK_594

9.810469e-02
*ELEMENT, TYPE=SPRINGA, ELSET=WK_595
   38612,    32141,    40821
*SPRING, ELSET=WK_595

9.810469e-02
*ELEMENT, TYPE=SPRINGA, ELSET=WK_596
   38613,    32145,    40822
*SPRING, ELSET=WK_596

9.810469e-02
*ELEMENT, TYPE=SPRINGA, ELSET=WK_597
   38614,    32149,    40823
*SPRING, ELSET=WK_597

9.810469e-02
*ELEMENT, TYPE=SPRINGA, ELSET=WK_598
   38615,    32153,    40824
*SPRING, ELSET=WK_598

9.810469e-02
*ELEMENT, TYPE=SPRINGA, ELSET=WK_599
   38616,    32157,    40825
*SPRING, ELSET=WK_599

9.810469e-02
*ELEMENT, TYPE=SPRINGA, ELSET=WK_600
   38617,    32161,    40826
*SPRING, ELSET=WK_600

9.810469e-02
*ELEMENT, TYPE=SPRINGA, ELSET=WK_601
   38618,    32165,    40827
*SPRING, ELSET=WK_601

9.810469e-02
*ELEMENT, TYPE=SPRINGA, ELSET=WK_602
   38619,    32169,    40828
*SPRING, ELSET=WK_602

9.810469e-02
*ELEMENT, TYPE=SPRINGA, ELSET=WK_603
   38620,    32173,    40829
*SPRING, ELSET=WK_603

9.810469e-02
*ELEMENT, TYPE=SPRINGA, ELSET=WK_604
   38621,    32177,    40830
*SPRING, ELSET=WK_604

9.810469e-02
*ELEMENT, TYPE=SPRINGA, ELSET=WK_605
   38622,    32181,    40831
*SPRING, ELSET=WK_605

9.810469e-02
*ELEMENT, TYPE=SPRINGA, ELSET=WK_606
   38623,    32185,    40832
*SPRING, ELSET=WK_606

9.810469e-02
*ELEMENT, TYPE=SPRINGA, ELSET=WK_607
   38624,    32189,    40833
*SPRING, ELSET=WK_607

9.810469e-02
*ELEMENT, TYPE=SPRINGA, ELSET=WK_608
   38625,    32193,    40834
*SPRING, ELSET=WK_608

9.810469e-02
*ELEMENT, TYPE=SPRINGA, ELSET=WK_609
   38626,    32197,    40835
*SPRING, ELSET=WK_609

9.810469e-02
*ELEMENT, TYPE=SPRINGA, ELSET=WK_610
   38627,    32201,    40836
*SPRING, ELSET=WK_610

9.810469e-02
*ELEMENT, TYPE=SPRINGA, ELSET=WK_611
   38628,    32205,    40837
*SPRING, ELSET=WK_611

9.810469e-02
*ELEMENT, TYPE=SPRINGA, ELSET=WK_612
   38629,    32209,    40838
*SPRING, ELSET=WK_612

9.810469e-02
*ELEMENT, TYPE=SPRINGA, ELSET=WK_613
   38630,    32213,    40839
*SPRING, ELSET=WK_613

9.810469e-02
*ELEMENT, TYPE=SPRINGA, ELSET=WK_614
   38631,    32217,    40840
*SPRING, ELSET=WK_614

9.810469e-02
*ELEMENT, TYPE=SPRINGA, ELSET=WK_615
   38632,    32221,    40841
*SPRING, ELSET=WK_615

9.810469e-02
*ELEMENT, TYPE=SPRINGA, ELSET=WK_616
   38633,    32225,    40842
*SPRING, ELSET=WK_616

9.810469e-02
*ELEMENT, TYPE=SPRINGA, ELSET=WK_617
   38634,    32229,    40843
*SPRING, ELSET=WK_617

9.810469e-02
*ELEMENT, TYPE=SPRINGA, ELSET=WK_618
   38635,    32233,    40844
*SPRING, ELSET=WK_618

9.810469e-02
*ELEMENT, TYPE=SPRINGA, ELSET=WK_619
   38636,    32237,    40845
*SPRING, ELSET=WK_619

9.810469e-02
*ELEMENT, TYPE=SPRINGA, ELSET=WK_620
   38637,    32241,    40846
*SPRING, ELSET=WK_620

9.810469e-02
*ELEMENT, TYPE=SPRINGA, ELSET=WK_621
   38638,    32245,    40847
*SPRING, ELSET=WK_621

9.810469e-02
*ELEMENT, TYPE=SPRINGA, ELSET=WK_622
   38639,    32249,    40848
*SPRING, ELSET=WK_622

9.810469e-02
*ELEMENT, TYPE=SPRINGA, ELSET=WK_623
   38640,    32253,    40849
*SPRING, ELSET=WK_623

9.810469e-02
*ELEMENT, TYPE=SPRINGA, ELSET=WK_624
   38641,    32257,    40850
*SPRING, ELSET=WK_624

9.810469e-02
*ELEMENT, TYPE=SPRINGA, ELSET=WK_625
   38642,    32261,    40851
*SPRING, ELSET=WK_625

9.810469e-02
*ELEMENT, TYPE=SPRINGA, ELSET=WK_626
   38643,    32265,    40852
*SPRING, ELSET=WK_626

9.810469e-02
*ELEMENT, TYPE=SPRINGA, ELSET=WK_627
   38644,    32269,    40853
*SPRING, ELSET=WK_627

9.810469e-02
*ELEMENT, TYPE=SPRINGA, ELSET=WK_628
   38645,    32273,    40854
*SPRING, ELSET=WK_628

9.810469e-02
*ELEMENT, TYPE=SPRINGA, ELSET=WK_629
   38646,    32277,    40855
*SPRING, ELSET=WK_629

9.810469e-02
*ELEMENT, TYPE=SPRINGA, ELSET=WK_630
   38647,    32281,    40856
*SPRING, ELSET=WK_630

9.810469e-02
*ELEMENT, TYPE=SPRINGA, ELSET=WK_631
   38648,    32285,    40857
*SPRING, ELSET=WK_631

9.810469e-02
*ELEMENT, TYPE=SPRINGA, ELSET=WK_632
   38649,    32289,    40858
*SPRING, ELSET=WK_632

9.810469e-02
*ELEMENT, TYPE=SPRINGA, ELSET=WK_633
   38650,    32293,    40859
*SPRING, ELSET=WK_633

9.810469e-02
*ELEMENT, TYPE=SPRINGA, ELSET=WK_634
   38651,    32297,    40860
*SPRING, ELSET=WK_634

9.810469e-02
*ELEMENT, TYPE=SPRINGA, ELSET=WK_635
   38652,    32301,    40861
*SPRING, ELSET=WK_635

9.810469e-02
*ELEMENT, TYPE=SPRINGA, ELSET=WK_636
   38653,    32305,    40862
*SPRING, ELSET=WK_636

9.810469e-02
*ELEMENT, TYPE=SPRINGA, ELSET=WK_637
   38654,    32309,    40863
*SPRING, ELSET=WK_637

9.810469e-02
*ELEMENT, TYPE=SPRINGA, ELSET=WK_638
   38655,    32313,    40864
*SPRING, ELSET=WK_638

9.810469e-02
*ELEMENT, TYPE=SPRINGA, ELSET=WK_639
   38656,    32317,    40865
*SPRING, ELSET=WK_639

9.810469e-02
*ELEMENT, TYPE=SPRINGA, ELSET=WK_640
   38657,    32321,    40866
*SPRING, ELSET=WK_640

9.810469e-02
*ELEMENT, TYPE=SPRINGA, ELSET=WK_641
   38658,    32325,    40867
*SPRING, ELSET=WK_641

9.810469e-02
*ELEMENT, TYPE=SPRINGA, ELSET=WK_642
   38659,    32329,    40868
*SPRING, ELSET=WK_642

9.810469e-02
*ELEMENT, TYPE=SPRINGA, ELSET=WK_643
   38660,    32333,    40869
*SPRING, ELSET=WK_643

9.810469e-02
*ELEMENT, TYPE=SPRINGA, ELSET=WK_644
   38661,    32337,    40870
*SPRING, ELSET=WK_644

9.810469e-02
*ELEMENT, TYPE=SPRINGA, ELSET=WK_645
   38662,    32341,    40871
*SPRING, ELSET=WK_645

9.810469e-02
*ELEMENT, TYPE=SPRINGA, ELSET=WK_646
   38663,    32345,    40872
*SPRING, ELSET=WK_646

9.810469e-02
*ELEMENT, TYPE=SPRINGA, ELSET=WK_647
   38664,    32349,    40873
*SPRING, ELSET=WK_647

9.810469e-02
*ELEMENT, TYPE=SPRINGA, ELSET=WK_648
   38665,    32353,    40874
*SPRING, ELSET=WK_648

9.810469e-02
*ELEMENT, TYPE=SPRINGA, ELSET=WK_649
   38666,    32357,    40875
*SPRING, ELSET=WK_649

9.810469e-02
*ELEMENT, TYPE=SPRINGA, ELSET=WK_650
   38667,    32361,    40876
*SPRING, ELSET=WK_650

9.810469e-02
*ELEMENT, TYPE=SPRINGA, ELSET=WK_651
   38668,    32365,    40877
*SPRING, ELSET=WK_651

9.810469e-02
*ELEMENT, TYPE=SPRINGA, ELSET=WK_652
   38669,    32369,    40878
*SPRING, ELSET=WK_652

9.810469e-02
*ELEMENT, TYPE=SPRINGA, ELSET=WK_653
   38670,    32373,    40879
*SPRING, ELSET=WK_653

9.810469e-02
*ELEMENT, TYPE=SPRINGA, ELSET=WK_654
   38671,    32377,    40880
*SPRING, ELSET=WK_654

9.810469e-02
*ELEMENT, TYPE=SPRINGA, ELSET=WK_655
   38672,    32381,    40881
*SPRING, ELSET=WK_655

9.810469e-02
*ELEMENT, TYPE=SPRINGA, ELSET=WK_656
   38673,    32385,    40882
*SPRING, ELSET=WK_656

9.810469e-02
*ELEMENT, TYPE=SPRINGA, ELSET=WK_657
   38674,    32389,    40883
*SPRING, ELSET=WK_657

9.810469e-02
*ELEMENT, TYPE=SPRINGA, ELSET=WK_658
   38675,    32393,    40884
*SPRING, ELSET=WK_658

9.810469e-02
*ELEMENT, TYPE=SPRINGA, ELSET=WK_659
   38676,    32397,    40885
*SPRING, ELSET=WK_659

9.810469e-02
*ELEMENT, TYPE=SPRINGA, ELSET=WK_660
   38677,    32401,    40886
*SPRING, ELSET=WK_660

9.810469e-02
*ELEMENT, TYPE=SPRINGA, ELSET=WK_661
   38678,    32405,    40887
*SPRING, ELSET=WK_661

9.810469e-02
*ELEMENT, TYPE=SPRINGA, ELSET=WK_662
   38679,    32409,    40888
*SPRING, ELSET=WK_662

9.810469e-02
*ELEMENT, TYPE=SPRINGA, ELSET=WK_663
   38680,    32413,    40889
*SPRING, ELSET=WK_663

9.810469e-02
*ELEMENT, TYPE=SPRINGA, ELSET=WK_664
   38681,    32417,    40890
*SPRING, ELSET=WK_664

9.810469e-02
*ELEMENT, TYPE=SPRINGA, ELSET=WK_665
   38682,    32421,    40891
*SPRING, ELSET=WK_665

9.810469e-02
*ELEMENT, TYPE=SPRINGA, ELSET=WK_666
   38683,    32425,    40892
*SPRING, ELSET=WK_666

9.810469e-02
*ELEMENT, TYPE=SPRINGA, ELSET=WK_667
   38684,    32429,    40893
*SPRING, ELSET=WK_667

9.810469e-02
*ELEMENT, TYPE=SPRINGA, ELSET=WK_668
   38685,    32433,    40894
*SPRING, ELSET=WK_668

9.810469e-02
*ELEMENT, TYPE=SPRINGA, ELSET=WK_669
   38686,    32437,    40895
*SPRING, ELSET=WK_669

9.810469e-02
*ELEMENT, TYPE=SPRINGA, ELSET=WK_670
   38687,    32441,    40896
*SPRING, ELSET=WK_670

9.810469e-02
*ELEMENT, TYPE=SPRINGA, ELSET=WK_671
   38688,    32445,    40897
*SPRING, ELSET=WK_671

9.810469e-02
*ELEMENT, TYPE=SPRINGA, ELSET=WK_672
   38689,    32449,    40898
*SPRING, ELSET=WK_672

9.810469e-02
*ELEMENT, TYPE=SPRINGA, ELSET=WK_673
   38690,    32453,    40899
*SPRING, ELSET=WK_673

9.810469e-02
*ELEMENT, TYPE=SPRINGA, ELSET=WK_674
   38691,    32457,    40900
*SPRING, ELSET=WK_674

9.810469e-02
*ELEMENT, TYPE=SPRINGA, ELSET=WK_675
   38692,    32461,    40901
*SPRING, ELSET=WK_675

9.810469e-02
*ELEMENT, TYPE=SPRINGA, ELSET=WK_676
   38693,    32465,    40902
*SPRING, ELSET=WK_676

9.810469e-02
*ELEMENT, TYPE=SPRINGA, ELSET=WK_677
   38694,    32469,    40903
*SPRING, ELSET=WK_677

9.810469e-02
*ELEMENT, TYPE=SPRINGA, ELSET=WK_678
   38695,    32473,    40904
*SPRING, ELSET=WK_678

9.810469e-02
*ELEMENT, TYPE=SPRINGA, ELSET=WK_679
   38696,    32477,    40905
*SPRING, ELSET=WK_679

9.810469e-02
*ELEMENT, TYPE=SPRINGA, ELSET=WK_680
   38697,    32481,    40906
*SPRING, ELSET=WK_680

9.810469e-02
*ELEMENT, TYPE=SPRINGA, ELSET=WK_681
   38698,    32485,    40907
*SPRING, ELSET=WK_681

9.810469e-02
*ELEMENT, TYPE=SPRINGA, ELSET=WK_682
   38699,    32489,    40908
*SPRING, ELSET=WK_682

9.810469e-02
*ELEMENT, TYPE=SPRINGA, ELSET=WK_683
   38700,    32493,    40909
*SPRING, ELSET=WK_683

9.810469e-02
*ELEMENT, TYPE=SPRINGA, ELSET=WK_684
   38701,    32497,    40910
*SPRING, ELSET=WK_684

9.810469e-02
*ELEMENT, TYPE=SPRINGA, ELSET=WK_685
   38702,    32501,    40911
*SPRING, ELSET=WK_685

9.810469e-02
*ELEMENT, TYPE=SPRINGA, ELSET=WK_686
   38703,    32505,    40912
*SPRING, ELSET=WK_686

9.810469e-02
*ELEMENT, TYPE=SPRINGA, ELSET=WK_687
   38704,    32509,    40913
*SPRING, ELSET=WK_687

9.810469e-02
*ELEMENT, TYPE=SPRINGA, ELSET=WK_688
   38705,    32513,    40914
*SPRING, ELSET=WK_688

9.810469e-02
*ELEMENT, TYPE=SPRINGA, ELSET=WK_689
   38706,    32517,    40915
*SPRING, ELSET=WK_689

9.810469e-02
*ELEMENT, TYPE=SPRINGA, ELSET=WK_690
   38707,    32521,    40916
*SPRING, ELSET=WK_690

9.810469e-02
*ELEMENT, TYPE=SPRINGA, ELSET=WK_691
   38708,    32525,    40917
*SPRING, ELSET=WK_691

9.810469e-02
*ELEMENT, TYPE=SPRINGA, ELSET=WK_692
   38709,    32529,    40918
*SPRING, ELSET=WK_692

9.810469e-02
*ELEMENT, TYPE=SPRINGA, ELSET=WK_693
   38710,    32533,    40919
*SPRING, ELSET=WK_693

9.810469e-02
*ELEMENT, TYPE=SPRINGA, ELSET=WK_694
   38711,    32537,    40920
*SPRING, ELSET=WK_694

9.810469e-02
*ELEMENT, TYPE=SPRINGA, ELSET=WK_695
   38712,    32541,    40921
*SPRING, ELSET=WK_695

9.810469e-02
*ELEMENT, TYPE=SPRINGA, ELSET=WK_696
   38713,    32545,    40922
*SPRING, ELSET=WK_696

9.810469e-02
*ELEMENT, TYPE=SPRINGA, ELSET=WK_697
   38714,    32549,    40923
*SPRING, ELSET=WK_697

9.810469e-02
*ELEMENT, TYPE=SPRINGA, ELSET=WK_698
   38715,    32553,    40924
*SPRING, ELSET=WK_698

9.810469e-02
*ELEMENT, TYPE=SPRINGA, ELSET=WK_699
   38716,    32557,    40925
*SPRING, ELSET=WK_699

9.810469e-02
*ELEMENT, TYPE=SPRINGA, ELSET=WK_700
   38717,    32561,    40926
*SPRING, ELSET=WK_700

9.810469e-02
*ELEMENT, TYPE=SPRINGA, ELSET=WK_701
   38718,    32565,    40927
*SPRING, ELSET=WK_701

9.810469e-02
*ELEMENT, TYPE=SPRINGA, ELSET=WK_702
   38719,    32569,    40928
*SPRING, ELSET=WK_702

9.810469e-02
*ELEMENT, TYPE=SPRINGA, ELSET=WK_703
   38720,    32573,    40929
*SPRING, ELSET=WK_703

9.810469e-02
*ELEMENT, TYPE=SPRINGA, ELSET=WK_704
   38721,    32577,    40930
*SPRING, ELSET=WK_704

9.810469e-02
*ELEMENT, TYPE=SPRINGA, ELSET=WK_705
   38722,    32581,    40931
*SPRING, ELSET=WK_705

9.810469e-02
*ELEMENT, TYPE=SPRINGA, ELSET=WK_706
   38723,    32585,    40932
*SPRING, ELSET=WK_706

9.810469e-02
*ELEMENT, TYPE=SPRINGA, ELSET=WK_707
   38724,    32589,    40933
*SPRING, ELSET=WK_707

9.810469e-02
*ELEMENT, TYPE=SPRINGA, ELSET=WK_708
   38725,    32593,    40934
*SPRING, ELSET=WK_708

9.810469e-02
*ELEMENT, TYPE=SPRINGA, ELSET=WK_709
   38726,    32597,    40935
*SPRING, ELSET=WK_709

9.810469e-02
*ELEMENT, TYPE=SPRINGA, ELSET=WK_710
   38727,    32601,    40936
*SPRING, ELSET=WK_710

9.810469e-02
*ELEMENT, TYPE=SPRINGA, ELSET=WK_711
   38728,    32605,    40937
*SPRING, ELSET=WK_711

9.810469e-02
*ELEMENT, TYPE=SPRINGA, ELSET=WK_712
   38729,    32609,    40938
*SPRING, ELSET=WK_712

9.810469e-02
*ELEMENT, TYPE=SPRINGA, ELSET=WK_713
   38730,    32613,    40939
*SPRING, ELSET=WK_713

9.810469e-02
*ELEMENT, TYPE=SPRINGA, ELSET=WK_714
   38731,    32617,    40940
*SPRING, ELSET=WK_714

9.810469e-02
*ELEMENT, TYPE=SPRINGA, ELSET=WK_715
   38732,    32621,    40941
*SPRING, ELSET=WK_715

9.810469e-02
*ELEMENT, TYPE=SPRINGA, ELSET=WK_716
   38733,    32625,    40942
*SPRING, ELSET=WK_716

9.810469e-02
*ELEMENT, TYPE=SPRINGA, ELSET=WK_717
   38734,    32629,    40943
*SPRING, ELSET=WK_717

9.810469e-02
*ELEMENT, TYPE=SPRINGA, ELSET=WK_718
   38735,    32633,    40944
*SPRING, ELSET=WK_718

9.810469e-02
*ELEMENT, TYPE=SPRINGA, ELSET=WK_719
   38736,    32637,    40945
*SPRING, ELSET=WK_719

9.810469e-02
*ELEMENT, TYPE=SPRINGA, ELSET=WK_720
   38737,    32641,    40946
*SPRING, ELSET=WK_720

9.810469e-02
*ELEMENT, TYPE=SPRINGA, ELSET=WK_721
   38738,    32645,    40947
*SPRING, ELSET=WK_721

9.810469e-02
*ELEMENT, TYPE=SPRINGA, ELSET=WK_722
   38739,    32649,    40948
*SPRING, ELSET=WK_722

9.810469e-02
*ELEMENT, TYPE=SPRINGA, ELSET=WK_723
   38740,    32653,    40949
*SPRING, ELSET=WK_723

9.810469e-02
*ELEMENT, TYPE=SPRINGA, ELSET=WK_724
   38741,    32657,    40950
*SPRING, ELSET=WK_724

9.810469e-02
*ELEMENT, TYPE=SPRINGA, ELSET=WK_725
   38742,    32661,    40951
*SPRING, ELSET=WK_725

9.810469e-02
*ELEMENT, TYPE=SPRINGA, ELSET=WK_726
   38743,    32665,    40952
*SPRING, ELSET=WK_726

9.810469e-02
*ELEMENT, TYPE=SPRINGA, ELSET=WK_727
   38744,    32669,    40953
*SPRING, ELSET=WK_727

9.810469e-02
*ELEMENT, TYPE=SPRINGA, ELSET=WK_728
   38745,    32673,    40954
*SPRING, ELSET=WK_728

9.810469e-02
*ELEMENT, TYPE=SPRINGA, ELSET=WK_729
   38746,    32677,    40955
*SPRING, ELSET=WK_729

9.810469e-02
*ELEMENT, TYPE=SPRINGA, ELSET=WK_730
   38747,    32681,    40956
*SPRING, ELSET=WK_730

9.810469e-02
*ELEMENT, TYPE=SPRINGA, ELSET=WK_731
   38748,    32685,    40957
*SPRING, ELSET=WK_731

9.810469e-02
*ELEMENT, TYPE=SPRINGA, ELSET=WK_732
   38749,    32689,    40958
*SPRING, ELSET=WK_732

9.810469e-02
*ELEMENT, TYPE=SPRINGA, ELSET=WK_733
   38750,    32693,    40959
*SPRING, ELSET=WK_733

9.810469e-02
*ELEMENT, TYPE=SPRINGA, ELSET=WK_734
   38751,    32697,    40960
*SPRING, ELSET=WK_734

9.810469e-02
*ELEMENT, TYPE=SPRINGA, ELSET=WK_735
   38752,    32701,    40961
*SPRING, ELSET=WK_735

9.810469e-02
*ELEMENT, TYPE=SPRINGA, ELSET=WK_736
   38753,    32705,    40962
*SPRING, ELSET=WK_736

9.810469e-02
*ELEMENT, TYPE=SPRINGA, ELSET=WK_737
   38754,    32709,    40963
*SPRING, ELSET=WK_737

9.810469e-02
*ELEMENT, TYPE=SPRINGA, ELSET=WK_738
   38755,    32713,    40964
*SPRING, ELSET=WK_738

9.810469e-02
*ELEMENT, TYPE=SPRINGA, ELSET=WK_739
   38756,    32717,    40965
*SPRING, ELSET=WK_739

9.810469e-02
*ELEMENT, TYPE=SPRINGA, ELSET=WK_740
   38757,    32721,    40966
*SPRING, ELSET=WK_740

9.810469e-02
*ELEMENT, TYPE=SPRINGA, ELSET=WK_741
   38758,    32725,    40967
*SPRING, ELSET=WK_741

9.810469e-02
*ELEMENT, TYPE=SPRINGA, ELSET=WK_742
   38759,    32729,    40968
*SPRING, ELSET=WK_742

9.810469e-02
*ELEMENT, TYPE=SPRINGA, ELSET=WK_743
   38760,    32733,    40969
*SPRING, ELSET=WK_743

9.810469e-02
*ELEMENT, TYPE=SPRINGA, ELSET=WK_744
   38761,    32737,    40970
*SPRING, ELSET=WK_744

9.810469e-02
*ELEMENT, TYPE=SPRINGA, ELSET=WK_745
   38762,    32741,    40971
*SPRING, ELSET=WK_745

9.810469e-02
*ELEMENT, TYPE=SPRINGA, ELSET=WK_746
   38763,    32745,    40972
*SPRING, ELSET=WK_746

9.810469e-02
*ELEMENT, TYPE=SPRINGA, ELSET=WK_747
   38764,    32749,    40973
*SPRING, ELSET=WK_747

9.810469e-02
*ELEMENT, TYPE=SPRINGA, ELSET=WK_748
   38765,    32753,    40974
*SPRING, ELSET=WK_748

9.810469e-02
*ELEMENT, TYPE=SPRINGA, ELSET=WK_749
   38766,    32757,    40975
*SPRING, ELSET=WK_749

9.810469e-02
*ELEMENT, TYPE=SPRINGA, ELSET=WK_750
   38767,    32761,    40976
*SPRING, ELSET=WK_750

9.810469e-02
*ELEMENT, TYPE=SPRINGA, ELSET=WK_751
   38768,    32765,    40977
*SPRING, ELSET=WK_751

9.810469e-02
*ELEMENT, TYPE=SPRINGA, ELSET=WK_752
   38769,    32769,    40978
*SPRING, ELSET=WK_752

9.810469e-02
*ELEMENT, TYPE=SPRINGA, ELSET=WK_753
   38770,    32773,    40979
*SPRING, ELSET=WK_753

9.810469e-02
*ELEMENT, TYPE=SPRINGA, ELSET=WK_754
   38771,    32777,    40980
*SPRING, ELSET=WK_754

9.810469e-02
*ELEMENT, TYPE=SPRINGA, ELSET=WK_755
   38772,    32781,    40981
*SPRING, ELSET=WK_755

9.810469e-02
*ELEMENT, TYPE=SPRINGA, ELSET=WK_756
   38773,    32785,    40982
*SPRING, ELSET=WK_756

9.810469e-02
*ELEMENT, TYPE=SPRINGA, ELSET=WK_757
   38774,    32789,    40983
*SPRING, ELSET=WK_757

9.810469e-02
*ELEMENT, TYPE=SPRINGA, ELSET=WK_758
   38775,    32793,    40984
*SPRING, ELSET=WK_758

9.810469e-02
*ELEMENT, TYPE=SPRINGA, ELSET=WK_759
   38776,    32797,    40985
*SPRING, ELSET=WK_759

9.810469e-02
*ELEMENT, TYPE=SPRINGA, ELSET=WK_760
   38777,    32801,    40986
*SPRING, ELSET=WK_760

9.810469e-02
*ELEMENT, TYPE=SPRINGA, ELSET=WK_761
   38778,    32805,    40987
*SPRING, ELSET=WK_761

9.810469e-02
*ELEMENT, TYPE=SPRINGA, ELSET=WK_762
   38779,    32809,    40988
*SPRING, ELSET=WK_762

9.810469e-02
*ELEMENT, TYPE=SPRINGA, ELSET=WK_763
   38780,    32813,    40989
*SPRING, ELSET=WK_763

9.810469e-02
*ELEMENT, TYPE=SPRINGA, ELSET=WK_764
   38781,    32817,    40990
*SPRING, ELSET=WK_764

9.810469e-02
*ELEMENT, TYPE=SPRINGA, ELSET=WK_765
   38782,    32821,    40991
*SPRING, ELSET=WK_765

4.905235e-02
*ELEMENT, TYPE=SPRINGA, ELSET=WK_766
   38783,    32825,    40992
*SPRING, ELSET=WK_766

4.905235e-02
*ELEMENT, TYPE=SPRINGA, ELSET=WK_767
   38784,    32829,    40993
*SPRING, ELSET=WK_767

4.905235e-02
*ELEMENT, TYPE=SPRINGA, ELSET=WK_768
   38785,    32833,    40994
*SPRING, ELSET=WK_768

4.905235e-02
*ELEMENT, TYPE=SPRINGA, ELSET=WK_769
   38786,    32837,    40995
*SPRING, ELSET=WK_769

4.905235e-02
*ELEMENT, TYPE=SPRINGA, ELSET=WK_770
   38787,    32841,    40996
*SPRING, ELSET=WK_770

4.905235e-02
*ELEMENT, TYPE=SPRINGA, ELSET=WK_771
   38788,    32845,    40997
*SPRING, ELSET=WK_771

4.905235e-02
*ELEMENT, TYPE=SPRINGA, ELSET=WK_772
   38789,    32849,    40998
*SPRING, ELSET=WK_772

4.905235e-02
*ELEMENT, TYPE=SPRINGA, ELSET=WK_773
   38790,    32853,    40999
*SPRING, ELSET=WK_773

4.905235e-02
*ELEMENT, TYPE=SPRINGA, ELSET=WK_774
   38791,    32857,    41000
*SPRING, ELSET=WK_774

4.905235e-02
*ELEMENT, TYPE=SPRINGA, ELSET=WK_775
   38792,    32861,    41001
*SPRING, ELSET=WK_775

4.905235e-02
*ELEMENT, TYPE=SPRINGA, ELSET=WK_776
   38793,    32865,    41002
*SPRING, ELSET=WK_776

4.905235e-02
*ELEMENT, TYPE=SPRINGA, ELSET=WK_777
   38794,    32869,    41003
*SPRING, ELSET=WK_777

4.905235e-02
*ELEMENT, TYPE=SPRINGA, ELSET=WK_778
   38795,    32873,    41004
*SPRING, ELSET=WK_778

4.905235e-02
*ELEMENT, TYPE=SPRINGA, ELSET=WK_779
   38796,    32877,    41005
*SPRING, ELSET=WK_779

4.905235e-02
*ELEMENT, TYPE=SPRINGA, ELSET=WK_780
   38797,    32881,    41006
*SPRING, ELSET=WK_780

4.905235e-02
*ELEMENT, TYPE=SPRINGA, ELSET=WK_781
   38798,    32885,    41007
*SPRING, ELSET=WK_781

4.905235e-02
*ELEMENT, TYPE=SPRINGA, ELSET=WK_782
   38799,    32889,    41008
*SPRING, ELSET=WK_782

4.905235e-02
*ELEMENT, TYPE=SPRINGA, ELSET=WK_783
   38800,    32893,    41009
*SPRING, ELSET=WK_783

4.905235e-02
*ELEMENT, TYPE=SPRINGA, ELSET=WK_784
   38801,    32897,    41010
*SPRING, ELSET=WK_784

4.905235e-02
*ELEMENT, TYPE=SPRINGA, ELSET=WK_785
   38802,    32901,    41011
*SPRING, ELSET=WK_785

4.905235e-02
*ELEMENT, TYPE=SPRINGA, ELSET=WK_786
   38803,    32905,    41012
*SPRING, ELSET=WK_786

4.905235e-02
*ELEMENT, TYPE=SPRINGA, ELSET=WK_787
   38804,    32909,    41013
*SPRING, ELSET=WK_787

4.905235e-02
*ELEMENT, TYPE=SPRINGA, ELSET=WK_788
   38805,    32913,    41014
*SPRING, ELSET=WK_788

9.810469e-02
*ELEMENT, TYPE=SPRINGA, ELSET=WK_789
   38806,    32917,    41015
*SPRING, ELSET=WK_789

9.810469e-02
*ELEMENT, TYPE=SPRINGA, ELSET=WK_790
   38807,    32921,    41016
*SPRING, ELSET=WK_790

9.810469e-02
*ELEMENT, TYPE=SPRINGA, ELSET=WK_791
   38808,    32925,    41017
*SPRING, ELSET=WK_791

9.810469e-02
*ELEMENT, TYPE=SPRINGA, ELSET=WK_792
   38809,    32929,    41018
*SPRING, ELSET=WK_792

9.810469e-02
*ELEMENT, TYPE=SPRINGA, ELSET=WK_793
   38810,    32933,    41019
*SPRING, ELSET=WK_793

9.810469e-02
*ELEMENT, TYPE=SPRINGA, ELSET=WK_794
   38811,    32937,    41020
*SPRING, ELSET=WK_794

9.810469e-02
*ELEMENT, TYPE=SPRINGA, ELSET=WK_795
   38812,    32941,    41021
*SPRING, ELSET=WK_795

9.810469e-02
*ELEMENT, TYPE=SPRINGA, ELSET=WK_796
   38813,    32945,    41022
*SPRING, ELSET=WK_796

9.810469e-02
*ELEMENT, TYPE=SPRINGA, ELSET=WK_797
   38814,    32949,    41023
*SPRING, ELSET=WK_797

9.810469e-02
*ELEMENT, TYPE=SPRINGA, ELSET=WK_798
   38815,    32953,    41024
*SPRING, ELSET=WK_798

9.810469e-02
*ELEMENT, TYPE=SPRINGA, ELSET=WK_799
   38816,    32957,    41025
*SPRING, ELSET=WK_799

9.810469e-02
*ELEMENT, TYPE=SPRINGA, ELSET=WK_800
   38817,    32961,    41026
*SPRING, ELSET=WK_800

9.810469e-02
*ELEMENT, TYPE=SPRINGA, ELSET=WK_801
   38818,    32965,    41027
*SPRING, ELSET=WK_801

9.810469e-02
*ELEMENT, TYPE=SPRINGA, ELSET=WK_802
   38819,    32969,    41028
*SPRING, ELSET=WK_802

9.810469e-02
*ELEMENT, TYPE=SPRINGA, ELSET=WK_803
   38820,    32973,    41029
*SPRING, ELSET=WK_803

9.810469e-02
*ELEMENT, TYPE=SPRINGA, ELSET=WK_804
   38821,    32977,    41030
*SPRING, ELSET=WK_804

9.810469e-02
*ELEMENT, TYPE=SPRINGA, ELSET=WK_805
   38822,    32981,    41031
*SPRING, ELSET=WK_805

9.810469e-02
*ELEMENT, TYPE=SPRINGA, ELSET=WK_806
   38823,    32985,    41032
*SPRING, ELSET=WK_806

9.810469e-02
*ELEMENT, TYPE=SPRINGA, ELSET=WK_807
   38824,    32989,    41033
*SPRING, ELSET=WK_807

9.810469e-02
*ELEMENT, TYPE=SPRINGA, ELSET=WK_808
   38825,    32993,    41034
*SPRING, ELSET=WK_808

9.810469e-02
*ELEMENT, TYPE=SPRINGA, ELSET=WK_809
   38826,    32997,    41035
*SPRING, ELSET=WK_809

9.810469e-02
*ELEMENT, TYPE=SPRINGA, ELSET=WK_810
   38827,    33001,    41036
*SPRING, ELSET=WK_810

9.810469e-02
*ELEMENT, TYPE=SPRINGA, ELSET=WK_811
   38828,    33005,    41037
*SPRING, ELSET=WK_811

9.810469e-02
*ELEMENT, TYPE=SPRINGA, ELSET=WK_812
   38829,    33009,    41038
*SPRING, ELSET=WK_812

9.810469e-02
*ELEMENT, TYPE=SPRINGA, ELSET=WK_813
   38830,    33013,    41039
*SPRING, ELSET=WK_813

9.810469e-02
*ELEMENT, TYPE=SPRINGA, ELSET=WK_814
   38831,    33017,    41040
*SPRING, ELSET=WK_814

9.810469e-02
*ELEMENT, TYPE=SPRINGA, ELSET=WK_815
   38832,    33021,    41041
*SPRING, ELSET=WK_815

9.810469e-02
*ELEMENT, TYPE=SPRINGA, ELSET=WK_816
   38833,    33025,    41042
*SPRING, ELSET=WK_816

9.810469e-02
*ELEMENT, TYPE=SPRINGA, ELSET=WK_817
   38834,    33029,    41043
*SPRING, ELSET=WK_817

9.810469e-02
*ELEMENT, TYPE=SPRINGA, ELSET=WK_818
   38835,    33033,    41044
*SPRING, ELSET=WK_818

9.810469e-02
*ELEMENT, TYPE=SPRINGA, ELSET=WK_819
   38836,    33037,    41045
*SPRING, ELSET=WK_819

9.810469e-02
*ELEMENT, TYPE=SPRINGA, ELSET=WK_820
   38837,    33041,    41046
*SPRING, ELSET=WK_820

9.810469e-02
*ELEMENT, TYPE=SPRINGA, ELSET=WK_821
   38838,    33045,    41047
*SPRING, ELSET=WK_821

9.810469e-02
*ELEMENT, TYPE=SPRINGA, ELSET=WK_822
   38839,    33049,    41048
*SPRING, ELSET=WK_822

9.810469e-02
*ELEMENT, TYPE=SPRINGA, ELSET=WK_823
   38840,    33053,    41049
*SPRING, ELSET=WK_823

9.810469e-02
*ELEMENT, TYPE=SPRINGA, ELSET=WK_824
   38841,    33057,    41050
*SPRING, ELSET=WK_824

9.810469e-02
*ELEMENT, TYPE=SPRINGA, ELSET=WK_825
   38842,    33061,    41051
*SPRING, ELSET=WK_825

9.810469e-02
*ELEMENT, TYPE=SPRINGA, ELSET=WK_826
   38843,    33065,    41052
*SPRING, ELSET=WK_826

9.810469e-02
*ELEMENT, TYPE=SPRINGA, ELSET=WK_827
   38844,    33069,    41053
*SPRING, ELSET=WK_827

9.810469e-02
*ELEMENT, TYPE=SPRINGA, ELSET=WK_828
   38845,    33073,    41054
*SPRING, ELSET=WK_828

9.810469e-02
*ELEMENT, TYPE=SPRINGA, ELSET=WK_829
   38846,    33077,    41055
*SPRING, ELSET=WK_829

9.810469e-02
*ELEMENT, TYPE=SPRINGA, ELSET=WK_830
   38847,    33081,    41056
*SPRING, ELSET=WK_830

9.810469e-02
*ELEMENT, TYPE=SPRINGA, ELSET=WK_831
   38848,    33085,    41057
*SPRING, ELSET=WK_831

9.810469e-02
*ELEMENT, TYPE=SPRINGA, ELSET=WK_832
   38849,    33089,    41058
*SPRING, ELSET=WK_832

9.810469e-02
*ELEMENT, TYPE=SPRINGA, ELSET=WK_833
   38850,    33093,    41059
*SPRING, ELSET=WK_833

9.810469e-02
*ELEMENT, TYPE=SPRINGA, ELSET=WK_834
   38851,    33097,    41060
*SPRING, ELSET=WK_834

9.810469e-02
*ELEMENT, TYPE=SPRINGA, ELSET=WK_835
   38852,    33101,    41061
*SPRING, ELSET=WK_835

9.810469e-02
*ELEMENT, TYPE=SPRINGA, ELSET=WK_836
   38853,    33105,    41062
*SPRING, ELSET=WK_836

9.810469e-02
*ELEMENT, TYPE=SPRINGA, ELSET=WK_837
   38854,    33109,    41063
*SPRING, ELSET=WK_837

9.810469e-02
*ELEMENT, TYPE=SPRINGA, ELSET=WK_838
   38855,    33113,    41064
*SPRING, ELSET=WK_838

9.810469e-02
*ELEMENT, TYPE=SPRINGA, ELSET=WK_839
   38856,    33117,    41065
*SPRING, ELSET=WK_839

9.810469e-02
*ELEMENT, TYPE=SPRINGA, ELSET=WK_840
   38857,    33121,    41066
*SPRING, ELSET=WK_840

9.810469e-02
*ELEMENT, TYPE=SPRINGA, ELSET=WK_841
   38858,    33125,    41067
*SPRING, ELSET=WK_841

9.810469e-02
*ELEMENT, TYPE=SPRINGA, ELSET=WK_842
   38859,    33129,    41068
*SPRING, ELSET=WK_842

9.810469e-02
*ELEMENT, TYPE=SPRINGA, ELSET=WK_843
   38860,    33133,    41069
*SPRING, ELSET=WK_843

9.810469e-02
*ELEMENT, TYPE=SPRINGA, ELSET=WK_844
   38861,    33137,    41070
*SPRING, ELSET=WK_844

9.810469e-02
*ELEMENT, TYPE=SPRINGA, ELSET=WK_845
   38862,    33141,    41071
*SPRING, ELSET=WK_845

9.810469e-02
*ELEMENT, TYPE=SPRINGA, ELSET=WK_846
   38863,    33145,    41072
*SPRING, ELSET=WK_846

9.810469e-02
*ELEMENT, TYPE=SPRINGA, ELSET=WK_847
   38864,    33149,    41073
*SPRING, ELSET=WK_847

9.810469e-02
*ELEMENT, TYPE=SPRINGA, ELSET=WK_848
   38865,    33153,    41074
*SPRING, ELSET=WK_848

9.810469e-02
*ELEMENT, TYPE=SPRINGA, ELSET=WK_849
   38866,    33157,    41075
*SPRING, ELSET=WK_849

9.810469e-02
*ELEMENT, TYPE=SPRINGA, ELSET=WK_850
   38867,    33161,    41076
*SPRING, ELSET=WK_850

9.810469e-02
*ELEMENT, TYPE=SPRINGA, ELSET=WK_851
   38868,    33165,    41077
*SPRING, ELSET=WK_851

9.810469e-02
*ELEMENT, TYPE=SPRINGA, ELSET=WK_852
   38869,    33169,    41078
*SPRING, ELSET=WK_852

9.810469e-02
*ELEMENT, TYPE=SPRINGA, ELSET=WK_853
   38870,    33173,    41079
*SPRING, ELSET=WK_853

9.810469e-02
*ELEMENT, TYPE=SPRINGA, ELSET=WK_854
   38871,    33177,    41080
*SPRING, ELSET=WK_854

9.810469e-02
*ELEMENT, TYPE=SPRINGA, ELSET=WK_855
   38872,    33181,    41081
*SPRING, ELSET=WK_855

9.810469e-02
*ELEMENT, TYPE=SPRINGA, ELSET=WK_856
   38873,    33185,    41082
*SPRING, ELSET=WK_856

9.810469e-02
*ELEMENT, TYPE=SPRINGA, ELSET=WK_857
   38874,    33189,    41083
*SPRING, ELSET=WK_857

9.810469e-02
*ELEMENT, TYPE=SPRINGA, ELSET=WK_858
   38875,    33193,    41084
*SPRING, ELSET=WK_858

9.810469e-02
*ELEMENT, TYPE=SPRINGA, ELSET=WK_859
   38876,    33197,    41085
*SPRING, ELSET=WK_859

9.810469e-02
*ELEMENT, TYPE=SPRINGA, ELSET=WK_860
   38877,    33201,    41086
*SPRING, ELSET=WK_860

9.810469e-02
*ELEMENT, TYPE=SPRINGA, ELSET=WK_861
   38878,    33205,    41087
*SPRING, ELSET=WK_861

9.810469e-02
*ELEMENT, TYPE=SPRINGA, ELSET=WK_862
   38879,    33209,    41088
*SPRING, ELSET=WK_862

9.810469e-02
*ELEMENT, TYPE=SPRINGA, ELSET=WK_863
   38880,    33213,    41089
*SPRING, ELSET=WK_863

9.810469e-02
*ELEMENT, TYPE=SPRINGA, ELSET=WK_864
   38881,    33217,    41090
*SPRING, ELSET=WK_864

9.810469e-02
*ELEMENT, TYPE=SPRINGA, ELSET=WK_865
   38882,    33221,    41091
*SPRING, ELSET=WK_865

9.810469e-02
*ELEMENT, TYPE=SPRINGA, ELSET=WK_866
   38883,    33225,    41092
*SPRING, ELSET=WK_866

9.810469e-02
*ELEMENT, TYPE=SPRINGA, ELSET=WK_867
   38884,    33229,    41093
*SPRING, ELSET=WK_867

9.810469e-02
*ELEMENT, TYPE=SPRINGA, ELSET=WK_868
   38885,    33233,    41094
*SPRING, ELSET=WK_868

9.810469e-02
*ELEMENT, TYPE=SPRINGA, ELSET=WK_869
   38886,    33237,    41095
*SPRING, ELSET=WK_869

9.810469e-02
*ELEMENT, TYPE=SPRINGA, ELSET=WK_870
   38887,    33241,    41096
*SPRING, ELSET=WK_870

9.810469e-02
*ELEMENT, TYPE=SPRINGA, ELSET=WK_871
   38888,    33245,    41097
*SPRING, ELSET=WK_871

9.810469e-02
*ELEMENT, TYPE=SPRINGA, ELSET=WK_872
   38889,    33249,    41098
*SPRING, ELSET=WK_872

9.810469e-02
*ELEMENT, TYPE=SPRINGA, ELSET=WK_873
   38890,    33253,    41099
*SPRING, ELSET=WK_873

9.810469e-02
*ELEMENT, TYPE=SPRINGA, ELSET=WK_874
   38891,    33257,    41100
*SPRING, ELSET=WK_874

9.810469e-02
*ELEMENT, TYPE=SPRINGA, ELSET=WK_875
   38892,    33261,    41101
*SPRING, ELSET=WK_875

9.810469e-02
*ELEMENT, TYPE=SPRINGA, ELSET=WK_876
   38893,    33265,    41102
*SPRING, ELSET=WK_876

9.810469e-02
*ELEMENT, TYPE=SPRINGA, ELSET=WK_877
   38894,    33269,    41103
*SPRING, ELSET=WK_877

9.810469e-02
*ELEMENT, TYPE=SPRINGA, ELSET=WK_878
   38895,    33273,    41104
*SPRING, ELSET=WK_878

9.810469e-02
*ELEMENT, TYPE=SPRINGA, ELSET=WK_879
   38896,    33277,    41105
*SPRING, ELSET=WK_879

9.810469e-02
*ELEMENT, TYPE=SPRINGA, ELSET=WK_880
   38897,    33281,    41106
*SPRING, ELSET=WK_880

9.810469e-02
*ELEMENT, TYPE=SPRINGA, ELSET=WK_881
   38898,    33285,    41107
*SPRING, ELSET=WK_881

9.810469e-02
*ELEMENT, TYPE=SPRINGA, ELSET=WK_882
   38899,    33289,    41108
*SPRING, ELSET=WK_882

9.810469e-02
*ELEMENT, TYPE=SPRINGA, ELSET=WK_883
   38900,    33293,    41109
*SPRING, ELSET=WK_883

9.810469e-02
*ELEMENT, TYPE=SPRINGA, ELSET=WK_884
   38901,    33297,    41110
*SPRING, ELSET=WK_884

9.810469e-02
*ELEMENT, TYPE=SPRINGA, ELSET=WK_885
   38902,    33301,    41111
*SPRING, ELSET=WK_885

9.810469e-02
*ELEMENT, TYPE=SPRINGA, ELSET=WK_886
   38903,    33305,    41112
*SPRING, ELSET=WK_886

9.810469e-02
*ELEMENT, TYPE=SPRINGA, ELSET=WK_887
   38904,    33309,    41113
*SPRING, ELSET=WK_887

9.810469e-02
*ELEMENT, TYPE=SPRINGA, ELSET=WK_888
   38905,    33313,    41114
*SPRING, ELSET=WK_888

9.810469e-02
*ELEMENT, TYPE=SPRINGA, ELSET=WK_889
   38906,    33317,    41115
*SPRING, ELSET=WK_889

9.810469e-02
*ELEMENT, TYPE=SPRINGA, ELSET=WK_890
   38907,    33321,    41116
*SPRING, ELSET=WK_890

9.810469e-02
*ELEMENT, TYPE=SPRINGA, ELSET=WK_891
   38908,    33325,    41117
*SPRING, ELSET=WK_891

9.810469e-02
*ELEMENT, TYPE=SPRINGA, ELSET=WK_892
   38909,    33329,    41118
*SPRING, ELSET=WK_892

9.810469e-02
*ELEMENT, TYPE=SPRINGA, ELSET=WK_893
   38910,    33333,    41119
*SPRING, ELSET=WK_893

9.810469e-02
*ELEMENT, TYPE=SPRINGA, ELSET=WK_894
   38911,    33337,    41120
*SPRING, ELSET=WK_894

9.810469e-02
*ELEMENT, TYPE=SPRINGA, ELSET=WK_895
   38912,    33341,    41121
*SPRING, ELSET=WK_895

9.810469e-02
*ELEMENT, TYPE=SPRINGA, ELSET=WK_896
   38913,    33345,    41122
*SPRING, ELSET=WK_896

9.810469e-02
*ELEMENT, TYPE=SPRINGA, ELSET=WK_897
   38914,    33349,    41123
*SPRING, ELSET=WK_897

9.810469e-02
*ELEMENT, TYPE=SPRINGA, ELSET=WK_898
   38915,    33353,    41124
*SPRING, ELSET=WK_898

9.810469e-02
*ELEMENT, TYPE=SPRINGA, ELSET=WK_899
   38916,    33357,    41125
*SPRING, ELSET=WK_899

9.810469e-02
*ELEMENT, TYPE=SPRINGA, ELSET=WK_900
   38917,    33361,    41126
*SPRING, ELSET=WK_900

9.810469e-02
*ELEMENT, TYPE=SPRINGA, ELSET=WK_901
   38918,    33365,    41127
*SPRING, ELSET=WK_901

9.810469e-02
*ELEMENT, TYPE=SPRINGA, ELSET=WK_902
   38919,    33369,    41128
*SPRING, ELSET=WK_902

9.810469e-02
*ELEMENT, TYPE=SPRINGA, ELSET=WK_903
   38920,    33373,    41129
*SPRING, ELSET=WK_903

9.810469e-02
*ELEMENT, TYPE=SPRINGA, ELSET=WK_904
   38921,    33377,    41130
*SPRING, ELSET=WK_904

9.810469e-02
*ELEMENT, TYPE=SPRINGA, ELSET=WK_905
   38922,    33381,    41131
*SPRING, ELSET=WK_905

9.810469e-02
*ELEMENT, TYPE=SPRINGA, ELSET=WK_906
   38923,    33385,    41132
*SPRING, ELSET=WK_906

9.810469e-02
*ELEMENT, TYPE=SPRINGA, ELSET=WK_907
   38924,    33389,    41133
*SPRING, ELSET=WK_907

9.810469e-02
*ELEMENT, TYPE=SPRINGA, ELSET=WK_908
   38925,    33393,    41134
*SPRING, ELSET=WK_908

9.810469e-02
*ELEMENT, TYPE=SPRINGA, ELSET=WK_909
   38926,    33397,    41135
*SPRING, ELSET=WK_909

9.810469e-02
*ELEMENT, TYPE=SPRINGA, ELSET=WK_910
   38927,    33401,    41136
*SPRING, ELSET=WK_910

9.810469e-02
*ELEMENT, TYPE=SPRINGA, ELSET=WK_911
   38928,    33405,    41137
*SPRING, ELSET=WK_911

9.810469e-02
*ELEMENT, TYPE=SPRINGA, ELSET=WK_912
   38929,    33409,    41138
*SPRING, ELSET=WK_912

9.810469e-02
*ELEMENT, TYPE=SPRINGA, ELSET=WK_913
   38930,    33413,    41139
*SPRING, ELSET=WK_913

9.810469e-02
*ELEMENT, TYPE=SPRINGA, ELSET=WK_914
   38931,    33417,    41140
*SPRING, ELSET=WK_914

9.810469e-02
*ELEMENT, TYPE=SPRINGA, ELSET=WK_915
   38932,    33421,    41141
*SPRING, ELSET=WK_915

9.810469e-02
*ELEMENT, TYPE=SPRINGA, ELSET=WK_916
   38933,    33425,    41142
*SPRING, ELSET=WK_916

9.810469e-02
*ELEMENT, TYPE=SPRINGA, ELSET=WK_917
   38934,    33429,    41143
*SPRING, ELSET=WK_917

9.810469e-02
*ELEMENT, TYPE=SPRINGA, ELSET=WK_918
   38935,    33433,    41144
*SPRING, ELSET=WK_918

9.810469e-02
*ELEMENT, TYPE=SPRINGA, ELSET=WK_919
   38936,    33437,    41145
*SPRING, ELSET=WK_919

9.810469e-02
*ELEMENT, TYPE=SPRINGA, ELSET=WK_920
   38937,    33441,    41146
*SPRING, ELSET=WK_920

9.810469e-02
*ELEMENT, TYPE=SPRINGA, ELSET=WK_921
   38938,    33445,    41147
*SPRING, ELSET=WK_921

9.810469e-02
*ELEMENT, TYPE=SPRINGA, ELSET=WK_922
   38939,    33449,    41148
*SPRING, ELSET=WK_922

9.810469e-02
*ELEMENT, TYPE=SPRINGA, ELSET=WK_923
   38940,    33453,    41149
*SPRING, ELSET=WK_923

9.810469e-02
*ELEMENT, TYPE=SPRINGA, ELSET=WK_924
   38941,    33457,    41150
*SPRING, ELSET=WK_924

9.810469e-02
*ELEMENT, TYPE=SPRINGA, ELSET=WK_925
   38942,    33461,    41151
*SPRING, ELSET=WK_925

9.810469e-02
*ELEMENT, TYPE=SPRINGA, ELSET=WK_926
   38943,    33465,    41152
*SPRING, ELSET=WK_926

9.810469e-02
*ELEMENT, TYPE=SPRINGA, ELSET=WK_927
   38944,    33469,    41153
*SPRING, ELSET=WK_927

9.810469e-02
*ELEMENT, TYPE=SPRINGA, ELSET=WK_928
   38945,    33473,    41154
*SPRING, ELSET=WK_928

9.810469e-02
*ELEMENT, TYPE=SPRINGA, ELSET=WK_929
   38946,    33477,    41155
*SPRING, ELSET=WK_929

9.810469e-02
*ELEMENT, TYPE=SPRINGA, ELSET=WK_930
   38947,    33481,    41156
*SPRING, ELSET=WK_930

9.810469e-02
*ELEMENT, TYPE=SPRINGA, ELSET=WK_931
   38948,    33485,    41157
*SPRING, ELSET=WK_931

9.810469e-02
*ELEMENT, TYPE=SPRINGA, ELSET=WK_932
   38949,    33489,    41158
*SPRING, ELSET=WK_932

9.810469e-02
*ELEMENT, TYPE=SPRINGA, ELSET=WK_933
   38950,    33493,    41159
*SPRING, ELSET=WK_933

9.810469e-02
*ELEMENT, TYPE=SPRINGA, ELSET=WK_934
   38951,    33497,    41160
*SPRING, ELSET=WK_934

9.810469e-02
*ELEMENT, TYPE=SPRINGA, ELSET=WK_935
   38952,    33501,    41161
*SPRING, ELSET=WK_935

9.810469e-02
*ELEMENT, TYPE=SPRINGA, ELSET=WK_936
   38953,    33505,    41162
*SPRING, ELSET=WK_936

9.810469e-02
*ELEMENT, TYPE=SPRINGA, ELSET=WK_937
   38954,    33509,    41163
*SPRING, ELSET=WK_937

9.810469e-02
*ELEMENT, TYPE=SPRINGA, ELSET=WK_938
   38955,    33513,    41164
*SPRING, ELSET=WK_938

9.810469e-02
*ELEMENT, TYPE=SPRINGA, ELSET=WK_939
   38956,    33517,    41165
*SPRING, ELSET=WK_939

9.810469e-02
*ELEMENT, TYPE=SPRINGA, ELSET=WK_940
   38957,    33521,    41166
*SPRING, ELSET=WK_940

9.810469e-02
*ELEMENT, TYPE=SPRINGA, ELSET=WK_941
   38958,    33525,    41167
*SPRING, ELSET=WK_941

9.810469e-02
*ELEMENT, TYPE=SPRINGA, ELSET=WK_942
   38959,    33529,    41168
*SPRING, ELSET=WK_942

9.810469e-02
*ELEMENT, TYPE=SPRINGA, ELSET=WK_943
   38960,    33533,    41169
*SPRING, ELSET=WK_943

9.810469e-02
*ELEMENT, TYPE=SPRINGA, ELSET=WK_944
   38961,    33537,    41170
*SPRING, ELSET=WK_944

9.810469e-02
*ELEMENT, TYPE=SPRINGA, ELSET=WK_945
   38962,    33541,    41171
*SPRING, ELSET=WK_945

9.810469e-02
*ELEMENT, TYPE=SPRINGA, ELSET=WK_946
   38963,    33545,    41172
*SPRING, ELSET=WK_946

9.810469e-02
*ELEMENT, TYPE=SPRINGA, ELSET=WK_947
   38964,    33549,    41173
*SPRING, ELSET=WK_947

9.810469e-02
*ELEMENT, TYPE=SPRINGA, ELSET=WK_948
   38965,    33553,    41174
*SPRING, ELSET=WK_948

9.810469e-02
*ELEMENT, TYPE=SPRINGA, ELSET=WK_949
   38966,    33557,    41175
*SPRING, ELSET=WK_949

9.810469e-02
*ELEMENT, TYPE=SPRINGA, ELSET=WK_950
   38967,    33561,    41176
*SPRING, ELSET=WK_950

9.810469e-02
*ELEMENT, TYPE=SPRINGA, ELSET=WK_951
   38968,    33565,    41177
*SPRING, ELSET=WK_951

9.810469e-02
*ELEMENT, TYPE=SPRINGA, ELSET=WK_952
   38969,    33569,    41178
*SPRING, ELSET=WK_952

9.810469e-02
*ELEMENT, TYPE=SPRINGA, ELSET=WK_953
   38970,    33573,    41179
*SPRING, ELSET=WK_953

9.810469e-02
*ELEMENT, TYPE=SPRINGA, ELSET=WK_954
   38971,    33577,    41180
*SPRING, ELSET=WK_954

9.810469e-02
*ELEMENT, TYPE=SPRINGA, ELSET=WK_955
   38972,    33581,    41181
*SPRING, ELSET=WK_955

9.810469e-02
*ELEMENT, TYPE=SPRINGA, ELSET=WK_956
   38973,    33585,    41182
*SPRING, ELSET=WK_956

9.810469e-02
*ELEMENT, TYPE=SPRINGA, ELSET=WK_957
   38974,    33589,    41183
*SPRING, ELSET=WK_957

9.810469e-02
*ELEMENT, TYPE=SPRINGA, ELSET=WK_958
   38975,    33593,    41184
*SPRING, ELSET=WK_958

9.810469e-02
*ELEMENT, TYPE=SPRINGA, ELSET=WK_959
   38976,    33597,    41185
*SPRING, ELSET=WK_959

9.810469e-02
*ELEMENT, TYPE=SPRINGA, ELSET=WK_960
   38977,    33601,    41186
*SPRING, ELSET=WK_960

9.810469e-02
*ELEMENT, TYPE=SPRINGA, ELSET=WK_961
   38978,    33605,    41187
*SPRING, ELSET=WK_961

9.810469e-02
*ELEMENT, TYPE=SPRINGA, ELSET=WK_962
   38979,    33609,    41188
*SPRING, ELSET=WK_962

9.810469e-02
*ELEMENT, TYPE=SPRINGA, ELSET=WK_963
   38980,    33613,    41189
*SPRING, ELSET=WK_963

9.810469e-02
*ELEMENT, TYPE=SPRINGA, ELSET=WK_964
   38981,    33617,    41190
*SPRING, ELSET=WK_964

9.810469e-02
*ELEMENT, TYPE=SPRINGA, ELSET=WK_965
   38982,    33621,    41191
*SPRING, ELSET=WK_965

9.810469e-02
*ELEMENT, TYPE=SPRINGA, ELSET=WK_966
   38983,    33625,    41192
*SPRING, ELSET=WK_966

9.810469e-02
*ELEMENT, TYPE=SPRINGA, ELSET=WK_967
   38984,    33629,    41193
*SPRING, ELSET=WK_967

9.810469e-02
*ELEMENT, TYPE=SPRINGA, ELSET=WK_968
   38985,    33633,    41194
*SPRING, ELSET=WK_968

9.810469e-02
*ELEMENT, TYPE=SPRINGA, ELSET=WK_969
   38986,    33637,    41195
*SPRING, ELSET=WK_969

9.810469e-02
*ELEMENT, TYPE=SPRINGA, ELSET=WK_970
   38987,    33641,    41196
*SPRING, ELSET=WK_970

9.810469e-02
*ELEMENT, TYPE=SPRINGA, ELSET=WK_971
   38988,    33645,    41197
*SPRING, ELSET=WK_971

9.810469e-02
*ELEMENT, TYPE=SPRINGA, ELSET=WK_972
   38989,    33649,    41198
*SPRING, ELSET=WK_972

9.810469e-02
*ELEMENT, TYPE=SPRINGA, ELSET=WK_973
   38990,    33653,    41199
*SPRING, ELSET=WK_973

9.810469e-02
*ELEMENT, TYPE=SPRINGA, ELSET=WK_974
   38991,    33657,    41200
*SPRING, ELSET=WK_974

9.810469e-02
*ELEMENT, TYPE=SPRINGA, ELSET=WK_975
   38992,    33661,    41201
*SPRING, ELSET=WK_975

9.810469e-02
*ELEMENT, TYPE=SPRINGA, ELSET=WK_976
   38993,    33665,    41202
*SPRING, ELSET=WK_976

9.810469e-02
*ELEMENT, TYPE=SPRINGA, ELSET=WK_977
   38994,    33669,    41203
*SPRING, ELSET=WK_977

9.810469e-02
*ELEMENT, TYPE=SPRINGA, ELSET=WK_978
   38995,    33673,    41204
*SPRING, ELSET=WK_978

9.810469e-02
*ELEMENT, TYPE=SPRINGA, ELSET=WK_979
   38996,    33677,    41205
*SPRING, ELSET=WK_979

9.810469e-02
*ELEMENT, TYPE=SPRINGA, ELSET=WK_980
   38997,    33681,    41206
*SPRING, ELSET=WK_980

9.810469e-02
*ELEMENT, TYPE=SPRINGA, ELSET=WK_981
   38998,    33685,    41207
*SPRING, ELSET=WK_981

9.810469e-02
*ELEMENT, TYPE=SPRINGA, ELSET=WK_982
   38999,    33689,    41208
*SPRING, ELSET=WK_982

9.810469e-02
*ELEMENT, TYPE=SPRINGA, ELSET=WK_983
   39000,    33693,    41209
*SPRING, ELSET=WK_983

9.810469e-02
*ELEMENT, TYPE=SPRINGA, ELSET=WK_984
   39001,    33697,    41210
*SPRING, ELSET=WK_984

9.810469e-02
*ELEMENT, TYPE=SPRINGA, ELSET=WK_985
   39002,    33701,    41211
*SPRING, ELSET=WK_985

9.810469e-02
*ELEMENT, TYPE=SPRINGA, ELSET=WK_986
   39003,    33705,    41212
*SPRING, ELSET=WK_986

9.810469e-02
*ELEMENT, TYPE=SPRINGA, ELSET=WK_987
   39004,    33709,    41213
*SPRING, ELSET=WK_987

9.810469e-02
*ELEMENT, TYPE=SPRINGA, ELSET=WK_988
   39005,    33713,    41214
*SPRING, ELSET=WK_988

9.810469e-02
*ELEMENT, TYPE=SPRINGA, ELSET=WK_989
   39006,    33717,    41215
*SPRING, ELSET=WK_989

9.810469e-02
*ELEMENT, TYPE=SPRINGA, ELSET=WK_990
   39007,    33721,    41216
*SPRING, ELSET=WK_990

9.810469e-02
*ELEMENT, TYPE=SPRINGA, ELSET=WK_991
   39008,    33725,    41217
*SPRING, ELSET=WK_991

9.810469e-02
*ELEMENT, TYPE=SPRINGA, ELSET=WK_992
   39009,    33729,    41218
*SPRING, ELSET=WK_992

9.810469e-02
*ELEMENT, TYPE=SPRINGA, ELSET=WK_993
   39010,    33733,    41219
*SPRING, ELSET=WK_993

9.810469e-02
*ELEMENT, TYPE=SPRINGA, ELSET=WK_994
   39011,    33737,    41220
*SPRING, ELSET=WK_994

9.810469e-02
*ELEMENT, TYPE=SPRINGA, ELSET=WK_995
   39012,    33741,    41221
*SPRING, ELSET=WK_995

9.810469e-02
*ELEMENT, TYPE=SPRINGA, ELSET=WK_996
   39013,    33745,    41222
*SPRING, ELSET=WK_996

9.810469e-02
*ELEMENT, TYPE=SPRINGA, ELSET=WK_997
   39014,    33749,    41223
*SPRING, ELSET=WK_997

4.905235e-02
*ELEMENT, TYPE=SPRINGA, ELSET=WK_998
   39015,    33753,    41224
*SPRING, ELSET=WK_998

4.905235e-02
*ELEMENT, TYPE=SPRINGA, ELSET=WK_999
   39016,    33757,    41225
*SPRING, ELSET=WK_999

4.905235e-02
*ELEMENT, TYPE=SPRINGA, ELSET=WK_1000
   39017,    33761,    41226
*SPRING, ELSET=WK_1000

4.905235e-02
*ELEMENT, TYPE=SPRINGA, ELSET=WK_1001
   39018,    33765,    41227
*SPRING, ELSET=WK_1001

4.905235e-02
*ELEMENT, TYPE=SPRINGA, ELSET=WK_1002
   39019,    33769,    41228
*SPRING, ELSET=WK_1002

4.905235e-02
*ELEMENT, TYPE=SPRINGA, ELSET=WK_1003
   39020,    33773,    41229
*SPRING, ELSET=WK_1003

4.905235e-02
*ELEMENT, TYPE=SPRINGA, ELSET=WK_1004
   39021,    33777,    41230
*SPRING, ELSET=WK_1004

4.905235e-02
*ELEMENT, TYPE=SPRINGA, ELSET=WK_1005
   39022,    33781,    41231
*SPRING, ELSET=WK_1005

4.905235e-02
*ELEMENT, TYPE=SPRINGA, ELSET=WK_1006
   39023,    33785,    41232
*SPRING, ELSET=WK_1006

4.905235e-02
*ELEMENT, TYPE=SPRINGA, ELSET=WK_1007
   39024,    33789,    41233
*SPRING, ELSET=WK_1007

4.905235e-02
*BOUNDARY
GHOST_WINKLER, 1, 3, 0
