** Winkler foundation springs em dura_outer (excluindo perturbation_strip)
** Gerado automaticamente por foam_polymesh_to_ccx_inp.py
** k_winkler = 2.000e+05 Pa/m, 68 springs
*NODE, NSET=GHOST_WINKLER
     993,  1.76847411e-03, -1.76847411e-03,  0.00000000e+00
     994,  2.41578050e-03, -6.47306439e-04,  0.00000000e+00
     995,  2.41578050e-03,  6.47306439e-04,  0.00000000e+00
     996,  1.76847411e-03,  1.76847411e-03,  0.00000000e+00
     997,  1.76847411e-03, -1.76847411e-03,  6.00000000e-03
     998,  2.41578050e-03, -6.47306439e-04,  6.00000000e-03
     999,  2.41578050e-03,  6.47306439e-04,  6.00000000e-03
    1000,  1.76847411e-03,  1.76847411e-03,  6.00000000e-03
    1001,  1.76847411e-03, -1.76847411e-03,  1.20000000e-02
    1002,  1.76847411e-03,  1.76847411e-03,  1.20000000e-02
    1003,  1.76847411e-03, -1.76847411e-03,  1.80000000e-02
    1004,  1.76847411e-03,  1.76847411e-03,  1.80000000e-02
    1005,  1.76847411e-03, -1.76847411e-03,  2.40000000e-02
    1006,  2.41578050e-03, -6.47306439e-04,  2.40000000e-02
    1007,  2.41578050e-03,  6.47306439e-04,  2.40000000e-02
    1008,  1.76847411e-03,  1.76847411e-03,  2.40000000e-02
    1009,  1.76847411e-03, -1.76847411e-03,  3.00000000e-02
    1010,  2.41578050e-03, -6.47306439e-04,  3.00000000e-02
    1011,  2.41578050e-03,  6.47306439e-04,  3.00000000e-02
    1012,  1.76847411e-03,  1.76847411e-03,  3.00000000e-02
    1013,  6.47306439e-04,  2.41578050e-03,  0.00000000e+00
    1014, -6.47306439e-04,  2.41578050e-03,  0.00000000e+00
    1015, -1.76847411e-03,  1.76847411e-03,  0.00000000e+00
    1016,  6.47306439e-04,  2.41578050e-03,  6.00000000e-03
    1017, -6.47306439e-04,  2.41578050e-03,  6.00000000e-03
    1018, -1.76847411e-03,  1.76847411e-03,  6.00000000e-03
    1019,  6.47306439e-04,  2.41578050e-03,  1.20000000e-02
    1020, -6.47306439e-04,  2.41578050e-03,  1.20000000e-02
    1021, -1.76847411e-03,  1.76847411e-03,  1.20000000e-02
    1022,  6.47306439e-04,  2.41578050e-03,  1.80000000e-02
    1023, -6.47306439e-04,  2.41578050e-03,  1.80000000e-02
    1024, -1.76847411e-03,  1.76847411e-03,  1.80000000e-02
    1025,  6.47306439e-04,  2.41578050e-03,  2.40000000e-02
    1026, -6.47306439e-04,  2.41578050e-03,  2.40000000e-02
    1027, -1.76847411e-03,  1.76847411e-03,  2.40000000e-02
    1028,  6.47306439e-04,  2.41578050e-03,  3.00000000e-02
    1029, -6.47306439e-04,  2.41578050e-03,  3.00000000e-02
    1030, -1.76847411e-03,  1.76847411e-03,  3.00000000e-02
    1031, -2.41578050e-03,  6.47306439e-04,  0.00000000e+00
    1032, -2.41578050e-03, -6.47306439e-04,  0.00000000e+00
    1033, -1.76847411e-03, -1.76847411e-03,  0.00000000e+00
    1034, -2.41578050e-03,  6.47306439e-04,  6.00000000e-03
    1035, -2.41578050e-03, -6.47306439e-04,  6.00000000e-03
    1036, -1.76847411e-03, -1.76847411e-03,  6.00000000e-03
    1037, -2.41578050e-03,  6.47306439e-04,  1.20000000e-02
    1038, -2.41578050e-03, -6.47306439e-04,  1.20000000e-02
    1039, -1.76847411e-03, -1.76847411e-03,  1.20000000e-02
    1040, -2.41578050e-03,  6.47306439e-04,  1.80000000e-02
    1041, -2.41578050e-03, -6.47306439e-04,  1.80000000e-02
    1042, -1.76847411e-03, -1.76847411e-03,  1.80000000e-02
    1043, -2.41578050e-03,  6.47306439e-04,  2.40000000e-02
    1044, -2.41578050e-03, -6.47306439e-04,  2.40000000e-02
    1045, -1.76847411e-03, -1.76847411e-03,  2.40000000e-02
    1046, -2.41578050e-03,  6.47306439e-04,  3.00000000e-02
    1047, -2.41578050e-03, -6.47306439e-04,  3.00000000e-02
    1048, -1.76847411e-03, -1.76847411e-03,  3.00000000e-02
    1049, -6.47306439e-04, -2.41578050e-03,  0.00000000e+00
    1050,  6.47306439e-04, -2.41578050e-03,  0.00000000e+00
    1051, -6.47306439e-04, -2.41578050e-03,  6.00000000e-03
    1052,  6.47306439e-04, -2.41578050e-03,  6.00000000e-03
    1053, -6.47306439e-04, -2.41578050e-03,  1.20000000e-02
    1054,  6.47306439e-04, -2.41578050e-03,  1.20000000e-02
    1055, -6.47306439e-04, -2.41578050e-03,  1.80000000e-02
    1056,  6.47306439e-04, -2.41578050e-03,  1.80000000e-02
    1057, -6.47306439e-04, -2.41578050e-03,  2.40000000e-02
    1058,  6.47306439e-04, -2.41578050e-03,  2.40000000e-02
    1059, -6.47306439e-04, -2.41578050e-03,  3.00000000e-02
    1060,  6.47306439e-04, -2.41578050e-03,  3.00000000e-02
*ELEMENT, TYPE=SPRINGA, ELSET=WK_0
     820,      673,      993
*SPRING, ELSET=WK_0

7.764571e-01
*ELEMENT, TYPE=SPRINGA, ELSET=WK_1
     821,      674,      994
*SPRING, ELSET=WK_1

7.764571e-01
*ELEMENT, TYPE=SPRINGA, ELSET=WK_2
     822,      675,      995
*SPRING, ELSET=WK_2

7.764571e-01
*ELEMENT, TYPE=SPRINGA, ELSET=WK_3
     823,      676,      996
*SPRING, ELSET=WK_3

7.764571e-01
*ELEMENT, TYPE=SPRINGA, ELSET=WK_4
     824,      677,      997
*SPRING, ELSET=WK_4

1.552914e+00
*ELEMENT, TYPE=SPRINGA, ELSET=WK_5
     825,      678,      998
*SPRING, ELSET=WK_5

1.552914e+00
*ELEMENT, TYPE=SPRINGA, ELSET=WK_6
     826,      679,      999
*SPRING, ELSET=WK_6

1.552914e+00
*ELEMENT, TYPE=SPRINGA, ELSET=WK_7
     827,      680,     1000
*SPRING, ELSET=WK_7

1.552914e+00
*ELEMENT, TYPE=SPRINGA, ELSET=WK_8
     828,      681,     1001
*SPRING, ELSET=WK_8

1.552914e+00
*ELEMENT, TYPE=SPRINGA, ELSET=WK_9
     829,      684,     1002
*SPRING, ELSET=WK_9

1.552914e+00
*ELEMENT, TYPE=SPRINGA, ELSET=WK_10
     830,      685,     1003
*SPRING, ELSET=WK_10

1.552914e+00
*ELEMENT, TYPE=SPRINGA, ELSET=WK_11
     831,      688,     1004
*SPRING, ELSET=WK_11

1.552914e+00
*ELEMENT, TYPE=SPRINGA, ELSET=WK_12
     832,      689,     1005
*SPRING, ELSET=WK_12

1.552914e+00
*ELEMENT, TYPE=SPRINGA, ELSET=WK_13
     833,      690,     1006
*SPRING, ELSET=WK_13

1.552914e+00
*ELEMENT, TYPE=SPRINGA, ELSET=WK_14
     834,      691,     1007
*SPRING, ELSET=WK_14

1.552914e+00
*ELEMENT, TYPE=SPRINGA, ELSET=WK_15
     835,      692,     1008
*SPRING, ELSET=WK_15

1.552914e+00
*ELEMENT, TYPE=SPRINGA, ELSET=WK_16
     836,      693,     1009
*SPRING, ELSET=WK_16

7.764571e-01
*ELEMENT, TYPE=SPRINGA, ELSET=WK_17
     837,      694,     1010
*SPRING, ELSET=WK_17

7.764571e-01
*ELEMENT, TYPE=SPRINGA, ELSET=WK_18
     838,      695,     1011
*SPRING, ELSET=WK_18

7.764571e-01
*ELEMENT, TYPE=SPRINGA, ELSET=WK_19
     839,      696,     1012
*SPRING, ELSET=WK_19

7.764571e-01
*ELEMENT, TYPE=SPRINGA, ELSET=WK_20
     840,      697,     1013
*SPRING, ELSET=WK_20

7.764571e-01
*ELEMENT, TYPE=SPRINGA, ELSET=WK_21
     841,      698,     1014
*SPRING, ELSET=WK_21

7.764571e-01
*ELEMENT, TYPE=SPRINGA, ELSET=WK_22
     842,      699,     1015
*SPRING, ELSET=WK_22

7.764571e-01
*ELEMENT, TYPE=SPRINGA, ELSET=WK_23
     843,      700,     1016
*SPRING, ELSET=WK_23

1.552914e+00
*ELEMENT, TYPE=SPRINGA, ELSET=WK_24
     844,      701,     1017
*SPRING, ELSET=WK_24

1.552914e+00
*ELEMENT, TYPE=SPRINGA, ELSET=WK_25
     845,      702,     1018
*SPRING, ELSET=WK_25

1.552914e+00
*ELEMENT, TYPE=SPRINGA, ELSET=WK_26
     846,      703,     1019
*SPRING, ELSET=WK_26

1.552914e+00
*ELEMENT, TYPE=SPRINGA, ELSET=WK_27
     847,      704,     1020
*SPRING, ELSET=WK_27

1.552914e+00
*ELEMENT, TYPE=SPRINGA, ELSET=WK_28
     848,      705,     1021
*SPRING, ELSET=WK_28

1.552914e+00
*ELEMENT, TYPE=SPRINGA, ELSET=WK_29
     849,      706,     1022
*SPRING, ELSET=WK_29

1.552914e+00
*ELEMENT, TYPE=SPRINGA, ELSET=WK_30
     850,      707,     1023
*SPRING, ELSET=WK_30

1.552914e+00
*ELEMENT, TYPE=SPRINGA, ELSET=WK_31
     851,      708,     1024
*SPRING, ELSET=WK_31

1.552914e+00
*ELEMENT, TYPE=SPRINGA, ELSET=WK_32
     852,      709,     1025
*SPRING, ELSET=WK_32

1.552914e+00
*ELEMENT, TYPE=SPRINGA, ELSET=WK_33
     853,      710,     1026
*SPRING, ELSET=WK_33

1.552914e+00
*ELEMENT, TYPE=SPRINGA, ELSET=WK_34
     854,      711,     1027
*SPRING, ELSET=WK_34

1.552914e+00
*ELEMENT, TYPE=SPRINGA, ELSET=WK_35
     855,      712,     1028
*SPRING, ELSET=WK_35

7.764571e-01
*ELEMENT, TYPE=SPRINGA, ELSET=WK_36
     856,      713,     1029
*SPRING, ELSET=WK_36

7.764571e-01
*ELEMENT, TYPE=SPRINGA, ELSET=WK_37
     857,      714,     1030
*SPRING, ELSET=WK_37

7.764571e-01
*ELEMENT, TYPE=SPRINGA, ELSET=WK_38
     858,      715,     1031
*SPRING, ELSET=WK_38

7.764571e-01
*ELEMENT, TYPE=SPRINGA, ELSET=WK_39
     859,      716,     1032
*SPRING, ELSET=WK_39

7.764571e-01
*ELEMENT, TYPE=SPRINGA, ELSET=WK_40
     860,      717,     1033
*SPRING, ELSET=WK_40

7.764571e-01
*ELEMENT, TYPE=SPRINGA, ELSET=WK_41
     861,      718,     1034
*SPRING, ELSET=WK_41

1.552914e+00
*ELEMENT, TYPE=SPRINGA, ELSET=WK_42
     862,      719,     1035
*SPRING, ELSET=WK_42

1.552914e+00
*ELEMENT, TYPE=SPRINGA, ELSET=WK_43
     863,      720,     1036
*SPRING, ELSET=WK_43

1.552914e+00
*ELEMENT, TYPE=SPRINGA, ELSET=WK_44
     864,      721,     1037
*SPRING, ELSET=WK_44

1.552914e+00
*ELEMENT, TYPE=SPRINGA, ELSET=WK_45
     865,      722,     1038
*SPRING, ELSET=WK_45

1.552914e+00
*ELEMENT, TYPE=SPRINGA, ELSET=WK_46
     866,      723,     1039
*SPRING, ELSET=WK_46

1.552914e+00
*ELEMENT, TYPE=SPRINGA, ELSET=WK_47
     867,      724,     1040
*SPRING, ELSET=WK_47

1.552914e+00
*ELEMENT, TYPE=SPRINGA, ELSET=WK_48
     868,      725,     1041
*SPRING, ELSET=WK_48

1.552914e+00
*ELEMENT, TYPE=SPRINGA, ELSET=WK_49
     869,      726,     1042
*SPRING, ELSET=WK_49

1.552914e+00
*ELEMENT, TYPE=SPRINGA, ELSET=WK_50
     870,      727,     1043
*SPRING, ELSET=WK_50

1.552914e+00
*ELEMENT, TYPE=SPRINGA, ELSET=WK_51
     871,      728,     1044
*SPRING, ELSET=WK_51

1.552914e+00
*ELEMENT, TYPE=SPRINGA, ELSET=WK_52
     872,      729,     1045
*SPRING, ELSET=WK_52

1.552914e+00
*ELEMENT, TYPE=SPRINGA, ELSET=WK_53
     873,      730,     1046
*SPRING, ELSET=WK_53

7.764571e-01
*ELEMENT, TYPE=SPRINGA, ELSET=WK_54
     874,      731,     1047
*SPRING, ELSET=WK_54

7.764571e-01
*ELEMENT, TYPE=SPRINGA, ELSET=WK_55
     875,      732,     1048
*SPRING, ELSET=WK_55

7.764571e-01
*ELEMENT, TYPE=SPRINGA, ELSET=WK_56
     876,      733,     1049
*SPRING, ELSET=WK_56

7.764571e-01
*ELEMENT, TYPE=SPRINGA, ELSET=WK_57
     877,      734,     1050
*SPRING, ELSET=WK_57

7.764571e-01
*ELEMENT, TYPE=SPRINGA, ELSET=WK_58
     878,      735,     1051
*SPRING, ELSET=WK_58

1.552914e+00
*ELEMENT, TYPE=SPRINGA, ELSET=WK_59
     879,      736,     1052
*SPRING, ELSET=WK_59

1.552914e+00
*ELEMENT, TYPE=SPRINGA, ELSET=WK_60
     880,      737,     1053
*SPRING, ELSET=WK_60

1.552914e+00
*ELEMENT, TYPE=SPRINGA, ELSET=WK_61
     881,      738,     1054
*SPRING, ELSET=WK_61

1.552914e+00
*ELEMENT, TYPE=SPRINGA, ELSET=WK_62
     882,      739,     1055
*SPRING, ELSET=WK_62

1.552914e+00
*ELEMENT, TYPE=SPRINGA, ELSET=WK_63
     883,      740,     1056
*SPRING, ELSET=WK_63

1.552914e+00
*ELEMENT, TYPE=SPRINGA, ELSET=WK_64
     884,      741,     1057
*SPRING, ELSET=WK_64

1.552914e+00
*ELEMENT, TYPE=SPRINGA, ELSET=WK_65
     885,      742,     1058
*SPRING, ELSET=WK_65

1.552914e+00
*ELEMENT, TYPE=SPRINGA, ELSET=WK_66
     886,      743,     1059
*SPRING, ELSET=WK_66

7.764571e-01
*ELEMENT, TYPE=SPRINGA, ELSET=WK_67
     887,      744,     1060
*SPRING, ELSET=WK_67

7.764571e-01
*BOUNDARY
GHOST_WINKLER, 1, 3, 0
