** Winkler foundation springs em dura_outer (excluindo perturbation_strip)
** Gerado automaticamente por foam_polymesh_to_ccx_inp.py
** k_winkler = 2.000e+05 Pa/m, 264 springs
*NODE, NSET=GHOST_WINKLER
    6566,  1.76847411e-03, -1.76847411e-03,  0.00000000e+00
    6567,  2.16592956e-03, -1.25050002e-03,  0.00000000e+00
    6568,  2.41578050e-03, -6.47306439e-04,  0.00000000e+00
    6569,  2.50100000e-03,  2.22133423e-19,  0.00000000e+00
    6570,  2.41578050e-03,  6.47306439e-04,  0.00000000e+00
    6571,  2.16592956e-03,  1.25050002e-03,  0.00000000e+00
    6572,  1.76847411e-03,  1.76847411e-03,  0.00000000e+00
    6573,  1.76847411e-03, -1.76847411e-03,  3.00000000e-03
    6574,  2.16592956e-03, -1.25050002e-03,  3.00000000e-03
    6575,  2.41578050e-03, -6.47306439e-04,  3.00000000e-03
    6576,  2.50100000e-03,  2.22133423e-19,  3.00000000e-03
    6577,  2.41578050e-03,  6.47306439e-04,  3.00000000e-03
    6578,  2.16592956e-03,  1.25050002e-03,  3.00000000e-03
    6579,  1.76847411e-03,  1.76847411e-03,  3.00000000e-03
    6580,  1.76847411e-03, -1.76847411e-03,  6.00000000e-03
    6581,  2.16592956e-03, -1.25050002e-03,  6.00000000e-03
    6582,  2.41578050e-03, -6.47306439e-04,  6.00000000e-03
    6583,  2.50100000e-03,  2.22133423e-19,  6.00000000e-03
    6584,  2.41578050e-03,  6.47306439e-04,  6.00000000e-03
    6585,  2.16592956e-03,  1.25050002e-03,  6.00000000e-03
    6586,  1.76847411e-03,  1.76847411e-03,  6.00000000e-03
    6587,  1.76847411e-03, -1.76847411e-03,  9.00000000e-03
    6588,  2.16592956e-03, -1.25050002e-03,  9.00000000e-03
    6589,  2.41578050e-03, -6.47306439e-04,  9.00000000e-03
    6590,  2.50100000e-03,  2.22133423e-19,  9.00000000e-03
    6591,  2.41578050e-03,  6.47306439e-04,  9.00000000e-03
    6592,  2.16592956e-03,  1.25050002e-03,  9.00000000e-03
    6593,  1.76847411e-03,  1.76847411e-03,  9.00000000e-03
    6594,  1.76847411e-03, -1.76847411e-03,  1.20000000e-02
    6595,  2.16592956e-03, -1.25050002e-03,  1.20000000e-02
    6596,  2.41578050e-03, -6.47306439e-04,  1.20000000e-02
    6597,  2.50100000e-03,  2.22133423e-19,  1.20000000e-02
    6598,  2.41578050e-03,  6.47306439e-04,  1.20000000e-02
    6599,  2.16592956e-03,  1.25050002e-03,  1.20000000e-02
    6600,  1.76847411e-03,  1.76847411e-03,  1.20000000e-02
    6601,  1.76847411e-03, -1.76847411e-03,  1.50000000e-02
    6602,  2.16592956e-03, -1.25050002e-03,  1.50000000e-02
    6603,  2.41578050e-03, -6.47306439e-04,  1.50000000e-02
    6604,  2.50100000e-03,  2.22133423e-19,  1.50000000e-02
    6605,  2.41578050e-03,  6.47306439e-04,  1.50000000e-02
    6606,  2.16592956e-03,  1.25050002e-03,  1.50000000e-02
    6607,  1.76847411e-03,  1.76847411e-03,  1.50000000e-02
    6608,  1.76847411e-03, -1.76847411e-03,  1.80000000e-02
    6609,  2.16592956e-03, -1.25050002e-03,  1.80000000e-02
    6610,  2.41578050e-03, -6.47306439e-04,  1.80000000e-02
    6611,  2.50100000e-03,  2.22133423e-19,  1.80000000e-02
    6612,  2.41578050e-03,  6.47306439e-04,  1.80000000e-02
    6613,  2.16592956e-03,  1.25050002e-03,  1.80000000e-02
    6614,  1.76847411e-03,  1.76847411e-03,  1.80000000e-02
    6615,  1.76847411e-03, -1.76847411e-03,  2.10000000e-02
    6616,  2.16592956e-03, -1.25050002e-03,  2.10000000e-02
    6617,  2.41578050e-03, -6.47306439e-04,  2.10000000e-02
    6618,  2.50100000e-03,  2.22133423e-19,  2.10000000e-02
    6619,  2.41578050e-03,  6.47306439e-04,  2.10000000e-02
    6620,  2.16592956e-03,  1.25050002e-03,  2.10000000e-02
    6621,  1.76847411e-03,  1.76847411e-03,  2.10000000e-02
    6622,  1.76847411e-03, -1.76847411e-03,  2.40000000e-02
    6623,  2.16592956e-03, -1.25050002e-03,  2.40000000e-02
    6624,  2.41578050e-03, -6.47306439e-04,  2.40000000e-02
    6625,  2.50100000e-03,  2.22133423e-19,  2.40000000e-02
    6626,  2.41578050e-03,  6.47306439e-04,  2.40000000e-02
    6627,  2.16592956e-03,  1.25050002e-03,  2.40000000e-02
    6628,  1.76847411e-03,  1.76847411e-03,  2.40000000e-02
    6629,  1.76847411e-03, -1.76847411e-03,  2.70000000e-02
    6630,  2.16592956e-03, -1.25050002e-03,  2.70000000e-02
    6631,  2.41578050e-03, -6.47306439e-04,  2.70000000e-02
    6632,  2.50100000e-03,  2.22133423e-19,  2.70000000e-02
    6633,  2.41578050e-03,  6.47306439e-04,  2.70000000e-02
    6634,  2.16592956e-03,  1.25050002e-03,  2.70000000e-02
    6635,  1.76847411e-03,  1.76847411e-03,  2.70000000e-02
    6636,  1.76847411e-03, -1.76847411e-03,  3.00000000e-02
    6637,  2.16592956e-03, -1.25050002e-03,  3.00000000e-02
    6638,  2.41578050e-03, -6.47306439e-04,  3.00000000e-02
    6639,  2.50100000e-03,  2.22133423e-19,  3.00000000e-02
    6640,  2.41578050e-03,  6.47306439e-04,  3.00000000e-02
    6641,  2.16592956e-03,  1.25050002e-03,  3.00000000e-02
    6642,  1.76847411e-03,  1.76847411e-03,  3.00000000e-02
    6643,  1.25050002e-03,  2.16592956e-03,  0.00000000e+00
    6644,  6.47306439e-04,  2.41578050e-03,  0.00000000e+00
    6645,  2.22133423e-19,  2.50100000e-03,  0.00000000e+00
    6646, -6.47306439e-04,  2.41578050e-03,  0.00000000e+00
    6647, -1.25050002e-03,  2.16592956e-03,  0.00000000e+00
    6648, -1.76847411e-03,  1.76847411e-03,  0.00000000e+00
    6649,  1.25050002e-03,  2.16592956e-03,  3.00000000e-03
    6650,  6.47306439e-04,  2.41578050e-03,  3.00000000e-03
    6651,  2.22133423e-19,  2.50100000e-03,  3.00000000e-03
    6652, -6.47306439e-04,  2.41578050e-03,  3.00000000e-03
    6653, -1.25050002e-03,  2.16592956e-03,  3.00000000e-03
    6654, -1.76847411e-03,  1.76847411e-03,  3.00000000e-03
    6655,  1.25050002e-03,  2.16592956e-03,  6.00000000e-03
    6656,  6.47306439e-04,  2.41578050e-03,  6.00000000e-03
    6657,  2.22133423e-19,  2.50100000e-03,  6.00000000e-03
    6658, -6.47306439e-04,  2.41578050e-03,  6.00000000e-03
    6659, -1.25050002e-03,  2.16592956e-03,  6.00000000e-03
    6660, -1.76847411e-03,  1.76847411e-03,  6.00000000e-03
    6661,  1.25050002e-03,  2.16592956e-03,  9.00000000e-03
    6662,  6.47306439e-04,  2.41578050e-03,  9.00000000e-03
    6663,  2.22133423e-19,  2.50100000e-03,  9.00000000e-03
    6664, -6.47306439e-04,  2.41578050e-03,  9.00000000e-03
    6665, -1.25050002e-03,  2.16592956e-03,  9.00000000e-03
    6666, -1.76847411e-03,  1.76847411e-03,  9.00000000e-03
    6667,  1.25050002e-03,  2.16592956e-03,  1.20000000e-02
    6668,  6.47306439e-04,  2.41578050e-03,  1.20000000e-02
    6669,  2.22133423e-19,  2.50100000e-03,  1.20000000e-02
    6670, -6.47306439e-04,  2.41578050e-03,  1.20000000e-02
    6671, -1.25050002e-03,  2.16592956e-03,  1.20000000e-02
    6672, -1.76847411e-03,  1.76847411e-03,  1.20000000e-02
    6673,  1.25050002e-03,  2.16592956e-03,  1.50000000e-02
    6674,  6.47306439e-04,  2.41578050e-03,  1.50000000e-02
    6675,  2.22133423e-19,  2.50100000e-03,  1.50000000e-02
    6676, -6.47306439e-04,  2.41578050e-03,  1.50000000e-02
    6677, -1.25050002e-03,  2.16592956e-03,  1.50000000e-02
    6678, -1.76847411e-03,  1.76847411e-03,  1.50000000e-02
    6679,  1.25050002e-03,  2.16592956e-03,  1.80000000e-02
    6680,  6.47306439e-04,  2.41578050e-03,  1.80000000e-02
    6681,  2.22133423e-19,  2.50100000e-03,  1.80000000e-02
    6682, -6.47306439e-04,  2.41578050e-03,  1.80000000e-02
    6683, -1.25050002e-03,  2.16592956e-03,  1.80000000e-02
    6684, -1.76847411e-03,  1.76847411e-03,  1.80000000e-02
    6685,  1.25050002e-03,  2.16592956e-03,  2.10000000e-02
    6686,  6.47306439e-04,  2.41578050e-03,  2.10000000e-02
    6687,  2.22133423e-19,  2.50100000e-03,  2.10000000e-02
    6688, -6.47306439e-04,  2.41578050e-03,  2.10000000e-02
    6689, -1.25050002e-03,  2.16592956e-03,  2.10000000e-02
    6690, -1.76847411e-03,  1.76847411e-03,  2.10000000e-02
    6691,  1.25050002e-03,  2.16592956e-03,  2.40000000e-02
    6692,  6.47306439e-04,  2.41578050e-03,  2.40000000e-02
    6693,  2.22133423e-19,  2.50100000e-03,  2.40000000e-02
    6694, -6.47306439e-04,  2.41578050e-03,  2.40000000e-02
    6695, -1.25050002e-03,  2.16592956e-03,  2.40000000e-02
    6696, -1.76847411e-03,  1.76847411e-03,  2.40000000e-02
    6697,  1.25050002e-03,  2.16592956e-03,  2.70000000e-02
    6698,  6.47306439e-04,  2.41578050e-03,  2.70000000e-02
    6699,  2.22133423e-19,  2.50100000e-03,  2.70000000e-02
    6700, -6.47306439e-04,  2.41578050e-03,  2.70000000e-02
    6701, -1.25050002e-03,  2.16592956e-03,  2.70000000e-02
    6702, -1.76847411e-03,  1.76847411e-03,  2.70000000e-02
    6703,  1.25050002e-03,  2.16592956e-03,  3.00000000e-02
    6704,  6.47306439e-04,  2.41578050e-03,  3.00000000e-02
    6705,  2.22133423e-19,  2.50100000e-03,  3.00000000e-02
    6706, -6.47306439e-04,  2.41578050e-03,  3.00000000e-02
    6707, -1.25050002e-03,  2.16592956e-03,  3.00000000e-02
    6708, -1.76847411e-03,  1.76847411e-03,  3.00000000e-02
    6709, -2.16592956e-03,  1.25050002e-03,  0.00000000e+00
    6710, -2.41578050e-03,  6.47306439e-04,  0.00000000e+00
    6711, -2.50100000e-03,  2.22133423e-19,  0.00000000e+00
    6712, -2.41578050e-03, -6.47306439e-04,  0.00000000e+00
    6713, -2.16592956e-03, -1.25050002e-03,  0.00000000e+00
    6714, -1.76847411e-03, -1.76847411e-03,  0.00000000e+00
    6715, -2.16592956e-03,  1.25050002e-03,  3.00000000e-03
    6716, -2.41578050e-03,  6.47306439e-04,  3.00000000e-03
    6717, -2.50100000e-03,  2.22133423e-19,  3.00000000e-03
    6718, -2.41578050e-03, -6.47306439e-04,  3.00000000e-03
    6719, -2.16592956e-03, -1.25050002e-03,  3.00000000e-03
    6720, -1.76847411e-03, -1.76847411e-03,  3.00000000e-03
    6721, -2.16592956e-03,  1.25050002e-03,  6.00000000e-03
    6722, -2.41578050e-03,  6.47306439e-04,  6.00000000e-03
    6723, -2.50100000e-03,  2.22133423e-19,  6.00000000e-03
    6724, -2.41578050e-03, -6.47306439e-04,  6.00000000e-03
    6725, -2.16592956e-03, -1.25050002e-03,  6.00000000e-03
    6726, -1.76847411e-03, -1.76847411e-03,  6.00000000e-03
    6727, -2.16592956e-03,  1.25050002e-03,  9.00000000e-03
    6728, -2.41578050e-03,  6.47306439e-04,  9.00000000e-03
    6729, -2.50100000e-03,  2.22133423e-19,  9.00000000e-03
    6730, -2.41578050e-03, -6.47306439e-04,  9.00000000e-03
    6731, -2.16592956e-03, -1.25050002e-03,  9.00000000e-03
    6732, -1.76847411e-03, -1.76847411e-03,  9.00000000e-03
    6733, -2.16592956e-03,  1.25050002e-03,  1.20000000e-02
    6734, -2.41578050e-03,  6.47306439e-04,  1.20000000e-02
    6735, -2.50100000e-03,  2.22133423e-19,  1.20000000e-02
    6736, -2.41578050e-03, -6.47306439e-04,  1.20000000e-02
    6737, -2.16592956e-03, -1.25050002e-03,  1.20000000e-02
    6738, -1.76847411e-03, -1.76847411e-03,  1.20000000e-02
    6739, -2.16592956e-03,  1.25050002e-03,  1.50000000e-02
    6740, -2.41578050e-03,  6.47306439e-04,  1.50000000e-02
    6741, -2.50100000e-03,  2.22133423e-19,  1.50000000e-02
    6742, -2.41578050e-03, -6.47306439e-04,  1.50000000e-02
    6743, -2.16592956e-03, -1.25050002e-03,  1.50000000e-02
    6744, -1.76847411e-03, -1.76847411e-03,  1.50000000e-02
    6745, -2.16592956e-03,  1.25050002e-03,  1.80000000e-02
    6746, -2.41578050e-03,  6.47306439e-04,  1.80000000e-02
    6747, -2.50100000e-03,  2.22133423e-19,  1.80000000e-02
    6748, -2.41578050e-03, -6.47306439e-04,  1.80000000e-02
    6749, -2.16592956e-03, -1.25050002e-03,  1.80000000e-02
    6750, -1.76847411e-03, -1.76847411e-03,  1.80000000e-02
    6751, -2.16592956e-03,  1.25050002e-03,  2.10000000e-02
    6752, -2.41578050e-03,  6.47306439e-04,  2.10000000e-02
    6753, -2.50100000e-03,  2.22133423e-19,  2.10000000e-02
    6754, -2.41578050e-03, -6.47306439e-04,  2.10000000e-02
    6755, -2.16592956e-03, -1.25050002e-03,  2.10000000e-02
    6756, -1.76847411e-03, -1.76847411e-03,  2.10000000e-02
    6757, -2.16592956e-03,  1.25050002e-03,  2.40000000e-02
    6758, -2.41578050e-03,  6.47306439e-04,  2.40000000e-02
    6759, -2.50100000e-03,  2.22133423e-19,  2.40000000e-02
    6760, -2.41578050e-03, -6.47306439e-04,  2.40000000e-02
    6761, -2.16592956e-03, -1.25050002e-03,  2.40000000e-02
    6762, -1.76847411e-03, -1.76847411e-03,  2.40000000e-02
    6763, -2.16592956e-03,  1.25050002e-03,  2.70000000e-02
    6764, -2.41578050e-03,  6.47306439e-04,  2.70000000e-02
    6765, -2.50100000e-03,  2.22133423e-19,  2.70000000e-02
    6766, -2.41578050e-03, -6.47306439e-04,  2.70000000e-02
    6767, -2.16592956e-03, -1.25050002e-03,  2.70000000e-02
    6768, -1.76847411e-03, -1.76847411e-03,  2.70000000e-02
    6769, -2.16592956e-03,  1.25050002e-03,  3.00000000e-02
    6770, -2.41578050e-03,  6.47306439e-04,  3.00000000e-02
    6771, -2.50100000e-03,  2.22133423e-19,  3.00000000e-02
    6772, -2.41578050e-03, -6.47306439e-04,  3.00000000e-02
    6773, -2.16592956e-03, -1.25050002e-03,  3.00000000e-02
    6774, -1.76847411e-03, -1.76847411e-03,  3.00000000e-02
    6775, -1.25050002e-03, -2.16592956e-03,  0.00000000e+00
    6776, -6.47306439e-04, -2.41578050e-03,  0.00000000e+00
    6777, -2.22133423e-19, -2.50100000e-03,  0.00000000e+00
    6778,  6.47306439e-04, -2.41578050e-03,  0.00000000e+00
    6779,  1.25050002e-03, -2.16592956e-03,  0.00000000e+00
    6780, -1.25050002e-03, -2.16592956e-03,  3.00000000e-03
    6781, -6.47306439e-04, -2.41578050e-03,  3.00000000e-03
    6782, -2.22133423e-19, -2.50100000e-03,  3.00000000e-03
    6783,  6.47306439e-04, -2.41578050e-03,  3.00000000e-03
    6784,  1.25050002e-03, -2.16592956e-03,  3.00000000e-03
    6785, -1.25050002e-03, -2.16592956e-03,  6.00000000e-03
    6786, -6.47306439e-04, -2.41578050e-03,  6.00000000e-03
    6787, -2.22133423e-19, -2.50100000e-03,  6.00000000e-03
    6788,  6.47306439e-04, -2.41578050e-03,  6.00000000e-03
    6789,  1.25050002e-03, -2.16592956e-03,  6.00000000e-03
    6790, -1.25050002e-03, -2.16592956e-03,  9.00000000e-03
    6791, -6.47306439e-04, -2.41578050e-03,  9.00000000e-03
    6792, -2.22133423e-19, -2.50100000e-03,  9.00000000e-03
    6793,  6.47306439e-04, -2.41578050e-03,  9.00000000e-03
    6794,  1.25050002e-03, -2.16592956e-03,  9.00000000e-03
    6795, -1.25050002e-03, -2.16592956e-03,  1.20000000e-02
    6796, -6.47306439e-04, -2.41578050e-03,  1.20000000e-02
    6797, -2.22133423e-19, -2.50100000e-03,  1.20000000e-02
    6798,  6.47306439e-04, -2.41578050e-03,  1.20000000e-02
    6799,  1.25050002e-03, -2.16592956e-03,  1.20000000e-02
    6800, -1.25050002e-03, -2.16592956e-03,  1.50000000e-02
    6801, -6.47306439e-04, -2.41578050e-03,  1.50000000e-02
    6802, -2.22133423e-19, -2.50100000e-03,  1.50000000e-02
    6803,  6.47306439e-04, -2.41578050e-03,  1.50000000e-02
    6804,  1.25050002e-03, -2.16592956e-03,  1.50000000e-02
    6805, -1.25050002e-03, -2.16592956e-03,  1.80000000e-02
    6806, -6.47306439e-04, -2.41578050e-03,  1.80000000e-02
    6807, -2.22133423e-19, -2.50100000e-03,  1.80000000e-02
    6808,  6.47306439e-04, -2.41578050e-03,  1.80000000e-02
    6809,  1.25050002e-03, -2.16592956e-03,  1.80000000e-02
    6810, -1.25050002e-03, -2.16592956e-03,  2.10000000e-02
    6811, -6.47306439e-04, -2.41578050e-03,  2.10000000e-02
    6812, -2.22133423e-19, -2.50100000e-03,  2.10000000e-02
    6813,  6.47306439e-04, -2.41578050e-03,  2.10000000e-02
    6814,  1.25050002e-03, -2.16592956e-03,  2.10000000e-02
    6815, -1.25050002e-03, -2.16592956e-03,  2.40000000e-02
    6816, -6.47306439e-04, -2.41578050e-03,  2.40000000e-02
    6817, -2.22133423e-19, -2.50100000e-03,  2.40000000e-02
    6818,  6.47306439e-04, -2.41578050e-03,  2.40000000e-02
    6819,  1.25050002e-03, -2.16592956e-03,  2.40000000e-02
    6820, -1.25050002e-03, -2.16592956e-03,  2.70000000e-02
    6821, -6.47306439e-04, -2.41578050e-03,  2.70000000e-02
    6822, -2.22133423e-19, -2.50100000e-03,  2.70000000e-02
    6823,  6.47306439e-04, -2.41578050e-03,  2.70000000e-02
    6824,  1.25050002e-03, -2.16592956e-03,  2.70000000e-02
    6825, -1.25050002e-03, -2.16592956e-03,  3.00000000e-02
    6826, -6.47306439e-04, -2.41578050e-03,  3.00000000e-02
    6827, -2.22133423e-19, -2.50100000e-03,  3.00000000e-02
    6828,  6.47306439e-04, -2.41578050e-03,  3.00000000e-02
    6829,  1.25050002e-03, -2.16592956e-03,  3.00000000e-02
*ELEMENT, TYPE=SPRINGA, ELSET=WK_0
    5905,     4503,     6566
*SPRING, ELSET=WK_0

1.957893e-01
*ELEMENT, TYPE=SPRINGA, ELSET=WK_1
    5906,     4507,     6567
*SPRING, ELSET=WK_1

1.957893e-01
*ELEMENT, TYPE=SPRINGA, ELSET=WK_2
    5907,     4511,     6568
*SPRING, ELSET=WK_2

1.957893e-01
*ELEMENT, TYPE=SPRINGA, ELSET=WK_3
    5908,     4515,     6569
*SPRING, ELSET=WK_3

1.957893e-01
*ELEMENT, TYPE=SPRINGA, ELSET=WK_4
    5909,     4519,     6570
*SPRING, ELSET=WK_4

1.957893e-01
*ELEMENT, TYPE=SPRINGA, ELSET=WK_5
    5910,     4523,     6571
*SPRING, ELSET=WK_5

1.957893e-01
*ELEMENT, TYPE=SPRINGA, ELSET=WK_6
    5911,     4527,     6572
*SPRING, ELSET=WK_6

1.957893e-01
*ELEMENT, TYPE=SPRINGA, ELSET=WK_7
    5912,     4531,     6573
*SPRING, ELSET=WK_7

3.915786e-01
*ELEMENT, TYPE=SPRINGA, ELSET=WK_8
    5913,     4535,     6574
*SPRING, ELSET=WK_8

3.915786e-01
*ELEMENT, TYPE=SPRINGA, ELSET=WK_9
    5914,     4539,     6575
*SPRING, ELSET=WK_9

3.915786e-01
*ELEMENT, TYPE=SPRINGA, ELSET=WK_10
    5915,     4543,     6576
*SPRING, ELSET=WK_10

3.915786e-01
*ELEMENT, TYPE=SPRINGA, ELSET=WK_11
    5916,     4547,     6577
*SPRING, ELSET=WK_11

3.915786e-01
*ELEMENT, TYPE=SPRINGA, ELSET=WK_12
    5917,     4551,     6578
*SPRING, ELSET=WK_12

3.915786e-01
*ELEMENT, TYPE=SPRINGA, ELSET=WK_13
    5918,     4555,     6579
*SPRING, ELSET=WK_13

3.915786e-01
*ELEMENT, TYPE=SPRINGA, ELSET=WK_14
    5919,     4559,     6580
*SPRING, ELSET=WK_14

3.915786e-01
*ELEMENT, TYPE=SPRINGA, ELSET=WK_15
    5920,     4563,     6581
*SPRING, ELSET=WK_15

3.915786e-01
*ELEMENT, TYPE=SPRINGA, ELSET=WK_16
    5921,     4567,     6582
*SPRING, ELSET=WK_16

3.915786e-01
*ELEMENT, TYPE=SPRINGA, ELSET=WK_17
    5922,     4571,     6583
*SPRING, ELSET=WK_17

3.915786e-01
*ELEMENT, TYPE=SPRINGA, ELSET=WK_18
    5923,     4575,     6584
*SPRING, ELSET=WK_18

3.915786e-01
*ELEMENT, TYPE=SPRINGA, ELSET=WK_19
    5924,     4579,     6585
*SPRING, ELSET=WK_19

3.915786e-01
*ELEMENT, TYPE=SPRINGA, ELSET=WK_20
    5925,     4583,     6586
*SPRING, ELSET=WK_20

3.915786e-01
*ELEMENT, TYPE=SPRINGA, ELSET=WK_21
    5926,     4587,     6587
*SPRING, ELSET=WK_21

3.915786e-01
*ELEMENT, TYPE=SPRINGA, ELSET=WK_22
    5927,     4591,     6588
*SPRING, ELSET=WK_22

3.915786e-01
*ELEMENT, TYPE=SPRINGA, ELSET=WK_23
    5928,     4595,     6589
*SPRING, ELSET=WK_23

3.915786e-01
*ELEMENT, TYPE=SPRINGA, ELSET=WK_24
    5929,     4599,     6590
*SPRING, ELSET=WK_24

3.915786e-01
*ELEMENT, TYPE=SPRINGA, ELSET=WK_25
    5930,     4603,     6591
*SPRING, ELSET=WK_25

3.915786e-01
*ELEMENT, TYPE=SPRINGA, ELSET=WK_26
    5931,     4607,     6592
*SPRING, ELSET=WK_26

3.915786e-01
*ELEMENT, TYPE=SPRINGA, ELSET=WK_27
    5932,     4611,     6593
*SPRING, ELSET=WK_27

3.915786e-01
*ELEMENT, TYPE=SPRINGA, ELSET=WK_28
    5933,     4615,     6594
*SPRING, ELSET=WK_28

3.915786e-01
*ELEMENT, TYPE=SPRINGA, ELSET=WK_29
    5934,     4619,     6595
*SPRING, ELSET=WK_29

3.915786e-01
*ELEMENT, TYPE=SPRINGA, ELSET=WK_30
    5935,     4623,     6596
*SPRING, ELSET=WK_30

3.915786e-01
*ELEMENT, TYPE=SPRINGA, ELSET=WK_31
    5936,     4627,     6597
*SPRING, ELSET=WK_31

3.915786e-01
*ELEMENT, TYPE=SPRINGA, ELSET=WK_32
    5937,     4631,     6598
*SPRING, ELSET=WK_32

3.915786e-01
*ELEMENT, TYPE=SPRINGA, ELSET=WK_33
    5938,     4635,     6599
*SPRING, ELSET=WK_33

3.915786e-01
*ELEMENT, TYPE=SPRINGA, ELSET=WK_34
    5939,     4639,     6600
*SPRING, ELSET=WK_34

3.915786e-01
*ELEMENT, TYPE=SPRINGA, ELSET=WK_35
    5940,     4643,     6601
*SPRING, ELSET=WK_35

3.915786e-01
*ELEMENT, TYPE=SPRINGA, ELSET=WK_36
    5941,     4647,     6602
*SPRING, ELSET=WK_36

3.915786e-01
*ELEMENT, TYPE=SPRINGA, ELSET=WK_37
    5942,     4651,     6603
*SPRING, ELSET=WK_37

3.915786e-01
*ELEMENT, TYPE=SPRINGA, ELSET=WK_38
    5943,     4655,     6604
*SPRING, ELSET=WK_38

3.915786e-01
*ELEMENT, TYPE=SPRINGA, ELSET=WK_39
    5944,     4659,     6605
*SPRING, ELSET=WK_39

3.915786e-01
*ELEMENT, TYPE=SPRINGA, ELSET=WK_40
    5945,     4663,     6606
*SPRING, ELSET=WK_40

3.915786e-01
*ELEMENT, TYPE=SPRINGA, ELSET=WK_41
    5946,     4667,     6607
*SPRING, ELSET=WK_41

3.915786e-01
*ELEMENT, TYPE=SPRINGA, ELSET=WK_42
    5947,     4671,     6608
*SPRING, ELSET=WK_42

3.915786e-01
*ELEMENT, TYPE=SPRINGA, ELSET=WK_43
    5948,     4675,     6609
*SPRING, ELSET=WK_43

3.915786e-01
*ELEMENT, TYPE=SPRINGA, ELSET=WK_44
    5949,     4679,     6610
*SPRING, ELSET=WK_44

3.915786e-01
*ELEMENT, TYPE=SPRINGA, ELSET=WK_45
    5950,     4683,     6611
*SPRING, ELSET=WK_45

3.915786e-01
*ELEMENT, TYPE=SPRINGA, ELSET=WK_46
    5951,     4687,     6612
*SPRING, ELSET=WK_46

3.915786e-01
*ELEMENT, TYPE=SPRINGA, ELSET=WK_47
    5952,     4691,     6613
*SPRING, ELSET=WK_47

3.915786e-01
*ELEMENT, TYPE=SPRINGA, ELSET=WK_48
    5953,     4695,     6614
*SPRING, ELSET=WK_48

3.915786e-01
*ELEMENT, TYPE=SPRINGA, ELSET=WK_49
    5954,     4699,     6615
*SPRING, ELSET=WK_49

3.915786e-01
*ELEMENT, TYPE=SPRINGA, ELSET=WK_50
    5955,     4703,     6616
*SPRING, ELSET=WK_50

3.915786e-01
*ELEMENT, TYPE=SPRINGA, ELSET=WK_51
    5956,     4707,     6617
*SPRING, ELSET=WK_51

3.915786e-01
*ELEMENT, TYPE=SPRINGA, ELSET=WK_52
    5957,     4711,     6618
*SPRING, ELSET=WK_52

3.915786e-01
*ELEMENT, TYPE=SPRINGA, ELSET=WK_53
    5958,     4715,     6619
*SPRING, ELSET=WK_53

3.915786e-01
*ELEMENT, TYPE=SPRINGA, ELSET=WK_54
    5959,     4719,     6620
*SPRING, ELSET=WK_54

3.915786e-01
*ELEMENT, TYPE=SPRINGA, ELSET=WK_55
    5960,     4723,     6621
*SPRING, ELSET=WK_55

3.915786e-01
*ELEMENT, TYPE=SPRINGA, ELSET=WK_56
    5961,     4727,     6622
*SPRING, ELSET=WK_56

3.915786e-01
*ELEMENT, TYPE=SPRINGA, ELSET=WK_57
    5962,     4731,     6623
*SPRING, ELSET=WK_57

3.915786e-01
*ELEMENT, TYPE=SPRINGA, ELSET=WK_58
    5963,     4735,     6624
*SPRING, ELSET=WK_58

3.915786e-01
*ELEMENT, TYPE=SPRINGA, ELSET=WK_59
    5964,     4739,     6625
*SPRING, ELSET=WK_59

3.915786e-01
*ELEMENT, TYPE=SPRINGA, ELSET=WK_60
    5965,     4743,     6626
*SPRING, ELSET=WK_60

3.915786e-01
*ELEMENT, TYPE=SPRINGA, ELSET=WK_61
    5966,     4747,     6627
*SPRING, ELSET=WK_61

3.915786e-01
*ELEMENT, TYPE=SPRINGA, ELSET=WK_62
    5967,     4751,     6628
*SPRING, ELSET=WK_62

3.915786e-01
*ELEMENT, TYPE=SPRINGA, ELSET=WK_63
    5968,     4755,     6629
*SPRING, ELSET=WK_63

3.915786e-01
*ELEMENT, TYPE=SPRINGA, ELSET=WK_64
    5969,     4759,     6630
*SPRING, ELSET=WK_64

3.915786e-01
*ELEMENT, TYPE=SPRINGA, ELSET=WK_65
    5970,     4763,     6631
*SPRING, ELSET=WK_65

3.915786e-01
*ELEMENT, TYPE=SPRINGA, ELSET=WK_66
    5971,     4767,     6632
*SPRING, ELSET=WK_66

3.915786e-01
*ELEMENT, TYPE=SPRINGA, ELSET=WK_67
    5972,     4771,     6633
*SPRING, ELSET=WK_67

3.915786e-01
*ELEMENT, TYPE=SPRINGA, ELSET=WK_68
    5973,     4775,     6634
*SPRING, ELSET=WK_68

3.915786e-01
*ELEMENT, TYPE=SPRINGA, ELSET=WK_69
    5974,     4779,     6635
*SPRING, ELSET=WK_69

3.915786e-01
*ELEMENT, TYPE=SPRINGA, ELSET=WK_70
    5975,     4783,     6636
*SPRING, ELSET=WK_70

1.957893e-01
*ELEMENT, TYPE=SPRINGA, ELSET=WK_71
    5976,     4787,     6637
*SPRING, ELSET=WK_71

1.957893e-01
*ELEMENT, TYPE=SPRINGA, ELSET=WK_72
    5977,     4791,     6638
*SPRING, ELSET=WK_72

1.957893e-01
*ELEMENT, TYPE=SPRINGA, ELSET=WK_73
    5978,     4795,     6639
*SPRING, ELSET=WK_73

1.957893e-01
*ELEMENT, TYPE=SPRINGA, ELSET=WK_74
    5979,     4799,     6640
*SPRING, ELSET=WK_74

1.957893e-01
*ELEMENT, TYPE=SPRINGA, ELSET=WK_75
    5980,     4803,     6641
*SPRING, ELSET=WK_75

1.957893e-01
*ELEMENT, TYPE=SPRINGA, ELSET=WK_76
    5981,     4807,     6642
*SPRING, ELSET=WK_76

1.957893e-01
*ELEMENT, TYPE=SPRINGA, ELSET=WK_77
    5982,     4811,     6643
*SPRING, ELSET=WK_77

1.957893e-01
*ELEMENT, TYPE=SPRINGA, ELSET=WK_78
    5983,     4815,     6644
*SPRING, ELSET=WK_78

1.957893e-01
*ELEMENT, TYPE=SPRINGA, ELSET=WK_79
    5984,     4819,     6645
*SPRING, ELSET=WK_79

1.957893e-01
*ELEMENT, TYPE=SPRINGA, ELSET=WK_80
    5985,     4823,     6646
*SPRING, ELSET=WK_80

1.957893e-01
*ELEMENT, TYPE=SPRINGA, ELSET=WK_81
    5986,     4827,     6647
*SPRING, ELSET=WK_81

1.957893e-01
*ELEMENT, TYPE=SPRINGA, ELSET=WK_82
    5987,     4831,     6648
*SPRING, ELSET=WK_82

1.957893e-01
*ELEMENT, TYPE=SPRINGA, ELSET=WK_83
    5988,     4835,     6649
*SPRING, ELSET=WK_83

3.915786e-01
*ELEMENT, TYPE=SPRINGA, ELSET=WK_84
    5989,     4839,     6650
*SPRING, ELSET=WK_84

3.915786e-01
*ELEMENT, TYPE=SPRINGA, ELSET=WK_85
    5990,     4843,     6651
*SPRING, ELSET=WK_85

3.915786e-01
*ELEMENT, TYPE=SPRINGA, ELSET=WK_86
    5991,     4847,     6652
*SPRING, ELSET=WK_86

3.915786e-01
*ELEMENT, TYPE=SPRINGA, ELSET=WK_87
    5992,     4851,     6653
*SPRING, ELSET=WK_87

3.915786e-01
*ELEMENT, TYPE=SPRINGA, ELSET=WK_88
    5993,     4855,     6654
*SPRING, ELSET=WK_88

3.915786e-01
*ELEMENT, TYPE=SPRINGA, ELSET=WK_89
    5994,     4859,     6655
*SPRING, ELSET=WK_89

3.915786e-01
*ELEMENT, TYPE=SPRINGA, ELSET=WK_90
    5995,     4863,     6656
*SPRING, ELSET=WK_90

3.915786e-01
*ELEMENT, TYPE=SPRINGA, ELSET=WK_91
    5996,     4867,     6657
*SPRING, ELSET=WK_91

3.915786e-01
*ELEMENT, TYPE=SPRINGA, ELSET=WK_92
    5997,     4871,     6658
*SPRING, ELSET=WK_92

3.915786e-01
*ELEMENT, TYPE=SPRINGA, ELSET=WK_93
    5998,     4875,     6659
*SPRING, ELSET=WK_93

3.915786e-01
*ELEMENT, TYPE=SPRINGA, ELSET=WK_94
    5999,     4879,     6660
*SPRING, ELSET=WK_94

3.915786e-01
*ELEMENT, TYPE=SPRINGA, ELSET=WK_95
    6000,     4883,     6661
*SPRING, ELSET=WK_95

3.915786e-01
*ELEMENT, TYPE=SPRINGA, ELSET=WK_96
    6001,     4887,     6662
*SPRING, ELSET=WK_96

3.915786e-01
*ELEMENT, TYPE=SPRINGA, ELSET=WK_97
    6002,     4891,     6663
*SPRING, ELSET=WK_97

3.915786e-01
*ELEMENT, TYPE=SPRINGA, ELSET=WK_98
    6003,     4895,     6664
*SPRING, ELSET=WK_98

3.915786e-01
*ELEMENT, TYPE=SPRINGA, ELSET=WK_99
    6004,     4899,     6665
*SPRING, ELSET=WK_99

3.915786e-01
*ELEMENT, TYPE=SPRINGA, ELSET=WK_100
    6005,     4903,     6666
*SPRING, ELSET=WK_100

3.915786e-01
*ELEMENT, TYPE=SPRINGA, ELSET=WK_101
    6006,     4907,     6667
*SPRING, ELSET=WK_101

3.915786e-01
*ELEMENT, TYPE=SPRINGA, ELSET=WK_102
    6007,     4911,     6668
*SPRING, ELSET=WK_102

3.915786e-01
*ELEMENT, TYPE=SPRINGA, ELSET=WK_103
    6008,     4915,     6669
*SPRING, ELSET=WK_103

3.915786e-01
*ELEMENT, TYPE=SPRINGA, ELSET=WK_104
    6009,     4919,     6670
*SPRING, ELSET=WK_104

3.915786e-01
*ELEMENT, TYPE=SPRINGA, ELSET=WK_105
    6010,     4923,     6671
*SPRING, ELSET=WK_105

3.915786e-01
*ELEMENT, TYPE=SPRINGA, ELSET=WK_106
    6011,     4927,     6672
*SPRING, ELSET=WK_106

3.915786e-01
*ELEMENT, TYPE=SPRINGA, ELSET=WK_107
    6012,     4931,     6673
*SPRING, ELSET=WK_107

3.915786e-01
*ELEMENT, TYPE=SPRINGA, ELSET=WK_108
    6013,     4935,     6674
*SPRING, ELSET=WK_108

3.915786e-01
*ELEMENT, TYPE=SPRINGA, ELSET=WK_109
    6014,     4939,     6675
*SPRING, ELSET=WK_109

3.915786e-01
*ELEMENT, TYPE=SPRINGA, ELSET=WK_110
    6015,     4943,     6676
*SPRING, ELSET=WK_110

3.915786e-01
*ELEMENT, TYPE=SPRINGA, ELSET=WK_111
    6016,     4947,     6677
*SPRING, ELSET=WK_111

3.915786e-01
*ELEMENT, TYPE=SPRINGA, ELSET=WK_112
    6017,     4951,     6678
*SPRING, ELSET=WK_112

3.915786e-01
*ELEMENT, TYPE=SPRINGA, ELSET=WK_113
    6018,     4955,     6679
*SPRING, ELSET=WK_113

3.915786e-01
*ELEMENT, TYPE=SPRINGA, ELSET=WK_114
    6019,     4959,     6680
*SPRING, ELSET=WK_114

3.915786e-01
*ELEMENT, TYPE=SPRINGA, ELSET=WK_115
    6020,     4963,     6681
*SPRING, ELSET=WK_115

3.915786e-01
*ELEMENT, TYPE=SPRINGA, ELSET=WK_116
    6021,     4967,     6682
*SPRING, ELSET=WK_116

3.915786e-01
*ELEMENT, TYPE=SPRINGA, ELSET=WK_117
    6022,     4971,     6683
*SPRING, ELSET=WK_117

3.915786e-01
*ELEMENT, TYPE=SPRINGA, ELSET=WK_118
    6023,     4975,     6684
*SPRING, ELSET=WK_118

3.915786e-01
*ELEMENT, TYPE=SPRINGA, ELSET=WK_119
    6024,     4979,     6685
*SPRING, ELSET=WK_119

3.915786e-01
*ELEMENT, TYPE=SPRINGA, ELSET=WK_120
    6025,     4983,     6686
*SPRING, ELSET=WK_120

3.915786e-01
*ELEMENT, TYPE=SPRINGA, ELSET=WK_121
    6026,     4987,     6687
*SPRING, ELSET=WK_121

3.915786e-01
*ELEMENT, TYPE=SPRINGA, ELSET=WK_122
    6027,     4991,     6688
*SPRING, ELSET=WK_122

3.915786e-01
*ELEMENT, TYPE=SPRINGA, ELSET=WK_123
    6028,     4995,     6689
*SPRING, ELSET=WK_123

3.915786e-01
*ELEMENT, TYPE=SPRINGA, ELSET=WK_124
    6029,     4999,     6690
*SPRING, ELSET=WK_124

3.915786e-01
*ELEMENT, TYPE=SPRINGA, ELSET=WK_125
    6030,     5003,     6691
*SPRING, ELSET=WK_125

3.915786e-01
*ELEMENT, TYPE=SPRINGA, ELSET=WK_126
    6031,     5007,     6692
*SPRING, ELSET=WK_126

3.915786e-01
*ELEMENT, TYPE=SPRINGA, ELSET=WK_127
    6032,     5011,     6693
*SPRING, ELSET=WK_127

3.915786e-01
*ELEMENT, TYPE=SPRINGA, ELSET=WK_128
    6033,     5015,     6694
*SPRING, ELSET=WK_128

3.915786e-01
*ELEMENT, TYPE=SPRINGA, ELSET=WK_129
    6034,     5019,     6695
*SPRING, ELSET=WK_129

3.915786e-01
*ELEMENT, TYPE=SPRINGA, ELSET=WK_130
    6035,     5023,     6696
*SPRING, ELSET=WK_130

3.915786e-01
*ELEMENT, TYPE=SPRINGA, ELSET=WK_131
    6036,     5027,     6697
*SPRING, ELSET=WK_131

3.915786e-01
*ELEMENT, TYPE=SPRINGA, ELSET=WK_132
    6037,     5031,     6698
*SPRING, ELSET=WK_132

3.915786e-01
*ELEMENT, TYPE=SPRINGA, ELSET=WK_133
    6038,     5035,     6699
*SPRING, ELSET=WK_133

3.915786e-01
*ELEMENT, TYPE=SPRINGA, ELSET=WK_134
    6039,     5039,     6700
*SPRING, ELSET=WK_134

3.915786e-01
*ELEMENT, TYPE=SPRINGA, ELSET=WK_135
    6040,     5043,     6701
*SPRING, ELSET=WK_135

3.915786e-01
*ELEMENT, TYPE=SPRINGA, ELSET=WK_136
    6041,     5047,     6702
*SPRING, ELSET=WK_136

3.915786e-01
*ELEMENT, TYPE=SPRINGA, ELSET=WK_137
    6042,     5051,     6703
*SPRING, ELSET=WK_137

1.957893e-01
*ELEMENT, TYPE=SPRINGA, ELSET=WK_138
    6043,     5055,     6704
*SPRING, ELSET=WK_138

1.957893e-01
*ELEMENT, TYPE=SPRINGA, ELSET=WK_139
    6044,     5059,     6705
*SPRING, ELSET=WK_139

1.957893e-01
*ELEMENT, TYPE=SPRINGA, ELSET=WK_140
    6045,     5063,     6706
*SPRING, ELSET=WK_140

1.957893e-01
*ELEMENT, TYPE=SPRINGA, ELSET=WK_141
    6046,     5067,     6707
*SPRING, ELSET=WK_141

1.957893e-01
*ELEMENT, TYPE=SPRINGA, ELSET=WK_142
    6047,     5071,     6708
*SPRING, ELSET=WK_142

1.957893e-01
*ELEMENT, TYPE=SPRINGA, ELSET=WK_143
    6048,     5075,     6709
*SPRING, ELSET=WK_143

1.957893e-01
*ELEMENT, TYPE=SPRINGA, ELSET=WK_144
    6049,     5079,     6710
*SPRING, ELSET=WK_144

1.957893e-01
*ELEMENT, TYPE=SPRINGA, ELSET=WK_145
    6050,     5083,     6711
*SPRING, ELSET=WK_145

1.957893e-01
*ELEMENT, TYPE=SPRINGA, ELSET=WK_146
    6051,     5087,     6712
*SPRING, ELSET=WK_146

1.957893e-01
*ELEMENT, TYPE=SPRINGA, ELSET=WK_147
    6052,     5091,     6713
*SPRING, ELSET=WK_147

1.957893e-01
*ELEMENT, TYPE=SPRINGA, ELSET=WK_148
    6053,     5095,     6714
*SPRING, ELSET=WK_148

1.957893e-01
*ELEMENT, TYPE=SPRINGA, ELSET=WK_149
    6054,     5099,     6715
*SPRING, ELSET=WK_149

3.915786e-01
*ELEMENT, TYPE=SPRINGA, ELSET=WK_150
    6055,     5103,     6716
*SPRING, ELSET=WK_150

3.915786e-01
*ELEMENT, TYPE=SPRINGA, ELSET=WK_151
    6056,     5107,     6717
*SPRING, ELSET=WK_151

3.915786e-01
*ELEMENT, TYPE=SPRINGA, ELSET=WK_152
    6057,     5111,     6718
*SPRING, ELSET=WK_152

3.915786e-01
*ELEMENT, TYPE=SPRINGA, ELSET=WK_153
    6058,     5115,     6719
*SPRING, ELSET=WK_153

3.915786e-01
*ELEMENT, TYPE=SPRINGA, ELSET=WK_154
    6059,     5119,     6720
*SPRING, ELSET=WK_154

3.915786e-01
*ELEMENT, TYPE=SPRINGA, ELSET=WK_155
    6060,     5123,     6721
*SPRING, ELSET=WK_155

3.915786e-01
*ELEMENT, TYPE=SPRINGA, ELSET=WK_156
    6061,     5127,     6722
*SPRING, ELSET=WK_156

3.915786e-01
*ELEMENT, TYPE=SPRINGA, ELSET=WK_157
    6062,     5131,     6723
*SPRING, ELSET=WK_157

3.915786e-01
*ELEMENT, TYPE=SPRINGA, ELSET=WK_158
    6063,     5135,     6724
*SPRING, ELSET=WK_158

3.915786e-01
*ELEMENT, TYPE=SPRINGA, ELSET=WK_159
    6064,     5139,     6725
*SPRING, ELSET=WK_159

3.915786e-01
*ELEMENT, TYPE=SPRINGA, ELSET=WK_160
    6065,     5143,     6726
*SPRING, ELSET=WK_160

3.915786e-01
*ELEMENT, TYPE=SPRINGA, ELSET=WK_161
    6066,     5147,     6727
*SPRING, ELSET=WK_161

3.915786e-01
*ELEMENT, TYPE=SPRINGA, ELSET=WK_162
    6067,     5151,     6728
*SPRING, ELSET=WK_162

3.915786e-01
*ELEMENT, TYPE=SPRINGA, ELSET=WK_163
    6068,     5155,     6729
*SPRING, ELSET=WK_163

3.915786e-01
*ELEMENT, TYPE=SPRINGA, ELSET=WK_164
    6069,     5159,     6730
*SPRING, ELSET=WK_164

3.915786e-01
*ELEMENT, TYPE=SPRINGA, ELSET=WK_165
    6070,     5163,     6731
*SPRING, ELSET=WK_165

3.915786e-01
*ELEMENT, TYPE=SPRINGA, ELSET=WK_166
    6071,     5167,     6732
*SPRING, ELSET=WK_166

3.915786e-01
*ELEMENT, TYPE=SPRINGA, ELSET=WK_167
    6072,     5171,     6733
*SPRING, ELSET=WK_167

3.915786e-01
*ELEMENT, TYPE=SPRINGA, ELSET=WK_168
    6073,     5175,     6734
*SPRING, ELSET=WK_168

3.915786e-01
*ELEMENT, TYPE=SPRINGA, ELSET=WK_169
    6074,     5179,     6735
*SPRING, ELSET=WK_169

3.915786e-01
*ELEMENT, TYPE=SPRINGA, ELSET=WK_170
    6075,     5183,     6736
*SPRING, ELSET=WK_170

3.915786e-01
*ELEMENT, TYPE=SPRINGA, ELSET=WK_171
    6076,     5187,     6737
*SPRING, ELSET=WK_171

3.915786e-01
*ELEMENT, TYPE=SPRINGA, ELSET=WK_172
    6077,     5191,     6738
*SPRING, ELSET=WK_172

3.915786e-01
*ELEMENT, TYPE=SPRINGA, ELSET=WK_173
    6078,     5195,     6739
*SPRING, ELSET=WK_173

3.915786e-01
*ELEMENT, TYPE=SPRINGA, ELSET=WK_174
    6079,     5199,     6740
*SPRING, ELSET=WK_174

3.915786e-01
*ELEMENT, TYPE=SPRINGA, ELSET=WK_175
    6080,     5203,     6741
*SPRING, ELSET=WK_175

3.915786e-01
*ELEMENT, TYPE=SPRINGA, ELSET=WK_176
    6081,     5207,     6742
*SPRING, ELSET=WK_176

3.915786e-01
*ELEMENT, TYPE=SPRINGA, ELSET=WK_177
    6082,     5211,     6743
*SPRING, ELSET=WK_177

3.915786e-01
*ELEMENT, TYPE=SPRINGA, ELSET=WK_178
    6083,     5215,     6744
*SPRING, ELSET=WK_178

3.915786e-01
*ELEMENT, TYPE=SPRINGA, ELSET=WK_179
    6084,     5219,     6745
*SPRING, ELSET=WK_179

3.915786e-01
*ELEMENT, TYPE=SPRINGA, ELSET=WK_180
    6085,     5223,     6746
*SPRING, ELSET=WK_180

3.915786e-01
*ELEMENT, TYPE=SPRINGA, ELSET=WK_181
    6086,     5227,     6747
*SPRING, ELSET=WK_181

3.915786e-01
*ELEMENT, TYPE=SPRINGA, ELSET=WK_182
    6087,     5231,     6748
*SPRING, ELSET=WK_182

3.915786e-01
*ELEMENT, TYPE=SPRINGA, ELSET=WK_183
    6088,     5235,     6749
*SPRING, ELSET=WK_183

3.915786e-01
*ELEMENT, TYPE=SPRINGA, ELSET=WK_184
    6089,     5239,     6750
*SPRING, ELSET=WK_184

3.915786e-01
*ELEMENT, TYPE=SPRINGA, ELSET=WK_185
    6090,     5243,     6751
*SPRING, ELSET=WK_185

3.915786e-01
*ELEMENT, TYPE=SPRINGA, ELSET=WK_186
    6091,     5247,     6752
*SPRING, ELSET=WK_186

3.915786e-01
*ELEMENT, TYPE=SPRINGA, ELSET=WK_187
    6092,     5251,     6753
*SPRING, ELSET=WK_187

3.915786e-01
*ELEMENT, TYPE=SPRINGA, ELSET=WK_188
    6093,     5255,     6754
*SPRING, ELSET=WK_188

3.915786e-01
*ELEMENT, TYPE=SPRINGA, ELSET=WK_189
    6094,     5259,     6755
*SPRING, ELSET=WK_189

3.915786e-01
*ELEMENT, TYPE=SPRINGA, ELSET=WK_190
    6095,     5263,     6756
*SPRING, ELSET=WK_190

3.915786e-01
*ELEMENT, TYPE=SPRINGA, ELSET=WK_191
    6096,     5267,     6757
*SPRING, ELSET=WK_191

3.915786e-01
*ELEMENT, TYPE=SPRINGA, ELSET=WK_192
    6097,     5271,     6758
*SPRING, ELSET=WK_192

3.915786e-01
*ELEMENT, TYPE=SPRINGA, ELSET=WK_193
    6098,     5275,     6759
*SPRING, ELSET=WK_193

3.915786e-01
*ELEMENT, TYPE=SPRINGA, ELSET=WK_194
    6099,     5279,     6760
*SPRING, ELSET=WK_194

3.915786e-01
*ELEMENT, TYPE=SPRINGA, ELSET=WK_195
    6100,     5283,     6761
*SPRING, ELSET=WK_195

3.915786e-01
*ELEMENT, TYPE=SPRINGA, ELSET=WK_196
    6101,     5287,     6762
*SPRING, ELSET=WK_196

3.915786e-01
*ELEMENT, TYPE=SPRINGA, ELSET=WK_197
    6102,     5291,     6763
*SPRING, ELSET=WK_197

3.915786e-01
*ELEMENT, TYPE=SPRINGA, ELSET=WK_198
    6103,     5295,     6764
*SPRING, ELSET=WK_198

3.915786e-01
*ELEMENT, TYPE=SPRINGA, ELSET=WK_199
    6104,     5299,     6765
*SPRING, ELSET=WK_199

3.915786e-01
*ELEMENT, TYPE=SPRINGA, ELSET=WK_200
    6105,     5303,     6766
*SPRING, ELSET=WK_200

3.915786e-01
*ELEMENT, TYPE=SPRINGA, ELSET=WK_201
    6106,     5307,     6767
*SPRING, ELSET=WK_201

3.915786e-01
*ELEMENT, TYPE=SPRINGA, ELSET=WK_202
    6107,     5311,     6768
*SPRING, ELSET=WK_202

3.915786e-01
*ELEMENT, TYPE=SPRINGA, ELSET=WK_203
    6108,     5315,     6769
*SPRING, ELSET=WK_203

1.957893e-01
*ELEMENT, TYPE=SPRINGA, ELSET=WK_204
    6109,     5319,     6770
*SPRING, ELSET=WK_204

1.957893e-01
*ELEMENT, TYPE=SPRINGA, ELSET=WK_205
    6110,     5323,     6771
*SPRING, ELSET=WK_205

1.957893e-01
*ELEMENT, TYPE=SPRINGA, ELSET=WK_206
    6111,     5327,     6772
*SPRING, ELSET=WK_206

1.957893e-01
*ELEMENT, TYPE=SPRINGA, ELSET=WK_207
    6112,     5331,     6773
*SPRING, ELSET=WK_207

1.957893e-01
*ELEMENT, TYPE=SPRINGA, ELSET=WK_208
    6113,     5335,     6774
*SPRING, ELSET=WK_208

1.957893e-01
*ELEMENT, TYPE=SPRINGA, ELSET=WK_209
    6114,     5339,     6775
*SPRING, ELSET=WK_209

1.957893e-01
*ELEMENT, TYPE=SPRINGA, ELSET=WK_210
    6115,     5343,     6776
*SPRING, ELSET=WK_210

1.957893e-01
*ELEMENT, TYPE=SPRINGA, ELSET=WK_211
    6116,     5347,     6777
*SPRING, ELSET=WK_211

1.957893e-01
*ELEMENT, TYPE=SPRINGA, ELSET=WK_212
    6117,     5351,     6778
*SPRING, ELSET=WK_212

1.957893e-01
*ELEMENT, TYPE=SPRINGA, ELSET=WK_213
    6118,     5355,     6779
*SPRING, ELSET=WK_213

1.957893e-01
*ELEMENT, TYPE=SPRINGA, ELSET=WK_214
    6119,     5359,     6780
*SPRING, ELSET=WK_214

3.915786e-01
*ELEMENT, TYPE=SPRINGA, ELSET=WK_215
    6120,     5363,     6781
*SPRING, ELSET=WK_215

3.915786e-01
*ELEMENT, TYPE=SPRINGA, ELSET=WK_216
    6121,     5367,     6782
*SPRING, ELSET=WK_216

3.915786e-01
*ELEMENT, TYPE=SPRINGA, ELSET=WK_217
    6122,     5371,     6783
*SPRING, ELSET=WK_217

3.915786e-01
*ELEMENT, TYPE=SPRINGA, ELSET=WK_218
    6123,     5375,     6784
*SPRING, ELSET=WK_218

3.915786e-01
*ELEMENT, TYPE=SPRINGA, ELSET=WK_219
    6124,     5379,     6785
*SPRING, ELSET=WK_219

3.915786e-01
*ELEMENT, TYPE=SPRINGA, ELSET=WK_220
    6125,     5383,     6786
*SPRING, ELSET=WK_220

3.915786e-01
*ELEMENT, TYPE=SPRINGA, ELSET=WK_221
    6126,     5387,     6787
*SPRING, ELSET=WK_221

3.915786e-01
*ELEMENT, TYPE=SPRINGA, ELSET=WK_222
    6127,     5391,     6788
*SPRING, ELSET=WK_222

3.915786e-01
*ELEMENT, TYPE=SPRINGA, ELSET=WK_223
    6128,     5395,     6789
*SPRING, ELSET=WK_223

3.915786e-01
*ELEMENT, TYPE=SPRINGA, ELSET=WK_224
    6129,     5399,     6790
*SPRING, ELSET=WK_224

3.915786e-01
*ELEMENT, TYPE=SPRINGA, ELSET=WK_225
    6130,     5403,     6791
*SPRING, ELSET=WK_225

3.915786e-01
*ELEMENT, TYPE=SPRINGA, ELSET=WK_226
    6131,     5407,     6792
*SPRING, ELSET=WK_226

3.915786e-01
*ELEMENT, TYPE=SPRINGA, ELSET=WK_227
    6132,     5411,     6793
*SPRING, ELSET=WK_227

3.915786e-01
*ELEMENT, TYPE=SPRINGA, ELSET=WK_228
    6133,     5415,     6794
*SPRING, ELSET=WK_228

3.915786e-01
*ELEMENT, TYPE=SPRINGA, ELSET=WK_229
    6134,     5419,     6795
*SPRING, ELSET=WK_229

3.915786e-01
*ELEMENT, TYPE=SPRINGA, ELSET=WK_230
    6135,     5423,     6796
*SPRING, ELSET=WK_230

3.915786e-01
*ELEMENT, TYPE=SPRINGA, ELSET=WK_231
    6136,     5427,     6797
*SPRING, ELSET=WK_231

3.915786e-01
*ELEMENT, TYPE=SPRINGA, ELSET=WK_232
    6137,     5431,     6798
*SPRING, ELSET=WK_232

3.915786e-01
*ELEMENT, TYPE=SPRINGA, ELSET=WK_233
    6138,     5435,     6799
*SPRING, ELSET=WK_233

3.915786e-01
*ELEMENT, TYPE=SPRINGA, ELSET=WK_234
    6139,     5439,     6800
*SPRING, ELSET=WK_234

3.915786e-01
*ELEMENT, TYPE=SPRINGA, ELSET=WK_235
    6140,     5443,     6801
*SPRING, ELSET=WK_235

3.915786e-01
*ELEMENT, TYPE=SPRINGA, ELSET=WK_236
    6141,     5447,     6802
*SPRING, ELSET=WK_236

3.915786e-01
*ELEMENT, TYPE=SPRINGA, ELSET=WK_237
    6142,     5451,     6803
*SPRING, ELSET=WK_237

3.915786e-01
*ELEMENT, TYPE=SPRINGA, ELSET=WK_238
    6143,     5455,     6804
*SPRING, ELSET=WK_238

3.915786e-01
*ELEMENT, TYPE=SPRINGA, ELSET=WK_239
    6144,     5459,     6805
*SPRING, ELSET=WK_239

3.915786e-01
*ELEMENT, TYPE=SPRINGA, ELSET=WK_240
    6145,     5463,     6806
*SPRING, ELSET=WK_240

3.915786e-01
*ELEMENT, TYPE=SPRINGA, ELSET=WK_241
    6146,     5467,     6807
*SPRING, ELSET=WK_241

3.915786e-01
*ELEMENT, TYPE=SPRINGA, ELSET=WK_242
    6147,     5471,     6808
*SPRING, ELSET=WK_242

3.915786e-01
*ELEMENT, TYPE=SPRINGA, ELSET=WK_243
    6148,     5475,     6809
*SPRING, ELSET=WK_243

3.915786e-01
*ELEMENT, TYPE=SPRINGA, ELSET=WK_244
    6149,     5479,     6810
*SPRING, ELSET=WK_244

3.915786e-01
*ELEMENT, TYPE=SPRINGA, ELSET=WK_245
    6150,     5483,     6811
*SPRING, ELSET=WK_245

3.915786e-01
*ELEMENT, TYPE=SPRINGA, ELSET=WK_246
    6151,     5487,     6812
*SPRING, ELSET=WK_246

3.915786e-01
*ELEMENT, TYPE=SPRINGA, ELSET=WK_247
    6152,     5491,     6813
*SPRING, ELSET=WK_247

3.915786e-01
*ELEMENT, TYPE=SPRINGA, ELSET=WK_248
    6153,     5495,     6814
*SPRING, ELSET=WK_248

3.915786e-01
*ELEMENT, TYPE=SPRINGA, ELSET=WK_249
    6154,     5499,     6815
*SPRING, ELSET=WK_249

3.915786e-01
*ELEMENT, TYPE=SPRINGA, ELSET=WK_250
    6155,     5503,     6816
*SPRING, ELSET=WK_250

3.915786e-01
*ELEMENT, TYPE=SPRINGA, ELSET=WK_251
    6156,     5507,     6817
*SPRING, ELSET=WK_251

3.915786e-01
*ELEMENT, TYPE=SPRINGA, ELSET=WK_252
    6157,     5511,     6818
*SPRING, ELSET=WK_252

3.915786e-01
*ELEMENT, TYPE=SPRINGA, ELSET=WK_253
    6158,     5515,     6819
*SPRING, ELSET=WK_253

3.915786e-01
*ELEMENT, TYPE=SPRINGA, ELSET=WK_254
    6159,     5519,     6820
*SPRING, ELSET=WK_254

3.915786e-01
*ELEMENT, TYPE=SPRINGA, ELSET=WK_255
    6160,     5523,     6821
*SPRING, ELSET=WK_255

3.915786e-01
*ELEMENT, TYPE=SPRINGA, ELSET=WK_256
    6161,     5527,     6822
*SPRING, ELSET=WK_256

3.915786e-01
*ELEMENT, TYPE=SPRINGA, ELSET=WK_257
    6162,     5531,     6823
*SPRING, ELSET=WK_257

3.915786e-01
*ELEMENT, TYPE=SPRINGA, ELSET=WK_258
    6163,     5535,     6824
*SPRING, ELSET=WK_258

3.915786e-01
*ELEMENT, TYPE=SPRINGA, ELSET=WK_259
    6164,     5539,     6825
*SPRING, ELSET=WK_259

1.957893e-01
*ELEMENT, TYPE=SPRINGA, ELSET=WK_260
    6165,     5543,     6826
*SPRING, ELSET=WK_260

1.957893e-01
*ELEMENT, TYPE=SPRINGA, ELSET=WK_261
    6166,     5547,     6827
*SPRING, ELSET=WK_261

1.957893e-01
*ELEMENT, TYPE=SPRINGA, ELSET=WK_262
    6167,     5551,     6828
*SPRING, ELSET=WK_262

1.957893e-01
*ELEMENT, TYPE=SPRINGA, ELSET=WK_263
    6168,     5555,     6829
*SPRING, ELSET=WK_263

1.957893e-01
*BOUNDARY
GHOST_WINKLER, 1, 3, 0
