** Winkler foundation springs em dura_outer (excluindo perturbation_strip)
** Gerado automaticamente por foam_polymesh_to_ccx_inp.py
** k_winkler = 2.000e+05 Pa/m, 249 springs
*NODE, NSET=GHOST_WINKLER
    5318,  1.76847411e-03, -1.76847411e-03,  0.00000000e+00
    5319,  2.16592956e-03, -1.25050002e-03,  0.00000000e+00
    5320,  2.41578050e-03, -6.47306439e-04,  0.00000000e+00
    5321,  2.50100000e-03,  2.22133423e-19,  0.00000000e+00
    5322,  2.41578050e-03,  6.47306439e-04,  0.00000000e+00
    5323,  2.16592956e-03,  1.25050002e-03,  0.00000000e+00
    5324,  1.76847411e-03,  1.76847411e-03,  0.00000000e+00
    5325,  1.76847411e-03, -1.76847411e-03,  3.00000000e-03
    5326,  2.16592956e-03, -1.25050002e-03,  3.00000000e-03
    5327,  2.41578050e-03, -6.47306439e-04,  3.00000000e-03
    5328,  2.50100000e-03,  2.22133423e-19,  3.00000000e-03
    5329,  2.41578050e-03,  6.47306439e-04,  3.00000000e-03
    5330,  2.16592956e-03,  1.25050002e-03,  3.00000000e-03
    5331,  1.76847411e-03,  1.76847411e-03,  3.00000000e-03
    5332,  1.76847411e-03, -1.76847411e-03,  6.00000000e-03
    5333,  2.16592956e-03, -1.25050002e-03,  6.00000000e-03
    5334,  2.41578050e-03, -6.47306439e-04,  6.00000000e-03
    5335,  2.50100000e-03,  2.22133423e-19,  6.00000000e-03
    5336,  2.41578050e-03,  6.47306439e-04,  6.00000000e-03
    5337,  2.16592956e-03,  1.25050002e-03,  6.00000000e-03
    5338,  1.76847411e-03,  1.76847411e-03,  6.00000000e-03
    5339,  1.76847411e-03, -1.76847411e-03,  9.00000000e-03
    5340,  2.16592956e-03, -1.25050002e-03,  9.00000000e-03
    5341,  2.16592956e-03,  1.25050002e-03,  9.00000000e-03
    5342,  1.76847411e-03,  1.76847411e-03,  9.00000000e-03
    5343,  1.76847411e-03, -1.76847411e-03,  1.20000000e-02
    5344,  2.16592956e-03, -1.25050002e-03,  1.20000000e-02
    5345,  2.16592956e-03,  1.25050002e-03,  1.20000000e-02
    5346,  1.76847411e-03,  1.76847411e-03,  1.20000000e-02
    5347,  1.76847411e-03, -1.76847411e-03,  1.50000000e-02
    5348,  2.16592956e-03, -1.25050002e-03,  1.50000000e-02
    5349,  2.16592956e-03,  1.25050002e-03,  1.50000000e-02
    5350,  1.76847411e-03,  1.76847411e-03,  1.50000000e-02
    5351,  1.76847411e-03, -1.76847411e-03,  1.80000000e-02
    5352,  2.16592956e-03, -1.25050002e-03,  1.80000000e-02
    5353,  2.16592956e-03,  1.25050002e-03,  1.80000000e-02
    5354,  1.76847411e-03,  1.76847411e-03,  1.80000000e-02
    5355,  1.76847411e-03, -1.76847411e-03,  2.10000000e-02
    5356,  2.16592956e-03, -1.25050002e-03,  2.10000000e-02
    5357,  2.16592956e-03,  1.25050002e-03,  2.10000000e-02
    5358,  1.76847411e-03,  1.76847411e-03,  2.10000000e-02
    5359,  1.76847411e-03, -1.76847411e-03,  2.40000000e-02
    5360,  2.16592956e-03, -1.25050002e-03,  2.40000000e-02
    5361,  2.41578050e-03, -6.47306439e-04,  2.40000000e-02
    5362,  2.50100000e-03,  2.22133423e-19,  2.40000000e-02
    5363,  2.41578050e-03,  6.47306439e-04,  2.40000000e-02
    5364,  2.16592956e-03,  1.25050002e-03,  2.40000000e-02
    5365,  1.76847411e-03,  1.76847411e-03,  2.40000000e-02
    5366,  1.76847411e-03, -1.76847411e-03,  2.70000000e-02
    5367,  2.16592956e-03, -1.25050002e-03,  2.70000000e-02
    5368,  2.41578050e-03, -6.47306439e-04,  2.70000000e-02
    5369,  2.50100000e-03,  2.22133423e-19,  2.70000000e-02
    5370,  2.41578050e-03,  6.47306439e-04,  2.70000000e-02
    5371,  2.16592956e-03,  1.25050002e-03,  2.70000000e-02
    5372,  1.76847411e-03,  1.76847411e-03,  2.70000000e-02
    5373,  1.76847411e-03, -1.76847411e-03,  3.00000000e-02
    5374,  2.16592956e-03, -1.25050002e-03,  3.00000000e-02
    5375,  2.41578050e-03, -6.47306439e-04,  3.00000000e-02
    5376,  2.50100000e-03,  2.22133423e-19,  3.00000000e-02
    5377,  2.41578050e-03,  6.47306439e-04,  3.00000000e-02
    5378,  2.16592956e-03,  1.25050002e-03,  3.00000000e-02
    5379,  1.76847411e-03,  1.76847411e-03,  3.00000000e-02
    5380,  1.25050002e-03,  2.16592956e-03,  0.00000000e+00
    5381,  6.47306439e-04,  2.41578050e-03,  0.00000000e+00
    5382,  2.22133423e-19,  2.50100000e-03,  0.00000000e+00
    5383, -6.47306439e-04,  2.41578050e-03,  0.00000000e+00
    5384, -1.25050002e-03,  2.16592956e-03,  0.00000000e+00
    5385, -1.76847411e-03,  1.76847411e-03,  0.00000000e+00
    5386,  1.25050002e-03,  2.16592956e-03,  3.00000000e-03
    5387,  6.47306439e-04,  2.41578050e-03,  3.00000000e-03
    5388,  2.22133423e-19,  2.50100000e-03,  3.00000000e-03
    5389, -6.47306439e-04,  2.41578050e-03,  3.00000000e-03
    5390, -1.25050002e-03,  2.16592956e-03,  3.00000000e-03
    5391, -1.76847411e-03,  1.76847411e-03,  3.00000000e-03
    5392,  1.25050002e-03,  2.16592956e-03,  6.00000000e-03
    5393,  6.47306439e-04,  2.41578050e-03,  6.00000000e-03
    5394,  2.22133423e-19,  2.50100000e-03,  6.00000000e-03
    5395, -6.47306439e-04,  2.41578050e-03,  6.00000000e-03
    5396, -1.25050002e-03,  2.16592956e-03,  6.00000000e-03
    5397, -1.76847411e-03,  1.76847411e-03,  6.00000000e-03
    5398,  1.25050002e-03,  2.16592956e-03,  9.00000000e-03
    5399,  6.47306439e-04,  2.41578050e-03,  9.00000000e-03
    5400,  2.22133423e-19,  2.50100000e-03,  9.00000000e-03
    5401, -6.47306439e-04,  2.41578050e-03,  9.00000000e-03
    5402, -1.25050002e-03,  2.16592956e-03,  9.00000000e-03
    5403, -1.76847411e-03,  1.76847411e-03,  9.00000000e-03
    5404,  1.25050002e-03,  2.16592956e-03,  1.20000000e-02
    5405,  6.47306439e-04,  2.41578050e-03,  1.20000000e-02
    5406,  2.22133423e-19,  2.50100000e-03,  1.20000000e-02
    5407, -6.47306439e-04,  2.41578050e-03,  1.20000000e-02
    5408, -1.25050002e-03,  2.16592956e-03,  1.20000000e-02
    5409, -1.76847411e-03,  1.76847411e-03,  1.20000000e-02
    5410,  1.25050002e-03,  2.16592956e-03,  1.50000000e-02
    5411,  6.47306439e-04,  2.41578050e-03,  1.50000000e-02
    5412,  2.22133423e-19,  2.50100000e-03,  1.50000000e-02
    5413, -6.47306439e-04,  2.41578050e-03,  1.50000000e-02
    5414, -1.25050002e-03,  2.16592956e-03,  1.50000000e-02
    5415, -1.76847411e-03,  1.76847411e-03,  1.50000000e-02
    5416,  1.25050002e-03,  2.16592956e-03,  1.80000000e-02
    5417,  6.47306439e-04,  2.41578050e-03,  1.80000000e-02
    5418,  2.22133423e-19,  2.50100000e-03,  1.80000000e-02
    5419, -6.47306439e-04,  2.41578050e-03,  1.80000000e-02
    5420, -1.25050002e-03,  2.16592956e-03,  1.80000000e-02
    5421, -1.76847411e-03,  1.76847411e-03,  1.80000000e-02
    5422,  1.25050002e-03,  2.16592956e-03,  2.10000000e-02
    5423,  6.47306439e-04,  2.41578050e-03,  2.10000000e-02
    5424,  2.22133423e-19,  2.50100000e-03,  2.10000000e-02
    5425, -6.47306439e-04,  2.41578050e-03,  2.10000000e-02
    5426, -1.25050002e-03,  2.16592956e-03,  2.10000000e-02
    5427, -1.76847411e-03,  1.76847411e-03,  2.10000000e-02
    5428,  1.25050002e-03,  2.16592956e-03,  2.40000000e-02
    5429,  6.47306439e-04,  2.41578050e-03,  2.40000000e-02
    5430,  2.22133423e-19,  2.50100000e-03,  2.40000000e-02
    5431, -6.47306439e-04,  2.41578050e-03,  2.40000000e-02
    5432, -1.25050002e-03,  2.16592956e-03,  2.40000000e-02
    5433, -1.76847411e-03,  1.76847411e-03,  2.40000000e-02
    5434,  1.25050002e-03,  2.16592956e-03,  2.70000000e-02
    5435,  6.47306439e-04,  2.41578050e-03,  2.70000000e-02
    5436,  2.22133423e-19,  2.50100000e-03,  2.70000000e-02
    5437, -6.47306439e-04,  2.41578050e-03,  2.70000000e-02
    5438, -1.25050002e-03,  2.16592956e-03,  2.70000000e-02
    5439, -1.76847411e-03,  1.76847411e-03,  2.70000000e-02
    5440,  1.25050002e-03,  2.16592956e-03,  3.00000000e-02
    5441,  6.47306439e-04,  2.41578050e-03,  3.00000000e-02
    5442,  2.22133423e-19,  2.50100000e-03,  3.00000000e-02
    5443, -6.47306439e-04,  2.41578050e-03,  3.00000000e-02
    5444, -1.25050002e-03,  2.16592956e-03,  3.00000000e-02
    5445, -1.76847411e-03,  1.76847411e-03,  3.00000000e-02
    5446, -2.16592956e-03,  1.25050002e-03,  0.00000000e+00
    5447, -2.41578050e-03,  6.47306439e-04,  0.00000000e+00
    5448, -2.50100000e-03,  2.22133423e-19,  0.00000000e+00
    5449, -2.41578050e-03, -6.47306439e-04,  0.00000000e+00
    5450, -2.16592956e-03, -1.25050002e-03,  0.00000000e+00
    5451, -1.76847411e-03, -1.76847411e-03,  0.00000000e+00
    5452, -2.16592956e-03,  1.25050002e-03,  3.00000000e-03
    5453, -2.41578050e-03,  6.47306439e-04,  3.00000000e-03
    5454, -2.50100000e-03,  2.22133423e-19,  3.00000000e-03
    5455, -2.41578050e-03, -6.47306439e-04,  3.00000000e-03
    5456, -2.16592956e-03, -1.25050002e-03,  3.00000000e-03
    5457, -1.76847411e-03, -1.76847411e-03,  3.00000000e-03
    5458, -2.16592956e-03,  1.25050002e-03,  6.00000000e-03
    5459, -2.41578050e-03,  6.47306439e-04,  6.00000000e-03
    5460, -2.50100000e-03,  2.22133423e-19,  6.00000000e-03
    5461, -2.41578050e-03, -6.47306439e-04,  6.00000000e-03
    5462, -2.16592956e-03, -1.25050002e-03,  6.00000000e-03
    5463, -1.76847411e-03, -1.76847411e-03,  6.00000000e-03
    5464, -2.16592956e-03,  1.25050002e-03,  9.00000000e-03
    5465, -2.41578050e-03,  6.47306439e-04,  9.00000000e-03
    5466, -2.50100000e-03,  2.22133423e-19,  9.00000000e-03
    5467, -2.41578050e-03, -6.47306439e-04,  9.00000000e-03
    5468, -2.16592956e-03, -1.25050002e-03,  9.00000000e-03
    5469, -1.76847411e-03, -1.76847411e-03,  9.00000000e-03
    5470, -2.16592956e-03,  1.25050002e-03,  1.20000000e-02
    5471, -2.41578050e-03,  6.47306439e-04,  1.20000000e-02
    5472, -2.50100000e-03,  2.22133423e-19,  1.20000000e-02
    5473, -2.41578050e-03, -6.47306439e-04,  1.20000000e-02
    5474, -2.16592956e-03, -1.25050002e-03,  1.20000000e-02
    5475, -1.76847411e-03, -1.76847411e-03,  1.20000000e-02
    5476, -2.16592956e-03,  1.25050002e-03,  1.50000000e-02
    5477, -2.41578050e-03,  6.47306439e-04,  1.50000000e-02
    5478, -2.50100000e-03,  2.22133423e-19,  1.50000000e-02
    5479, -2.41578050e-03, -6.47306439e-04,  1.50000000e-02
    5480, -2.16592956e-03, -1.25050002e-03,  1.50000000e-02
    5481, -1.76847411e-03, -1.76847411e-03,  1.50000000e-02
    5482, -2.16592956e-03,  1.25050002e-03,  1.80000000e-02
    5483, -2.41578050e-03,  6.47306439e-04,  1.80000000e-02
    5484, -2.50100000e-03,  2.22133423e-19,  1.80000000e-02
    5485, -2.41578050e-03, -6.47306439e-04,  1.80000000e-02
    5486, -2.16592956e-03, -1.25050002e-03,  1.80000000e-02
    5487, -1.76847411e-03, -1.76847411e-03,  1.80000000e-02
    5488, -2.16592956e-03,  1.25050002e-03,  2.10000000e-02
    5489, -2.41578050e-03,  6.47306439e-04,  2.10000000e-02
    5490, -2.50100000e-03,  2.22133423e-19,  2.10000000e-02
    5491, -2.41578050e-03, -6.47306439e-04,  2.10000000e-02
    5492, -2.16592956e-03, -1.25050002e-03,  2.10000000e-02
    5493, -1.76847411e-03, -1.76847411e-03,  2.10000000e-02
    5494, -2.16592956e-03,  1.25050002e-03,  2.40000000e-02
    5495, -2.41578050e-03,  6.47306439e-04,  2.40000000e-02
    5496, -2.50100000e-03,  2.22133423e-19,  2.40000000e-02
    5497, -2.41578050e-03, -6.47306439e-04,  2.40000000e-02
    5498, -2.16592956e-03, -1.25050002e-03,  2.40000000e-02
    5499, -1.76847411e-03, -1.76847411e-03,  2.40000000e-02
    5500, -2.16592956e-03,  1.25050002e-03,  2.70000000e-02
    5501, -2.41578050e-03,  6.47306439e-04,  2.70000000e-02
    5502, -2.50100000e-03,  2.22133423e-19,  2.70000000e-02
    5503, -2.41578050e-03, -6.47306439e-04,  2.70000000e-02
    5504, -2.16592956e-03, -1.25050002e-03,  2.70000000e-02
    5505, -1.76847411e-03, -1.76847411e-03,  2.70000000e-02
    5506, -2.16592956e-03,  1.25050002e-03,  3.00000000e-02
    5507, -2.41578050e-03,  6.47306439e-04,  3.00000000e-02
    5508, -2.50100000e-03,  2.22133423e-19,  3.00000000e-02
    5509, -2.41578050e-03, -6.47306439e-04,  3.00000000e-02
    5510, -2.16592956e-03, -1.25050002e-03,  3.00000000e-02
    5511, -1.76847411e-03, -1.76847411e-03,  3.00000000e-02
    5512, -1.25050002e-03, -2.16592956e-03,  0.00000000e+00
    5513, -6.47306439e-04, -2.41578050e-03,  0.00000000e+00
    5514, -2.22133423e-19, -2.50100000e-03,  0.00000000e+00
    5515,  6.47306439e-04, -2.41578050e-03,  0.00000000e+00
    5516,  1.25050002e-03, -2.16592956e-03,  0.00000000e+00
    5517, -1.25050002e-03, -2.16592956e-03,  3.00000000e-03
    5518, -6.47306439e-04, -2.41578050e-03,  3.00000000e-03
    5519, -2.22133423e-19, -2.50100000e-03,  3.00000000e-03
    5520,  6.47306439e-04, -2.41578050e-03,  3.00000000e-03
    5521,  1.25050002e-03, -2.16592956e-03,  3.00000000e-03
    5522, -1.25050002e-03, -2.16592956e-03,  6.00000000e-03
    5523, -6.47306439e-04, -2.41578050e-03,  6.00000000e-03
    5524, -2.22133423e-19, -2.50100000e-03,  6.00000000e-03
    5525,  6.47306439e-04, -2.41578050e-03,  6.00000000e-03
    5526,  1.25050002e-03, -2.16592956e-03,  6.00000000e-03
    5527, -1.25050002e-03, -2.16592956e-03,  9.00000000e-03
    5528, -6.47306439e-04, -2.41578050e-03,  9.00000000e-03
    5529, -2.22133423e-19, -2.50100000e-03,  9.00000000e-03
    5530,  6.47306439e-04, -2.41578050e-03,  9.00000000e-03
    5531,  1.25050002e-03, -2.16592956e-03,  9.00000000e-03
    5532, -1.25050002e-03, -2.16592956e-03,  1.20000000e-02
    5533, -6.47306439e-04, -2.41578050e-03,  1.20000000e-02
    5534, -2.22133423e-19, -2.50100000e-03,  1.20000000e-02
    5535,  6.47306439e-04, -2.41578050e-03,  1.20000000e-02
    5536,  1.25050002e-03, -2.16592956e-03,  1.20000000e-02
    5537, -1.25050002e-03, -2.16592956e-03,  1.50000000e-02
    5538, -6.47306439e-04, -2.41578050e-03,  1.50000000e-02
    5539, -2.22133423e-19, -2.50100000e-03,  1.50000000e-02
    5540,  6.47306439e-04, -2.41578050e-03,  1.50000000e-02
    5541,  1.25050002e-03, -2.16592956e-03,  1.50000000e-02
    5542, -1.25050002e-03, -2.16592956e-03,  1.80000000e-02
    5543, -6.47306439e-04, -2.41578050e-03,  1.80000000e-02
    5544, -2.22133423e-19, -2.50100000e-03,  1.80000000e-02
    5545,  6.47306439e-04, -2.41578050e-03,  1.80000000e-02
    5546,  1.25050002e-03, -2.16592956e-03,  1.80000000e-02
    5547, -1.25050002e-03, -2.16592956e-03,  2.10000000e-02
    5548, -6.47306439e-04, -2.41578050e-03,  2.10000000e-02
    5549, -2.22133423e-19, -2.50100000e-03,  2.10000000e-02
    5550,  6.47306439e-04, -2.41578050e-03,  2.10000000e-02
    5551,  1.25050002e-03, -2.16592956e-03,  2.10000000e-02
    5552, -1.25050002e-03, -2.16592956e-03,  2.40000000e-02
    5553, -6.47306439e-04, -2.41578050e-03,  2.40000000e-02
    5554, -2.22133423e-19, -2.50100000e-03,  2.40000000e-02
    5555,  6.47306439e-04, -2.41578050e-03,  2.40000000e-02
    5556,  1.25050002e-03, -2.16592956e-03,  2.40000000e-02
    5557, -1.25050002e-03, -2.16592956e-03,  2.70000000e-02
    5558, -6.47306439e-04, -2.41578050e-03,  2.70000000e-02
    5559, -2.22133423e-19, -2.50100000e-03,  2.70000000e-02
    5560,  6.47306439e-04, -2.41578050e-03,  2.70000000e-02
    5561,  1.25050002e-03, -2.16592956e-03,  2.70000000e-02
    5562, -1.25050002e-03, -2.16592956e-03,  3.00000000e-02
    5563, -6.47306439e-04, -2.41578050e-03,  3.00000000e-02
    5564, -2.22133423e-19, -2.50100000e-03,  3.00000000e-02
    5565,  6.47306439e-04, -2.41578050e-03,  3.00000000e-02
    5566,  1.25050002e-03, -2.16592956e-03,  3.00000000e-02
*ELEMENT, TYPE=SPRINGA, ELSET=WK_0
    4753,     3973,     5318
*SPRING, ELSET=WK_0

1.957893e-01
*ELEMENT, TYPE=SPRINGA, ELSET=WK_1
    4754,     3975,     5319
*SPRING, ELSET=WK_1

1.957893e-01
*ELEMENT, TYPE=SPRINGA, ELSET=WK_2
    4755,     3977,     5320
*SPRING, ELSET=WK_2

1.957893e-01
*ELEMENT, TYPE=SPRINGA, ELSET=WK_3
    4756,     3979,     5321
*SPRING, ELSET=WK_3

1.957893e-01
*ELEMENT, TYPE=SPRINGA, ELSET=WK_4
    4757,     3981,     5322
*SPRING, ELSET=WK_4

1.957893e-01
*ELEMENT, TYPE=SPRINGA, ELSET=WK_5
    4758,     3983,     5323
*SPRING, ELSET=WK_5

1.957893e-01
*ELEMENT, TYPE=SPRINGA, ELSET=WK_6
    4759,     3985,     5324
*SPRING, ELSET=WK_6

1.957893e-01
*ELEMENT, TYPE=SPRINGA, ELSET=WK_7
    4760,     3987,     5325
*SPRING, ELSET=WK_7

3.915786e-01
*ELEMENT, TYPE=SPRINGA, ELSET=WK_8
    4761,     3989,     5326
*SPRING, ELSET=WK_8

3.915786e-01
*ELEMENT, TYPE=SPRINGA, ELSET=WK_9
    4762,     3991,     5327
*SPRING, ELSET=WK_9

3.915786e-01
*ELEMENT, TYPE=SPRINGA, ELSET=WK_10
    4763,     3993,     5328
*SPRING, ELSET=WK_10

3.915786e-01
*ELEMENT, TYPE=SPRINGA, ELSET=WK_11
    4764,     3995,     5329
*SPRING, ELSET=WK_11

3.915786e-01
*ELEMENT, TYPE=SPRINGA, ELSET=WK_12
    4765,     3997,     5330
*SPRING, ELSET=WK_12

3.915786e-01
*ELEMENT, TYPE=SPRINGA, ELSET=WK_13
    4766,     3999,     5331
*SPRING, ELSET=WK_13

3.915786e-01
*ELEMENT, TYPE=SPRINGA, ELSET=WK_14
    4767,     4001,     5332
*SPRING, ELSET=WK_14

3.915786e-01
*ELEMENT, TYPE=SPRINGA, ELSET=WK_15
    4768,     4003,     5333
*SPRING, ELSET=WK_15

3.915786e-01
*ELEMENT, TYPE=SPRINGA, ELSET=WK_16
    4769,     4005,     5334
*SPRING, ELSET=WK_16

3.915786e-01
*ELEMENT, TYPE=SPRINGA, ELSET=WK_17
    4770,     4007,     5335
*SPRING, ELSET=WK_17

3.915786e-01
*ELEMENT, TYPE=SPRINGA, ELSET=WK_18
    4771,     4009,     5336
*SPRING, ELSET=WK_18

3.915786e-01
*ELEMENT, TYPE=SPRINGA, ELSET=WK_19
    4772,     4011,     5337
*SPRING, ELSET=WK_19

3.915786e-01
*ELEMENT, TYPE=SPRINGA, ELSET=WK_20
    4773,     4013,     5338
*SPRING, ELSET=WK_20

3.915786e-01
*ELEMENT, TYPE=SPRINGA, ELSET=WK_21
    4774,     4015,     5339
*SPRING, ELSET=WK_21

3.915786e-01
*ELEMENT, TYPE=SPRINGA, ELSET=WK_22
    4775,     4017,     5340
*SPRING, ELSET=WK_22

3.915786e-01
*ELEMENT, TYPE=SPRINGA, ELSET=WK_23
    4776,     4025,     5341
*SPRING, ELSET=WK_23

3.915786e-01
*ELEMENT, TYPE=SPRINGA, ELSET=WK_24
    4777,     4027,     5342
*SPRING, ELSET=WK_24

3.915786e-01
*ELEMENT, TYPE=SPRINGA, ELSET=WK_25
    4778,     4029,     5343
*SPRING, ELSET=WK_25

3.915786e-01
*ELEMENT, TYPE=SPRINGA, ELSET=WK_26
    4779,     4031,     5344
*SPRING, ELSET=WK_26

3.915786e-01
*ELEMENT, TYPE=SPRINGA, ELSET=WK_27
    4780,     4039,     5345
*SPRING, ELSET=WK_27

3.915786e-01
*ELEMENT, TYPE=SPRINGA, ELSET=WK_28
    4781,     4041,     5346
*SPRING, ELSET=WK_28

3.915786e-01
*ELEMENT, TYPE=SPRINGA, ELSET=WK_29
    4782,     4043,     5347
*SPRING, ELSET=WK_29

3.915786e-01
*ELEMENT, TYPE=SPRINGA, ELSET=WK_30
    4783,     4045,     5348
*SPRING, ELSET=WK_30

3.915786e-01
*ELEMENT, TYPE=SPRINGA, ELSET=WK_31
    4784,     4053,     5349
*SPRING, ELSET=WK_31

3.915786e-01
*ELEMENT, TYPE=SPRINGA, ELSET=WK_32
    4785,     4055,     5350
*SPRING, ELSET=WK_32

3.915786e-01
*ELEMENT, TYPE=SPRINGA, ELSET=WK_33
    4786,     4057,     5351
*SPRING, ELSET=WK_33

3.915786e-01
*ELEMENT, TYPE=SPRINGA, ELSET=WK_34
    4787,     4059,     5352
*SPRING, ELSET=WK_34

3.915786e-01
*ELEMENT, TYPE=SPRINGA, ELSET=WK_35
    4788,     4067,     5353
*SPRING, ELSET=WK_35

3.915786e-01
*ELEMENT, TYPE=SPRINGA, ELSET=WK_36
    4789,     4069,     5354
*SPRING, ELSET=WK_36

3.915786e-01
*ELEMENT, TYPE=SPRINGA, ELSET=WK_37
    4790,     4071,     5355
*SPRING, ELSET=WK_37

3.915786e-01
*ELEMENT, TYPE=SPRINGA, ELSET=WK_38
    4791,     4073,     5356
*SPRING, ELSET=WK_38

3.915786e-01
*ELEMENT, TYPE=SPRINGA, ELSET=WK_39
    4792,     4081,     5357
*SPRING, ELSET=WK_39

3.915786e-01
*ELEMENT, TYPE=SPRINGA, ELSET=WK_40
    4793,     4083,     5358
*SPRING, ELSET=WK_40

3.915786e-01
*ELEMENT, TYPE=SPRINGA, ELSET=WK_41
    4794,     4085,     5359
*SPRING, ELSET=WK_41

3.915786e-01
*ELEMENT, TYPE=SPRINGA, ELSET=WK_42
    4795,     4087,     5360
*SPRING, ELSET=WK_42

3.915786e-01
*ELEMENT, TYPE=SPRINGA, ELSET=WK_43
    4796,     4089,     5361
*SPRING, ELSET=WK_43

3.915786e-01
*ELEMENT, TYPE=SPRINGA, ELSET=WK_44
    4797,     4091,     5362
*SPRING, ELSET=WK_44

3.915786e-01
*ELEMENT, TYPE=SPRINGA, ELSET=WK_45
    4798,     4093,     5363
*SPRING, ELSET=WK_45

3.915786e-01
*ELEMENT, TYPE=SPRINGA, ELSET=WK_46
    4799,     4095,     5364
*SPRING, ELSET=WK_46

3.915786e-01
*ELEMENT, TYPE=SPRINGA, ELSET=WK_47
    4800,     4097,     5365
*SPRING, ELSET=WK_47

3.915786e-01
*ELEMENT, TYPE=SPRINGA, ELSET=WK_48
    4801,     4099,     5366
*SPRING, ELSET=WK_48

3.915786e-01
*ELEMENT, TYPE=SPRINGA, ELSET=WK_49
    4802,     4101,     5367
*SPRING, ELSET=WK_49

3.915786e-01
*ELEMENT, TYPE=SPRINGA, ELSET=WK_50
    4803,     4103,     5368
*SPRING, ELSET=WK_50

3.915786e-01
*ELEMENT, TYPE=SPRINGA, ELSET=WK_51
    4804,     4105,     5369
*SPRING, ELSET=WK_51

3.915786e-01
*ELEMENT, TYPE=SPRINGA, ELSET=WK_52
    4805,     4107,     5370
*SPRING, ELSET=WK_52

3.915786e-01
*ELEMENT, TYPE=SPRINGA, ELSET=WK_53
    4806,     4109,     5371
*SPRING, ELSET=WK_53

3.915786e-01
*ELEMENT, TYPE=SPRINGA, ELSET=WK_54
    4807,     4111,     5372
*SPRING, ELSET=WK_54

3.915786e-01
*ELEMENT, TYPE=SPRINGA, ELSET=WK_55
    4808,     4113,     5373
*SPRING, ELSET=WK_55

1.957893e-01
*ELEMENT, TYPE=SPRINGA, ELSET=WK_56
    4809,     4115,     5374
*SPRING, ELSET=WK_56

1.957893e-01
*ELEMENT, TYPE=SPRINGA, ELSET=WK_57
    4810,     4117,     5375
*SPRING, ELSET=WK_57

1.957893e-01
*ELEMENT, TYPE=SPRINGA, ELSET=WK_58
    4811,     4119,     5376
*SPRING, ELSET=WK_58

1.957893e-01
*ELEMENT, TYPE=SPRINGA, ELSET=WK_59
    4812,     4121,     5377
*SPRING, ELSET=WK_59

1.957893e-01
*ELEMENT, TYPE=SPRINGA, ELSET=WK_60
    4813,     4123,     5378
*SPRING, ELSET=WK_60

1.957893e-01
*ELEMENT, TYPE=SPRINGA, ELSET=WK_61
    4814,     4125,     5379
*SPRING, ELSET=WK_61

1.957893e-01
*ELEMENT, TYPE=SPRINGA, ELSET=WK_62
    4815,     4127,     5380
*SPRING, ELSET=WK_62

1.957893e-01
*ELEMENT, TYPE=SPRINGA, ELSET=WK_63
    4816,     4129,     5381
*SPRING, ELSET=WK_63

1.957893e-01
*ELEMENT, TYPE=SPRINGA, ELSET=WK_64
    4817,     4131,     5382
*SPRING, ELSET=WK_64

1.957893e-01
*ELEMENT, TYPE=SPRINGA, ELSET=WK_65
    4818,     4133,     5383
*SPRING, ELSET=WK_65

1.957893e-01
*ELEMENT, TYPE=SPRINGA, ELSET=WK_66
    4819,     4135,     5384
*SPRING, ELSET=WK_66

1.957893e-01
*ELEMENT, TYPE=SPRINGA, ELSET=WK_67
    4820,     4137,     5385
*SPRING, ELSET=WK_67

1.957893e-01
*ELEMENT, TYPE=SPRINGA, ELSET=WK_68
    4821,     4139,     5386
*SPRING, ELSET=WK_68

3.915786e-01
*ELEMENT, TYPE=SPRINGA, ELSET=WK_69
    4822,     4141,     5387
*SPRING, ELSET=WK_69

3.915786e-01
*ELEMENT, TYPE=SPRINGA, ELSET=WK_70
    4823,     4143,     5388
*SPRING, ELSET=WK_70

3.915786e-01
*ELEMENT, TYPE=SPRINGA, ELSET=WK_71
    4824,     4145,     5389
*SPRING, ELSET=WK_71

3.915786e-01
*ELEMENT, TYPE=SPRINGA, ELSET=WK_72
    4825,     4147,     5390
*SPRING, ELSET=WK_72

3.915786e-01
*ELEMENT, TYPE=SPRINGA, ELSET=WK_73
    4826,     4149,     5391
*SPRING, ELSET=WK_73

3.915786e-01
*ELEMENT, TYPE=SPRINGA, ELSET=WK_74
    4827,     4151,     5392
*SPRING, ELSET=WK_74

3.915786e-01
*ELEMENT, TYPE=SPRINGA, ELSET=WK_75
    4828,     4153,     5393
*SPRING, ELSET=WK_75

3.915786e-01
*ELEMENT, TYPE=SPRINGA, ELSET=WK_76
    4829,     4155,     5394
*SPRING, ELSET=WK_76

3.915786e-01
*ELEMENT, TYPE=SPRINGA, ELSET=WK_77
    4830,     4157,     5395
*SPRING, ELSET=WK_77

3.915786e-01
*ELEMENT, TYPE=SPRINGA, ELSET=WK_78
    4831,     4159,     5396
*SPRING, ELSET=WK_78

3.915786e-01
*ELEMENT, TYPE=SPRINGA, ELSET=WK_79
    4832,     4161,     5397
*SPRING, ELSET=WK_79

3.915786e-01
*ELEMENT, TYPE=SPRINGA, ELSET=WK_80
    4833,     4163,     5398
*SPRING, ELSET=WK_80

3.915786e-01
*ELEMENT, TYPE=SPRINGA, ELSET=WK_81
    4834,     4165,     5399
*SPRING, ELSET=WK_81

3.915786e-01
*ELEMENT, TYPE=SPRINGA, ELSET=WK_82
    4835,     4167,     5400
*SPRING, ELSET=WK_82

3.915786e-01
*ELEMENT, TYPE=SPRINGA, ELSET=WK_83
    4836,     4169,     5401
*SPRING, ELSET=WK_83

3.915786e-01
*ELEMENT, TYPE=SPRINGA, ELSET=WK_84
    4837,     4171,     5402
*SPRING, ELSET=WK_84

3.915786e-01
*ELEMENT, TYPE=SPRINGA, ELSET=WK_85
    4838,     4173,     5403
*SPRING, ELSET=WK_85

3.915786e-01
*ELEMENT, TYPE=SPRINGA, ELSET=WK_86
    4839,     4175,     5404
*SPRING, ELSET=WK_86

3.915786e-01
*ELEMENT, TYPE=SPRINGA, ELSET=WK_87
    4840,     4177,     5405
*SPRING, ELSET=WK_87

3.915786e-01
*ELEMENT, TYPE=SPRINGA, ELSET=WK_88
    4841,     4179,     5406
*SPRING, ELSET=WK_88

3.915786e-01
*ELEMENT, TYPE=SPRINGA, ELSET=WK_89
    4842,     4181,     5407
*SPRING, ELSET=WK_89

3.915786e-01
*ELEMENT, TYPE=SPRINGA, ELSET=WK_90
    4843,     4183,     5408
*SPRING, ELSET=WK_90

3.915786e-01
*ELEMENT, TYPE=SPRINGA, ELSET=WK_91
    4844,     4185,     5409
*SPRING, ELSET=WK_91

3.915786e-01
*ELEMENT, TYPE=SPRINGA, ELSET=WK_92
    4845,     4187,     5410
*SPRING, ELSET=WK_92

3.915786e-01
*ELEMENT, TYPE=SPRINGA, ELSET=WK_93
    4846,     4189,     5411
*SPRING, ELSET=WK_93

3.915786e-01
*ELEMENT, TYPE=SPRINGA, ELSET=WK_94
    4847,     4191,     5412
*SPRING, ELSET=WK_94

3.915786e-01
*ELEMENT, TYPE=SPRINGA, ELSET=WK_95
    4848,     4193,     5413
*SPRING, ELSET=WK_95

3.915786e-01
*ELEMENT, TYPE=SPRINGA, ELSET=WK_96
    4849,     4195,     5414
*SPRING, ELSET=WK_96

3.915786e-01
*ELEMENT, TYPE=SPRINGA, ELSET=WK_97
    4850,     4197,     5415
*SPRING, ELSET=WK_97

3.915786e-01
*ELEMENT, TYPE=SPRINGA, ELSET=WK_98
    4851,     4199,     5416
*SPRING, ELSET=WK_98

3.915786e-01
*ELEMENT, TYPE=SPRINGA, ELSET=WK_99
    4852,     4201,     5417
*SPRING, ELSET=WK_99

3.915786e-01
*ELEMENT, TYPE=SPRINGA, ELSET=WK_100
    4853,     4203,     5418
*SPRING, ELSET=WK_100

3.915786e-01
*ELEMENT, TYPE=SPRINGA, ELSET=WK_101
    4854,     4205,     5419
*SPRING, ELSET=WK_101

3.915786e-01
*ELEMENT, TYPE=SPRINGA, ELSET=WK_102
    4855,     4207,     5420
*SPRING, ELSET=WK_102

3.915786e-01
*ELEMENT, TYPE=SPRINGA, ELSET=WK_103
    4856,     4209,     5421
*SPRING, ELSET=WK_103

3.915786e-01
*ELEMENT, TYPE=SPRINGA, ELSET=WK_104
    4857,     4211,     5422
*SPRING, ELSET=WK_104

3.915786e-01
*ELEMENT, TYPE=SPRINGA, ELSET=WK_105
    4858,     4213,     5423
*SPRING, ELSET=WK_105

3.915786e-01
*ELEMENT, TYPE=SPRINGA, ELSET=WK_106
    4859,     4215,     5424
*SPRING, ELSET=WK_106

3.915786e-01
*ELEMENT, TYPE=SPRINGA, ELSET=WK_107
    4860,     4217,     5425
*SPRING, ELSET=WK_107

3.915786e-01
*ELEMENT, TYPE=SPRINGA, ELSET=WK_108
    4861,     4219,     5426
*SPRING, ELSET=WK_108

3.915786e-01
*ELEMENT, TYPE=SPRINGA, ELSET=WK_109
    4862,     4221,     5427
*SPRING, ELSET=WK_109

3.915786e-01
*ELEMENT, TYPE=SPRINGA, ELSET=WK_110
    4863,     4223,     5428
*SPRING, ELSET=WK_110

3.915786e-01
*ELEMENT, TYPE=SPRINGA, ELSET=WK_111
    4864,     4225,     5429
*SPRING, ELSET=WK_111

3.915786e-01
*ELEMENT, TYPE=SPRINGA, ELSET=WK_112
    4865,     4227,     5430
*SPRING, ELSET=WK_112

3.915786e-01
*ELEMENT, TYPE=SPRINGA, ELSET=WK_113
    4866,     4229,     5431
*SPRING, ELSET=WK_113

3.915786e-01
*ELEMENT, TYPE=SPRINGA, ELSET=WK_114
    4867,     4231,     5432
*SPRING, ELSET=WK_114

3.915786e-01
*ELEMENT, TYPE=SPRINGA, ELSET=WK_115
    4868,     4233,     5433
*SPRING, ELSET=WK_115

3.915786e-01
*ELEMENT, TYPE=SPRINGA, ELSET=WK_116
    4869,     4235,     5434
*SPRING, ELSET=WK_116

3.915786e-01
*ELEMENT, TYPE=SPRINGA, ELSET=WK_117
    4870,     4237,     5435
*SPRING, ELSET=WK_117

3.915786e-01
*ELEMENT, TYPE=SPRINGA, ELSET=WK_118
    4871,     4239,     5436
*SPRING, ELSET=WK_118

3.915786e-01
*ELEMENT, TYPE=SPRINGA, ELSET=WK_119
    4872,     4241,     5437
*SPRING, ELSET=WK_119

3.915786e-01
*ELEMENT, TYPE=SPRINGA, ELSET=WK_120
    4873,     4243,     5438
*SPRING, ELSET=WK_120

3.915786e-01
*ELEMENT, TYPE=SPRINGA, ELSET=WK_121
    4874,     4245,     5439
*SPRING, ELSET=WK_121

3.915786e-01
*ELEMENT, TYPE=SPRINGA, ELSET=WK_122
    4875,     4247,     5440
*SPRING, ELSET=WK_122

1.957893e-01
*ELEMENT, TYPE=SPRINGA, ELSET=WK_123
    4876,     4249,     5441
*SPRING, ELSET=WK_123

1.957893e-01
*ELEMENT, TYPE=SPRINGA, ELSET=WK_124
    4877,     4251,     5442
*SPRING, ELSET=WK_124

1.957893e-01
*ELEMENT, TYPE=SPRINGA, ELSET=WK_125
    4878,     4253,     5443
*SPRING, ELSET=WK_125

1.957893e-01
*ELEMENT, TYPE=SPRINGA, ELSET=WK_126
    4879,     4255,     5444
*SPRING, ELSET=WK_126

1.957893e-01
*ELEMENT, TYPE=SPRINGA, ELSET=WK_127
    4880,     4257,     5445
*SPRING, ELSET=WK_127

1.957893e-01
*ELEMENT, TYPE=SPRINGA, ELSET=WK_128
    4881,     4259,     5446
*SPRING, ELSET=WK_128

1.957893e-01
*ELEMENT, TYPE=SPRINGA, ELSET=WK_129
    4882,     4261,     5447
*SPRING, ELSET=WK_129

1.957893e-01
*ELEMENT, TYPE=SPRINGA, ELSET=WK_130
    4883,     4263,     5448
*SPRING, ELSET=WK_130

1.957893e-01
*ELEMENT, TYPE=SPRINGA, ELSET=WK_131
    4884,     4265,     5449
*SPRING, ELSET=WK_131

1.957893e-01
*ELEMENT, TYPE=SPRINGA, ELSET=WK_132
    4885,     4267,     5450
*SPRING, ELSET=WK_132

1.957893e-01
*ELEMENT, TYPE=SPRINGA, ELSET=WK_133
    4886,     4269,     5451
*SPRING, ELSET=WK_133

1.957893e-01
*ELEMENT, TYPE=SPRINGA, ELSET=WK_134
    4887,     4271,     5452
*SPRING, ELSET=WK_134

3.915786e-01
*ELEMENT, TYPE=SPRINGA, ELSET=WK_135
    4888,     4273,     5453
*SPRING, ELSET=WK_135

3.915786e-01
*ELEMENT, TYPE=SPRINGA, ELSET=WK_136
    4889,     4275,     5454
*SPRING, ELSET=WK_136

3.915786e-01
*ELEMENT, TYPE=SPRINGA, ELSET=WK_137
    4890,     4277,     5455
*SPRING, ELSET=WK_137

3.915786e-01
*ELEMENT, TYPE=SPRINGA, ELSET=WK_138
    4891,     4279,     5456
*SPRING, ELSET=WK_138

3.915786e-01
*ELEMENT, TYPE=SPRINGA, ELSET=WK_139
    4892,     4281,     5457
*SPRING, ELSET=WK_139

3.915786e-01
*ELEMENT, TYPE=SPRINGA, ELSET=WK_140
    4893,     4283,     5458
*SPRING, ELSET=WK_140

3.915786e-01
*ELEMENT, TYPE=SPRINGA, ELSET=WK_141
    4894,     4285,     5459
*SPRING, ELSET=WK_141

3.915786e-01
*ELEMENT, TYPE=SPRINGA, ELSET=WK_142
    4895,     4287,     5460
*SPRING, ELSET=WK_142

3.915786e-01
*ELEMENT, TYPE=SPRINGA, ELSET=WK_143
    4896,     4289,     5461
*SPRING, ELSET=WK_143

3.915786e-01
*ELEMENT, TYPE=SPRINGA, ELSET=WK_144
    4897,     4291,     5462
*SPRING, ELSET=WK_144

3.915786e-01
*ELEMENT, TYPE=SPRINGA, ELSET=WK_145
    4898,     4293,     5463
*SPRING, ELSET=WK_145

3.915786e-01
*ELEMENT, TYPE=SPRINGA, ELSET=WK_146
    4899,     4295,     5464
*SPRING, ELSET=WK_146

3.915786e-01
*ELEMENT, TYPE=SPRINGA, ELSET=WK_147
    4900,     4297,     5465
*SPRING, ELSET=WK_147

3.915786e-01
*ELEMENT, TYPE=SPRINGA, ELSET=WK_148
    4901,     4299,     5466
*SPRING, ELSET=WK_148

3.915786e-01
*ELEMENT, TYPE=SPRINGA, ELSET=WK_149
    4902,     4301,     5467
*SPRING, ELSET=WK_149

3.915786e-01
*ELEMENT, TYPE=SPRINGA, ELSET=WK_150
    4903,     4303,     5468
*SPRING, ELSET=WK_150

3.915786e-01
*ELEMENT, TYPE=SPRINGA, ELSET=WK_151
    4904,     4305,     5469
*SPRING, ELSET=WK_151

3.915786e-01
*ELEMENT, TYPE=SPRINGA, ELSET=WK_152
    4905,     4307,     5470
*SPRING, ELSET=WK_152

3.915786e-01
*ELEMENT, TYPE=SPRINGA, ELSET=WK_153
    4906,     4309,     5471
*SPRING, ELSET=WK_153

3.915786e-01
*ELEMENT, TYPE=SPRINGA, ELSET=WK_154
    4907,     4311,     5472
*SPRING, ELSET=WK_154

3.915786e-01
*ELEMENT, TYPE=SPRINGA, ELSET=WK_155
    4908,     4313,     5473
*SPRING, ELSET=WK_155

3.915786e-01
*ELEMENT, TYPE=SPRINGA, ELSET=WK_156
    4909,     4315,     5474
*SPRING, ELSET=WK_156

3.915786e-01
*ELEMENT, TYPE=SPRINGA, ELSET=WK_157
    4910,     4317,     5475
*SPRING, ELSET=WK_157

3.915786e-01
*ELEMENT, TYPE=SPRINGA, ELSET=WK_158
    4911,     4319,     5476
*SPRING, ELSET=WK_158

3.915786e-01
*ELEMENT, TYPE=SPRINGA, ELSET=WK_159
    4912,     4321,     5477
*SPRING, ELSET=WK_159

3.915786e-01
*ELEMENT, TYPE=SPRINGA, ELSET=WK_160
    4913,     4323,     5478
*SPRING, ELSET=WK_160

3.915786e-01
*ELEMENT, TYPE=SPRINGA, ELSET=WK_161
    4914,     4325,     5479
*SPRING, ELSET=WK_161

3.915786e-01
*ELEMENT, TYPE=SPRINGA, ELSET=WK_162
    4915,     4327,     5480
*SPRING, ELSET=WK_162

3.915786e-01
*ELEMENT, TYPE=SPRINGA, ELSET=WK_163
    4916,     4329,     5481
*SPRING, ELSET=WK_163

3.915786e-01
*ELEMENT, TYPE=SPRINGA, ELSET=WK_164
    4917,     4331,     5482
*SPRING, ELSET=WK_164

3.915786e-01
*ELEMENT, TYPE=SPRINGA, ELSET=WK_165
    4918,     4333,     5483
*SPRING, ELSET=WK_165

3.915786e-01
*ELEMENT, TYPE=SPRINGA, ELSET=WK_166
    4919,     4335,     5484
*SPRING, ELSET=WK_166

3.915786e-01
*ELEMENT, TYPE=SPRINGA, ELSET=WK_167
    4920,     4337,     5485
*SPRING, ELSET=WK_167

3.915786e-01
*ELEMENT, TYPE=SPRINGA, ELSET=WK_168
    4921,     4339,     5486
*SPRING, ELSET=WK_168

3.915786e-01
*ELEMENT, TYPE=SPRINGA, ELSET=WK_169
    4922,     4341,     5487
*SPRING, ELSET=WK_169

3.915786e-01
*ELEMENT, TYPE=SPRINGA, ELSET=WK_170
    4923,     4343,     5488
*SPRING, ELSET=WK_170

3.915786e-01
*ELEMENT, TYPE=SPRINGA, ELSET=WK_171
    4924,     4345,     5489
*SPRING, ELSET=WK_171

2.936839e-01
*ELEMENT, TYPE=SPRINGA, ELSET=WK_172
    4925,     4347,     5490
*SPRING, ELSET=WK_172

1.957893e-01
*ELEMENT, TYPE=SPRINGA, ELSET=WK_173
    4926,     4349,     5491
*SPRING, ELSET=WK_173

2.936839e-01
*ELEMENT, TYPE=SPRINGA, ELSET=WK_174
    4927,     4351,     5492
*SPRING, ELSET=WK_174

3.915786e-01
*ELEMENT, TYPE=SPRINGA, ELSET=WK_175
    4928,     4353,     5493
*SPRING, ELSET=WK_175

3.915786e-01
*ELEMENT, TYPE=SPRINGA, ELSET=WK_176
    4929,     4355,     5494
*SPRING, ELSET=WK_176

3.915786e-01
*ELEMENT, TYPE=SPRINGA, ELSET=WK_177
    4930,     4357,     5495
*SPRING, ELSET=WK_177

2.936839e-01
*ELEMENT, TYPE=SPRINGA, ELSET=WK_178
    4931,     4359,     5496
*SPRING, ELSET=WK_178

1.957893e-01
*ELEMENT, TYPE=SPRINGA, ELSET=WK_179
    4932,     4361,     5497
*SPRING, ELSET=WK_179

2.936839e-01
*ELEMENT, TYPE=SPRINGA, ELSET=WK_180
    4933,     4363,     5498
*SPRING, ELSET=WK_180

3.915786e-01
*ELEMENT, TYPE=SPRINGA, ELSET=WK_181
    4934,     4365,     5499
*SPRING, ELSET=WK_181

3.915786e-01
*ELEMENT, TYPE=SPRINGA, ELSET=WK_182
    4935,     4367,     5500
*SPRING, ELSET=WK_182

3.915786e-01
*ELEMENT, TYPE=SPRINGA, ELSET=WK_183
    4936,     4369,     5501
*SPRING, ELSET=WK_183

3.915786e-01
*ELEMENT, TYPE=SPRINGA, ELSET=WK_184
    4937,     4371,     5502
*SPRING, ELSET=WK_184

3.915786e-01
*ELEMENT, TYPE=SPRINGA, ELSET=WK_185
    4938,     4373,     5503
*SPRING, ELSET=WK_185

3.915786e-01
*ELEMENT, TYPE=SPRINGA, ELSET=WK_186
    4939,     4375,     5504
*SPRING, ELSET=WK_186

3.915786e-01
*ELEMENT, TYPE=SPRINGA, ELSET=WK_187
    4940,     4377,     5505
*SPRING, ELSET=WK_187

3.915786e-01
*ELEMENT, TYPE=SPRINGA, ELSET=WK_188
    4941,     4379,     5506
*SPRING, ELSET=WK_188

1.957893e-01
*ELEMENT, TYPE=SPRINGA, ELSET=WK_189
    4942,     4381,     5507
*SPRING, ELSET=WK_189

1.957893e-01
*ELEMENT, TYPE=SPRINGA, ELSET=WK_190
    4943,     4383,     5508
*SPRING, ELSET=WK_190

1.957893e-01
*ELEMENT, TYPE=SPRINGA, ELSET=WK_191
    4944,     4385,     5509
*SPRING, ELSET=WK_191

1.957893e-01
*ELEMENT, TYPE=SPRINGA, ELSET=WK_192
    4945,     4387,     5510
*SPRING, ELSET=WK_192

1.957893e-01
*ELEMENT, TYPE=SPRINGA, ELSET=WK_193
    4946,     4389,     5511
*SPRING, ELSET=WK_193

1.957893e-01
*ELEMENT, TYPE=SPRINGA, ELSET=WK_194
    4947,     4391,     5512
*SPRING, ELSET=WK_194

1.957893e-01
*ELEMENT, TYPE=SPRINGA, ELSET=WK_195
    4948,     4393,     5513
*SPRING, ELSET=WK_195

1.957893e-01
*ELEMENT, TYPE=SPRINGA, ELSET=WK_196
    4949,     4395,     5514
*SPRING, ELSET=WK_196

1.957893e-01
*ELEMENT, TYPE=SPRINGA, ELSET=WK_197
    4950,     4397,     5515
*SPRING, ELSET=WK_197

1.957893e-01
*ELEMENT, TYPE=SPRINGA, ELSET=WK_198
    4951,     4399,     5516
*SPRING, ELSET=WK_198

1.957893e-01
*ELEMENT, TYPE=SPRINGA, ELSET=WK_199
    4952,     4401,     5517
*SPRING, ELSET=WK_199

3.915786e-01
*ELEMENT, TYPE=SPRINGA, ELSET=WK_200
    4953,     4403,     5518
*SPRING, ELSET=WK_200

3.915786e-01
*ELEMENT, TYPE=SPRINGA, ELSET=WK_201
    4954,     4405,     5519
*SPRING, ELSET=WK_201

3.915786e-01
*ELEMENT, TYPE=SPRINGA, ELSET=WK_202
    4955,     4407,     5520
*SPRING, ELSET=WK_202

3.915786e-01
*ELEMENT, TYPE=SPRINGA, ELSET=WK_203
    4956,     4409,     5521
*SPRING, ELSET=WK_203

3.915786e-01
*ELEMENT, TYPE=SPRINGA, ELSET=WK_204
    4957,     4411,     5522
*SPRING, ELSET=WK_204

3.915786e-01
*ELEMENT, TYPE=SPRINGA, ELSET=WK_205
    4958,     4413,     5523
*SPRING, ELSET=WK_205

3.915786e-01
*ELEMENT, TYPE=SPRINGA, ELSET=WK_206
    4959,     4415,     5524
*SPRING, ELSET=WK_206

3.915786e-01
*ELEMENT, TYPE=SPRINGA, ELSET=WK_207
    4960,     4417,     5525
*SPRING, ELSET=WK_207

3.915786e-01
*ELEMENT, TYPE=SPRINGA, ELSET=WK_208
    4961,     4419,     5526
*SPRING, ELSET=WK_208

3.915786e-01
*ELEMENT, TYPE=SPRINGA, ELSET=WK_209
    4962,     4421,     5527
*SPRING, ELSET=WK_209

3.915786e-01
*ELEMENT, TYPE=SPRINGA, ELSET=WK_210
    4963,     4423,     5528
*SPRING, ELSET=WK_210

3.915786e-01
*ELEMENT, TYPE=SPRINGA, ELSET=WK_211
    4964,     4425,     5529
*SPRING, ELSET=WK_211

3.915786e-01
*ELEMENT, TYPE=SPRINGA, ELSET=WK_212
    4965,     4427,     5530
*SPRING, ELSET=WK_212

3.915786e-01
*ELEMENT, TYPE=SPRINGA, ELSET=WK_213
    4966,     4429,     5531
*SPRING, ELSET=WK_213

3.915786e-01
*ELEMENT, TYPE=SPRINGA, ELSET=WK_214
    4967,     4431,     5532
*SPRING, ELSET=WK_214

3.915786e-01
*ELEMENT, TYPE=SPRINGA, ELSET=WK_215
    4968,     4433,     5533
*SPRING, ELSET=WK_215

3.915786e-01
*ELEMENT, TYPE=SPRINGA, ELSET=WK_216
    4969,     4435,     5534
*SPRING, ELSET=WK_216

3.915786e-01
*ELEMENT, TYPE=SPRINGA, ELSET=WK_217
    4970,     4437,     5535
*SPRING, ELSET=WK_217

3.915786e-01
*ELEMENT, TYPE=SPRINGA, ELSET=WK_218
    4971,     4439,     5536
*SPRING, ELSET=WK_218

3.915786e-01
*ELEMENT, TYPE=SPRINGA, ELSET=WK_219
    4972,     4441,     5537
*SPRING, ELSET=WK_219

3.915786e-01
*ELEMENT, TYPE=SPRINGA, ELSET=WK_220
    4973,     4443,     5538
*SPRING, ELSET=WK_220

3.915786e-01
*ELEMENT, TYPE=SPRINGA, ELSET=WK_221
    4974,     4445,     5539
*SPRING, ELSET=WK_221

3.915786e-01
*ELEMENT, TYPE=SPRINGA, ELSET=WK_222
    4975,     4447,     5540
*SPRING, ELSET=WK_222

3.915786e-01
*ELEMENT, TYPE=SPRINGA, ELSET=WK_223
    4976,     4449,     5541
*SPRING, ELSET=WK_223

3.915786e-01
*ELEMENT, TYPE=SPRINGA, ELSET=WK_224
    4977,     4451,     5542
*SPRING, ELSET=WK_224

3.915786e-01
*ELEMENT, TYPE=SPRINGA, ELSET=WK_225
    4978,     4453,     5543
*SPRING, ELSET=WK_225

3.915786e-01
*ELEMENT, TYPE=SPRINGA, ELSET=WK_226
    4979,     4455,     5544
*SPRING, ELSET=WK_226

3.915786e-01
*ELEMENT, TYPE=SPRINGA, ELSET=WK_227
    4980,     4457,     5545
*SPRING, ELSET=WK_227

3.915786e-01
*ELEMENT, TYPE=SPRINGA, ELSET=WK_228
    4981,     4459,     5546
*SPRING, ELSET=WK_228

3.915786e-01
*ELEMENT, TYPE=SPRINGA, ELSET=WK_229
    4982,     4461,     5547
*SPRING, ELSET=WK_229

3.915786e-01
*ELEMENT, TYPE=SPRINGA, ELSET=WK_230
    4983,     4463,     5548
*SPRING, ELSET=WK_230

3.915786e-01
*ELEMENT, TYPE=SPRINGA, ELSET=WK_231
    4984,     4465,     5549
*SPRING, ELSET=WK_231

3.915786e-01
*ELEMENT, TYPE=SPRINGA, ELSET=WK_232
    4985,     4467,     5550
*SPRING, ELSET=WK_232

3.915786e-01
*ELEMENT, TYPE=SPRINGA, ELSET=WK_233
    4986,     4469,     5551
*SPRING, ELSET=WK_233

3.915786e-01
*ELEMENT, TYPE=SPRINGA, ELSET=WK_234
    4987,     4471,     5552
*SPRING, ELSET=WK_234

3.915786e-01
*ELEMENT, TYPE=SPRINGA, ELSET=WK_235
    4988,     4473,     5553
*SPRING, ELSET=WK_235

3.915786e-01
*ELEMENT, TYPE=SPRINGA, ELSET=WK_236
    4989,     4475,     5554
*SPRING, ELSET=WK_236

3.915786e-01
*ELEMENT, TYPE=SPRINGA, ELSET=WK_237
    4990,     4477,     5555
*SPRING, ELSET=WK_237

3.915786e-01
*ELEMENT, TYPE=SPRINGA, ELSET=WK_238
    4991,     4479,     5556
*SPRING, ELSET=WK_238

3.915786e-01
*ELEMENT, TYPE=SPRINGA, ELSET=WK_239
    4992,     4481,     5557
*SPRING, ELSET=WK_239

3.915786e-01
*ELEMENT, TYPE=SPRINGA, ELSET=WK_240
    4993,     4483,     5558
*SPRING, ELSET=WK_240

3.915786e-01
*ELEMENT, TYPE=SPRINGA, ELSET=WK_241
    4994,     4485,     5559
*SPRING, ELSET=WK_241

3.915786e-01
*ELEMENT, TYPE=SPRINGA, ELSET=WK_242
    4995,     4487,     5560
*SPRING, ELSET=WK_242

3.915786e-01
*ELEMENT, TYPE=SPRINGA, ELSET=WK_243
    4996,     4489,     5561
*SPRING, ELSET=WK_243

3.915786e-01
*ELEMENT, TYPE=SPRINGA, ELSET=WK_244
    4997,     4491,     5562
*SPRING, ELSET=WK_244

1.957893e-01
*ELEMENT, TYPE=SPRINGA, ELSET=WK_245
    4998,     4493,     5563
*SPRING, ELSET=WK_245

1.957893e-01
*ELEMENT, TYPE=SPRINGA, ELSET=WK_246
    4999,     4495,     5564
*SPRING, ELSET=WK_246

1.957893e-01
*ELEMENT, TYPE=SPRINGA, ELSET=WK_247
    5000,     4497,     5565
*SPRING, ELSET=WK_247

1.957893e-01
*ELEMENT, TYPE=SPRINGA, ELSET=WK_248
    5001,     4499,     5566
*SPRING, ELSET=WK_248

1.957893e-01
*BOUNDARY
GHOST_WINKLER, 1, 3, 0
