** Winkler foundation springs em dura_outer (excluindo perturbation_strip)
** Gerado automaticamente por foam_polymesh_to_ccx_inp.py
** k_winkler = 2.000e+05 Pa/m, 3901 springs
*NODE, NSET=GHOST_WINKLER
  101346,  1.76847411e-03, -1.76847411e-03,  0.00000000e+00
  101347,  1.93329918e-03, -1.58661764e-03,  0.00000000e+00
  101348,  2.07950553e-03, -1.38948118e-03,  0.00000000e+00
  101349,  2.20568510e-03, -1.17896326e-03,  0.00000000e+00
  101350,  2.31062272e-03, -9.57091277e-04,  0.00000000e+00
  101351,  2.39330779e-03, -7.26001986e-04,  0.00000000e+00
  101352,  2.45294399e-03, -4.87920900e-04,  0.00000000e+00
  101353,  2.48895700e-03, -2.45140870e-04,  0.00000000e+00
  101354,  2.50100000e-03,  2.22133423e-19,  0.00000000e+00
  101355,  2.48895700e-03,  2.45140870e-04,  0.00000000e+00
  101356,  2.45294399e-03,  4.87920900e-04,  0.00000000e+00
  101357,  2.39330779e-03,  7.26001986e-04,  0.00000000e+00
  101358,  2.31062272e-03,  9.57091277e-04,  0.00000000e+00
  101359,  2.20568510e-03,  1.17896326e-03,  0.00000000e+00
  101360,  2.07950553e-03,  1.38948118e-03,  0.00000000e+00
  101361,  1.93329918e-03,  1.58661764e-03,  0.00000000e+00
  101362,  1.76847411e-03,  1.76847411e-03,  0.00000000e+00
  101363,  1.76847411e-03, -1.76847411e-03,  5.00000000e-04
  101364,  1.93329918e-03, -1.58661764e-03,  5.00000000e-04
  101365,  2.07950553e-03, -1.38948118e-03,  5.00000000e-04
  101366,  2.20568510e-03, -1.17896326e-03,  5.00000000e-04
  101367,  2.31062272e-03, -9.57091277e-04,  5.00000000e-04
  101368,  2.39330779e-03, -7.26001986e-04,  5.00000000e-04
  101369,  2.45294399e-03, -4.87920900e-04,  5.00000000e-04
  101370,  2.48895700e-03, -2.45140870e-04,  5.00000000e-04
  101371,  2.50100000e-03,  2.22133423e-19,  5.00000000e-04
  101372,  2.48895700e-03,  2.45140870e-04,  5.00000000e-04
  101373,  2.45294399e-03,  4.87920900e-04,  5.00000000e-04
  101374,  2.39330779e-03,  7.26001986e-04,  5.00000000e-04
  101375,  2.31062272e-03,  9.57091277e-04,  5.00000000e-04
  101376,  2.20568510e-03,  1.17896326e-03,  5.00000000e-04
  101377,  2.07950553e-03,  1.38948118e-03,  5.00000000e-04
  101378,  1.93329918e-03,  1.58661764e-03,  5.00000000e-04
  101379,  1.76847411e-03,  1.76847411e-03,  5.00000000e-04
  101380,  1.76847411e-03, -1.76847411e-03,  1.00000000e-03
  101381,  1.93329918e-03, -1.58661764e-03,  1.00000000e-03
  101382,  2.07950553e-03, -1.38948118e-03,  1.00000000e-03
  101383,  2.20568510e-03, -1.17896326e-03,  1.00000000e-03
  101384,  2.31062272e-03, -9.57091277e-04,  1.00000000e-03
  101385,  2.39330779e-03, -7.26001986e-04,  1.00000000e-03
  101386,  2.45294399e-03, -4.87920900e-04,  1.00000000e-03
  101387,  2.48895700e-03, -2.45140870e-04,  1.00000000e-03
  101388,  2.50100000e-03,  2.22133423e-19,  1.00000000e-03
  101389,  2.48895700e-03,  2.45140870e-04,  1.00000000e-03
  101390,  2.45294399e-03,  4.87920900e-04,  1.00000000e-03
  101391,  2.39330779e-03,  7.26001986e-04,  1.00000000e-03
  101392,  2.31062272e-03,  9.57091277e-04,  1.00000000e-03
  101393,  2.20568510e-03,  1.17896326e-03,  1.00000000e-03
  101394,  2.07950553e-03,  1.38948118e-03,  1.00000000e-03
  101395,  1.93329918e-03,  1.58661764e-03,  1.00000000e-03
  101396,  1.76847411e-03,  1.76847411e-03,  1.00000000e-03
  101397,  1.76847411e-03, -1.76847411e-03,  1.50000000e-03
  101398,  1.93329918e-03, -1.58661764e-03,  1.50000000e-03
  101399,  2.07950553e-03, -1.38948118e-03,  1.50000000e-03
  101400,  2.20568510e-03, -1.17896326e-03,  1.50000000e-03
  101401,  2.31062272e-03, -9.57091277e-04,  1.50000000e-03
  101402,  2.39330779e-03, -7.26001986e-04,  1.50000000e-03
  101403,  2.45294399e-03, -4.87920900e-04,  1.50000000e-03
  101404,  2.48895700e-03, -2.45140870e-04,  1.50000000e-03
  101405,  2.50100000e-03,  2.22133423e-19,  1.50000000e-03
  101406,  2.48895700e-03,  2.45140870e-04,  1.50000000e-03
  101407,  2.45294399e-03,  4.87920900e-04,  1.50000000e-03
  101408,  2.39330779e-03,  7.26001986e-04,  1.50000000e-03
  101409,  2.31062272e-03,  9.57091277e-04,  1.50000000e-03
  101410,  2.20568510e-03,  1.17896326e-03,  1.50000000e-03
  101411,  2.07950553e-03,  1.38948118e-03,  1.50000000e-03
  101412,  1.93329918e-03,  1.58661764e-03,  1.50000000e-03
  101413,  1.76847411e-03,  1.76847411e-03,  1.50000000e-03
  101414,  1.76847411e-03, -1.76847411e-03,  2.00000000e-03
  101415,  1.93329918e-03, -1.58661764e-03,  2.00000000e-03
  101416,  2.07950553e-03, -1.38948118e-03,  2.00000000e-03
  101417,  2.20568510e-03, -1.17896326e-03,  2.00000000e-03
  101418,  2.31062272e-03, -9.57091277e-04,  2.00000000e-03
  101419,  2.39330779e-03, -7.26001986e-04,  2.00000000e-03
  101420,  2.45294399e-03, -4.87920900e-04,  2.00000000e-03
  101421,  2.48895700e-03, -2.45140870e-04,  2.00000000e-03
  101422,  2.50100000e-03,  2.22133423e-19,  2.00000000e-03
  101423,  2.48895700e-03,  2.45140870e-04,  2.00000000e-03
  101424,  2.45294399e-03,  4.87920900e-04,  2.00000000e-03
  101425,  2.39330779e-03,  7.26001986e-04,  2.00000000e-03
  101426,  2.31062272e-03,  9.57091277e-04,  2.00000000e-03
  101427,  2.20568510e-03,  1.17896326e-03,  2.00000000e-03
  101428,  2.07950553e-03,  1.38948118e-03,  2.00000000e-03
  101429,  1.93329918e-03,  1.58661764e-03,  2.00000000e-03
  101430,  1.76847411e-03,  1.76847411e-03,  2.00000000e-03
  101431,  1.76847411e-03, -1.76847411e-03,  2.50000000e-03
  101432,  1.93329918e-03, -1.58661764e-03,  2.50000000e-03
  101433,  2.07950553e-03, -1.38948118e-03,  2.50000000e-03
  101434,  2.20568510e-03, -1.17896326e-03,  2.50000000e-03
  101435,  2.31062272e-03, -9.57091277e-04,  2.50000000e-03
  101436,  2.39330779e-03, -7.26001986e-04,  2.50000000e-03
  101437,  2.45294399e-03, -4.87920900e-04,  2.50000000e-03
  101438,  2.48895700e-03, -2.45140870e-04,  2.50000000e-03
  101439,  2.50100000e-03,  2.22133423e-19,  2.50000000e-03
  101440,  2.48895700e-03,  2.45140870e-04,  2.50000000e-03
  101441,  2.45294399e-03,  4.87920900e-04,  2.50000000e-03
  101442,  2.39330779e-03,  7.26001986e-04,  2.50000000e-03
  101443,  2.31062272e-03,  9.57091277e-04,  2.50000000e-03
  101444,  2.20568510e-03,  1.17896326e-03,  2.50000000e-03
  101445,  2.07950553e-03,  1.38948118e-03,  2.50000000e-03
  101446,  1.93329918e-03,  1.58661764e-03,  2.50000000e-03
  101447,  1.76847411e-03,  1.76847411e-03,  2.50000000e-03
  101448,  1.76847411e-03, -1.76847411e-03,  3.00000000e-03
  101449,  1.93329918e-03, -1.58661764e-03,  3.00000000e-03
  101450,  2.07950553e-03, -1.38948118e-03,  3.00000000e-03
  101451,  2.20568510e-03, -1.17896326e-03,  3.00000000e-03
  101452,  2.31062272e-03, -9.57091277e-04,  3.00000000e-03
  101453,  2.39330779e-03, -7.26001986e-04,  3.00000000e-03
  101454,  2.45294399e-03, -4.87920900e-04,  3.00000000e-03
  101455,  2.48895700e-03, -2.45140870e-04,  3.00000000e-03
  101456,  2.50100000e-03,  2.22133423e-19,  3.00000000e-03
  101457,  2.48895700e-03,  2.45140870e-04,  3.00000000e-03
  101458,  2.45294399e-03,  4.87920900e-04,  3.00000000e-03
  101459,  2.39330779e-03,  7.26001986e-04,  3.00000000e-03
  101460,  2.31062272e-03,  9.57091277e-04,  3.00000000e-03
  101461,  2.20568510e-03,  1.17896326e-03,  3.00000000e-03
  101462,  2.07950553e-03,  1.38948118e-03,  3.00000000e-03
  101463,  1.93329918e-03,  1.58661764e-03,  3.00000000e-03
  101464,  1.76847411e-03,  1.76847411e-03,  3.00000000e-03
  101465,  1.76847411e-03, -1.76847411e-03,  3.50000000e-03
  101466,  1.93329918e-03, -1.58661764e-03,  3.50000000e-03
  101467,  2.07950553e-03, -1.38948118e-03,  3.50000000e-03
  101468,  2.20568510e-03, -1.17896326e-03,  3.50000000e-03
  101469,  2.31062272e-03, -9.57091277e-04,  3.50000000e-03
  101470,  2.39330779e-03, -7.26001986e-04,  3.50000000e-03
  101471,  2.45294399e-03, -4.87920900e-04,  3.50000000e-03
  101472,  2.48895700e-03, -2.45140870e-04,  3.50000000e-03
  101473,  2.50100000e-03,  2.22133423e-19,  3.50000000e-03
  101474,  2.48895700e-03,  2.45140870e-04,  3.50000000e-03
  101475,  2.45294399e-03,  4.87920900e-04,  3.50000000e-03
  101476,  2.39330779e-03,  7.26001986e-04,  3.50000000e-03
  101477,  2.31062272e-03,  9.57091277e-04,  3.50000000e-03
  101478,  2.20568510e-03,  1.17896326e-03,  3.50000000e-03
  101479,  2.07950553e-03,  1.38948118e-03,  3.50000000e-03
  101480,  1.93329918e-03,  1.58661764e-03,  3.50000000e-03
  101481,  1.76847411e-03,  1.76847411e-03,  3.50000000e-03
  101482,  1.76847411e-03, -1.76847411e-03,  4.00000000e-03
  101483,  1.93329918e-03, -1.58661764e-03,  4.00000000e-03
  101484,  2.07950553e-03, -1.38948118e-03,  4.00000000e-03
  101485,  2.20568510e-03, -1.17896326e-03,  4.00000000e-03
  101486,  2.31062272e-03, -9.57091277e-04,  4.00000000e-03
  101487,  2.39330779e-03, -7.26001986e-04,  4.00000000e-03
  101488,  2.45294399e-03, -4.87920900e-04,  4.00000000e-03
  101489,  2.48895700e-03, -2.45140870e-04,  4.00000000e-03
  101490,  2.50100000e-03,  2.22133423e-19,  4.00000000e-03
  101491,  2.48895700e-03,  2.45140870e-04,  4.00000000e-03
  101492,  2.45294399e-03,  4.87920900e-04,  4.00000000e-03
  101493,  2.39330779e-03,  7.26001986e-04,  4.00000000e-03
  101494,  2.31062272e-03,  9.57091277e-04,  4.00000000e-03
  101495,  2.20568510e-03,  1.17896326e-03,  4.00000000e-03
  101496,  2.07950553e-03,  1.38948118e-03,  4.00000000e-03
  101497,  1.93329918e-03,  1.58661764e-03,  4.00000000e-03
  101498,  1.76847411e-03,  1.76847411e-03,  4.00000000e-03
  101499,  1.76847411e-03, -1.76847411e-03,  4.50000000e-03
  101500,  1.93329918e-03, -1.58661764e-03,  4.50000000e-03
  101501,  2.07950553e-03, -1.38948118e-03,  4.50000000e-03
  101502,  2.20568510e-03, -1.17896326e-03,  4.50000000e-03
  101503,  2.31062272e-03, -9.57091277e-04,  4.50000000e-03
  101504,  2.39330779e-03, -7.26001986e-04,  4.50000000e-03
  101505,  2.45294399e-03, -4.87920900e-04,  4.50000000e-03
  101506,  2.48895700e-03, -2.45140870e-04,  4.50000000e-03
  101507,  2.50100000e-03,  2.22133423e-19,  4.50000000e-03
  101508,  2.48895700e-03,  2.45140870e-04,  4.50000000e-03
  101509,  2.45294399e-03,  4.87920900e-04,  4.50000000e-03
  101510,  2.39330779e-03,  7.26001986e-04,  4.50000000e-03
  101511,  2.31062272e-03,  9.57091277e-04,  4.50000000e-03
  101512,  2.20568510e-03,  1.17896326e-03,  4.50000000e-03
  101513,  2.07950553e-03,  1.38948118e-03,  4.50000000e-03
  101514,  1.93329918e-03,  1.58661764e-03,  4.50000000e-03
  101515,  1.76847411e-03,  1.76847411e-03,  4.50000000e-03
  101516,  1.76847411e-03, -1.76847411e-03,  5.00000000e-03
  101517,  1.93329918e-03, -1.58661764e-03,  5.00000000e-03
  101518,  2.07950553e-03, -1.38948118e-03,  5.00000000e-03
  101519,  2.20568510e-03, -1.17896326e-03,  5.00000000e-03
  101520,  2.31062272e-03, -9.57091277e-04,  5.00000000e-03
  101521,  2.39330779e-03, -7.26001986e-04,  5.00000000e-03
  101522,  2.45294399e-03, -4.87920900e-04,  5.00000000e-03
  101523,  2.48895700e-03, -2.45140870e-04,  5.00000000e-03
  101524,  2.50100000e-03,  2.22133423e-19,  5.00000000e-03
  101525,  2.48895700e-03,  2.45140870e-04,  5.00000000e-03
  101526,  2.45294399e-03,  4.87920900e-04,  5.00000000e-03
  101527,  2.39330779e-03,  7.26001986e-04,  5.00000000e-03
  101528,  2.31062272e-03,  9.57091277e-04,  5.00000000e-03
  101529,  2.20568510e-03,  1.17896326e-03,  5.00000000e-03
  101530,  2.07950553e-03,  1.38948118e-03,  5.00000000e-03
  101531,  1.93329918e-03,  1.58661764e-03,  5.00000000e-03
  101532,  1.76847411e-03,  1.76847411e-03,  5.00000000e-03
  101533,  1.76847411e-03, -1.76847411e-03,  5.50000000e-03
  101534,  1.93329918e-03, -1.58661764e-03,  5.50000000e-03
  101535,  2.07950553e-03, -1.38948118e-03,  5.50000000e-03
  101536,  2.20568510e-03, -1.17896326e-03,  5.50000000e-03
  101537,  2.31062272e-03, -9.57091277e-04,  5.50000000e-03
  101538,  2.39330779e-03, -7.26001986e-04,  5.50000000e-03
  101539,  2.45294399e-03, -4.87920900e-04,  5.50000000e-03
  101540,  2.48895700e-03, -2.45140870e-04,  5.50000000e-03
  101541,  2.50100000e-03,  2.22133423e-19,  5.50000000e-03
  101542,  2.48895700e-03,  2.45140870e-04,  5.50000000e-03
  101543,  2.45294399e-03,  4.87920900e-04,  5.50000000e-03
  101544,  2.39330779e-03,  7.26001986e-04,  5.50000000e-03
  101545,  2.31062272e-03,  9.57091277e-04,  5.50000000e-03
  101546,  2.20568510e-03,  1.17896326e-03,  5.50000000e-03
  101547,  2.07950553e-03,  1.38948118e-03,  5.50000000e-03
  101548,  1.93329918e-03,  1.58661764e-03,  5.50000000e-03
  101549,  1.76847411e-03,  1.76847411e-03,  5.50000000e-03
  101550,  1.76847411e-03, -1.76847411e-03,  6.00000000e-03
  101551,  1.93329918e-03, -1.58661764e-03,  6.00000000e-03
  101552,  2.07950553e-03, -1.38948118e-03,  6.00000000e-03
  101553,  2.20568510e-03, -1.17896326e-03,  6.00000000e-03
  101554,  2.31062272e-03, -9.57091277e-04,  6.00000000e-03
  101555,  2.39330779e-03, -7.26001986e-04,  6.00000000e-03
  101556,  2.45294399e-03, -4.87920900e-04,  6.00000000e-03
  101557,  2.48895700e-03, -2.45140870e-04,  6.00000000e-03
  101558,  2.50100000e-03,  2.22133423e-19,  6.00000000e-03
  101559,  2.48895700e-03,  2.45140870e-04,  6.00000000e-03
  101560,  2.45294399e-03,  4.87920900e-04,  6.00000000e-03
  101561,  2.39330779e-03,  7.26001986e-04,  6.00000000e-03
  101562,  2.31062272e-03,  9.57091277e-04,  6.00000000e-03
  101563,  2.20568510e-03,  1.17896326e-03,  6.00000000e-03
  101564,  2.07950553e-03,  1.38948118e-03,  6.00000000e-03
  101565,  1.93329918e-03,  1.58661764e-03,  6.00000000e-03
  101566,  1.76847411e-03,  1.76847411e-03,  6.00000000e-03
  101567,  1.76847411e-03, -1.76847411e-03,  6.50000000e-03
  101568,  1.93329918e-03, -1.58661764e-03,  6.50000000e-03
  101569,  2.07950553e-03, -1.38948118e-03,  6.50000000e-03
  101570,  2.20568510e-03, -1.17896326e-03,  6.50000000e-03
  101571,  2.31062272e-03, -9.57091277e-04,  6.50000000e-03
  101572,  2.39330779e-03, -7.26001986e-04,  6.50000000e-03
  101573,  2.45294399e-03, -4.87920900e-04,  6.50000000e-03
  101574,  2.48895700e-03, -2.45140870e-04,  6.50000000e-03
  101575,  2.50100000e-03,  2.22133423e-19,  6.50000000e-03
  101576,  2.48895700e-03,  2.45140870e-04,  6.50000000e-03
  101577,  2.45294399e-03,  4.87920900e-04,  6.50000000e-03
  101578,  2.39330779e-03,  7.26001986e-04,  6.50000000e-03
  101579,  2.31062272e-03,  9.57091277e-04,  6.50000000e-03
  101580,  2.20568510e-03,  1.17896326e-03,  6.50000000e-03
  101581,  2.07950553e-03,  1.38948118e-03,  6.50000000e-03
  101582,  1.93329918e-03,  1.58661764e-03,  6.50000000e-03
  101583,  1.76847411e-03,  1.76847411e-03,  6.50000000e-03
  101584,  1.76847411e-03, -1.76847411e-03,  7.00000000e-03
  101585,  1.93329918e-03, -1.58661764e-03,  7.00000000e-03
  101586,  2.07950553e-03, -1.38948118e-03,  7.00000000e-03
  101587,  2.20568510e-03, -1.17896326e-03,  7.00000000e-03
  101588,  2.31062272e-03, -9.57091277e-04,  7.00000000e-03
  101589,  2.39330779e-03, -7.26001986e-04,  7.00000000e-03
  101590,  2.45294399e-03, -4.87920900e-04,  7.00000000e-03
  101591,  2.48895700e-03, -2.45140870e-04,  7.00000000e-03
  101592,  2.50100000e-03,  2.22133423e-19,  7.00000000e-03
  101593,  2.48895700e-03,  2.45140870e-04,  7.00000000e-03
  101594,  2.45294399e-03,  4.87920900e-04,  7.00000000e-03
  101595,  2.39330779e-03,  7.26001986e-04,  7.00000000e-03
  101596,  2.31062272e-03,  9.57091277e-04,  7.00000000e-03
  101597,  2.20568510e-03,  1.17896326e-03,  7.00000000e-03
  101598,  2.07950553e-03,  1.38948118e-03,  7.00000000e-03
  101599,  1.93329918e-03,  1.58661764e-03,  7.00000000e-03
  101600,  1.76847411e-03,  1.76847411e-03,  7.00000000e-03
  101601,  1.76847411e-03, -1.76847411e-03,  7.50000000e-03
  101602,  1.93329918e-03, -1.58661764e-03,  7.50000000e-03
  101603,  2.07950553e-03, -1.38948118e-03,  7.50000000e-03
  101604,  2.20568510e-03, -1.17896326e-03,  7.50000000e-03
  101605,  2.31062272e-03, -9.57091277e-04,  7.50000000e-03
  101606,  2.39330779e-03, -7.26001986e-04,  7.50000000e-03
  101607,  2.45294399e-03, -4.87920900e-04,  7.50000000e-03
  101608,  2.48895700e-03, -2.45140870e-04,  7.50000000e-03
  101609,  2.50100000e-03,  2.22133423e-19,  7.50000000e-03
  101610,  2.48895700e-03,  2.45140870e-04,  7.50000000e-03
  101611,  2.45294399e-03,  4.87920900e-04,  7.50000000e-03
  101612,  2.39330779e-03,  7.26001986e-04,  7.50000000e-03
  101613,  2.31062272e-03,  9.57091277e-04,  7.50000000e-03
  101614,  2.20568510e-03,  1.17896326e-03,  7.50000000e-03
  101615,  2.07950553e-03,  1.38948118e-03,  7.50000000e-03
  101616,  1.93329918e-03,  1.58661764e-03,  7.50000000e-03
  101617,  1.76847411e-03,  1.76847411e-03,  7.50000000e-03
  101618,  1.76847411e-03, -1.76847411e-03,  8.00000000e-03
  101619,  1.93329918e-03, -1.58661764e-03,  8.00000000e-03
  101620,  2.07950553e-03, -1.38948118e-03,  8.00000000e-03
  101621,  2.20568510e-03, -1.17896326e-03,  8.00000000e-03
  101622,  2.31062272e-03, -9.57091277e-04,  8.00000000e-03
  101623,  2.39330779e-03, -7.26001986e-04,  8.00000000e-03
  101624,  2.45294399e-03, -4.87920900e-04,  8.00000000e-03
  101625,  2.48895700e-03, -2.45140870e-04,  8.00000000e-03
  101626,  2.50100000e-03,  2.22133423e-19,  8.00000000e-03
  101627,  2.48895700e-03,  2.45140870e-04,  8.00000000e-03
  101628,  2.45294399e-03,  4.87920900e-04,  8.00000000e-03
  101629,  2.39330779e-03,  7.26001986e-04,  8.00000000e-03
  101630,  2.31062272e-03,  9.57091277e-04,  8.00000000e-03
  101631,  2.20568510e-03,  1.17896326e-03,  8.00000000e-03
  101632,  2.07950553e-03,  1.38948118e-03,  8.00000000e-03
  101633,  1.93329918e-03,  1.58661764e-03,  8.00000000e-03
  101634,  1.76847411e-03,  1.76847411e-03,  8.00000000e-03
  101635,  1.76847411e-03, -1.76847411e-03,  8.50000000e-03
  101636,  1.93329918e-03, -1.58661764e-03,  8.50000000e-03
  101637,  2.07950553e-03, -1.38948118e-03,  8.50000000e-03
  101638,  2.20568510e-03, -1.17896326e-03,  8.50000000e-03
  101639,  2.31062272e-03, -9.57091277e-04,  8.50000000e-03
  101640,  2.39330779e-03, -7.26001986e-04,  8.50000000e-03
  101641,  2.45294399e-03, -4.87920900e-04,  8.50000000e-03
  101642,  2.48895700e-03, -2.45140870e-04,  8.50000000e-03
  101643,  2.50100000e-03,  2.22133423e-19,  8.50000000e-03
  101644,  2.48895700e-03,  2.45140870e-04,  8.50000000e-03
  101645,  2.45294399e-03,  4.87920900e-04,  8.50000000e-03
  101646,  2.39330779e-03,  7.26001986e-04,  8.50000000e-03
  101647,  2.31062272e-03,  9.57091277e-04,  8.50000000e-03
  101648,  2.20568510e-03,  1.17896326e-03,  8.50000000e-03
  101649,  2.07950553e-03,  1.38948118e-03,  8.50000000e-03
  101650,  1.93329918e-03,  1.58661764e-03,  8.50000000e-03
  101651,  1.76847411e-03,  1.76847411e-03,  8.50000000e-03
  101652,  1.76847411e-03, -1.76847411e-03,  9.00000000e-03
  101653,  1.93329918e-03, -1.58661764e-03,  9.00000000e-03
  101654,  2.07950553e-03, -1.38948118e-03,  9.00000000e-03
  101655,  2.20568510e-03, -1.17896326e-03,  9.00000000e-03
  101656,  2.31062272e-03, -9.57091277e-04,  9.00000000e-03
  101657,  2.39330779e-03, -7.26001986e-04,  9.00000000e-03
  101658,  2.45294399e-03, -4.87920900e-04,  9.00000000e-03
  101659,  2.48895700e-03, -2.45140870e-04,  9.00000000e-03
  101660,  2.50100000e-03,  2.22133423e-19,  9.00000000e-03
  101661,  2.48895700e-03,  2.45140870e-04,  9.00000000e-03
  101662,  2.45294399e-03,  4.87920900e-04,  9.00000000e-03
  101663,  2.39330779e-03,  7.26001986e-04,  9.00000000e-03
  101664,  2.31062272e-03,  9.57091277e-04,  9.00000000e-03
  101665,  2.20568510e-03,  1.17896326e-03,  9.00000000e-03
  101666,  2.07950553e-03,  1.38948118e-03,  9.00000000e-03
  101667,  1.93329918e-03,  1.58661764e-03,  9.00000000e-03
  101668,  1.76847411e-03,  1.76847411e-03,  9.00000000e-03
  101669,  1.76847411e-03, -1.76847411e-03,  9.50000000e-03
  101670,  1.93329918e-03, -1.58661764e-03,  9.50000000e-03
  101671,  2.07950553e-03, -1.38948118e-03,  9.50000000e-03
  101672,  2.20568510e-03, -1.17896326e-03,  9.50000000e-03
  101673,  2.31062272e-03, -9.57091277e-04,  9.50000000e-03
  101674,  2.39330779e-03, -7.26001986e-04,  9.50000000e-03
  101675,  2.45294399e-03, -4.87920900e-04,  9.50000000e-03
  101676,  2.48895700e-03, -2.45140870e-04,  9.50000000e-03
  101677,  2.50100000e-03,  2.22133423e-19,  9.50000000e-03
  101678,  2.48895700e-03,  2.45140870e-04,  9.50000000e-03
  101679,  2.45294399e-03,  4.87920900e-04,  9.50000000e-03
  101680,  2.39330779e-03,  7.26001986e-04,  9.50000000e-03
  101681,  2.31062272e-03,  9.57091277e-04,  9.50000000e-03
  101682,  2.20568510e-03,  1.17896326e-03,  9.50000000e-03
  101683,  2.07950553e-03,  1.38948118e-03,  9.50000000e-03
  101684,  1.93329918e-03,  1.58661764e-03,  9.50000000e-03
  101685,  1.76847411e-03,  1.76847411e-03,  9.50000000e-03
  101686,  1.76847411e-03, -1.76847411e-03,  1.00000000e-02
  101687,  1.93329918e-03, -1.58661764e-03,  1.00000000e-02
  101688,  2.07950553e-03, -1.38948118e-03,  1.00000000e-02
  101689,  2.20568510e-03, -1.17896326e-03,  1.00000000e-02
  101690,  2.31062272e-03, -9.57091277e-04,  1.00000000e-02
  101691,  2.39330779e-03, -7.26001986e-04,  1.00000000e-02
  101692,  2.45294399e-03, -4.87920900e-04,  1.00000000e-02
  101693,  2.48895700e-03, -2.45140870e-04,  1.00000000e-02
  101694,  2.50100000e-03,  2.22133423e-19,  1.00000000e-02
  101695,  2.48895700e-03,  2.45140870e-04,  1.00000000e-02
  101696,  2.45294399e-03,  4.87920900e-04,  1.00000000e-02
  101697,  2.39330779e-03,  7.26001986e-04,  1.00000000e-02
  101698,  2.31062272e-03,  9.57091277e-04,  1.00000000e-02
  101699,  2.20568510e-03,  1.17896326e-03,  1.00000000e-02
  101700,  2.07950553e-03,  1.38948118e-03,  1.00000000e-02
  101701,  1.93329918e-03,  1.58661764e-03,  1.00000000e-02
  101702,  1.76847411e-03,  1.76847411e-03,  1.00000000e-02
  101703,  1.76847411e-03, -1.76847411e-03,  1.05000000e-02
  101704,  1.93329918e-03, -1.58661764e-03,  1.05000000e-02
  101705,  2.07950553e-03, -1.38948118e-03,  1.05000000e-02
  101706,  2.20568510e-03, -1.17896326e-03,  1.05000000e-02
  101707,  2.31062272e-03, -9.57091277e-04,  1.05000000e-02
  101708,  2.39330779e-03, -7.26001986e-04,  1.05000000e-02
  101709,  2.45294399e-03, -4.87920900e-04,  1.05000000e-02
  101710,  2.48895700e-03, -2.45140870e-04,  1.05000000e-02
  101711,  2.50100000e-03,  2.22133423e-19,  1.05000000e-02
  101712,  2.48895700e-03,  2.45140870e-04,  1.05000000e-02
  101713,  2.45294399e-03,  4.87920900e-04,  1.05000000e-02
  101714,  2.39330779e-03,  7.26001986e-04,  1.05000000e-02
  101715,  2.31062272e-03,  9.57091277e-04,  1.05000000e-02
  101716,  2.20568510e-03,  1.17896326e-03,  1.05000000e-02
  101717,  2.07950553e-03,  1.38948118e-03,  1.05000000e-02
  101718,  1.93329918e-03,  1.58661764e-03,  1.05000000e-02
  101719,  1.76847411e-03,  1.76847411e-03,  1.05000000e-02
  101720,  1.76847411e-03, -1.76847411e-03,  1.10000000e-02
  101721,  1.93329918e-03, -1.58661764e-03,  1.10000000e-02
  101722,  2.07950553e-03, -1.38948118e-03,  1.10000000e-02
  101723,  2.20568510e-03, -1.17896326e-03,  1.10000000e-02
  101724,  2.31062272e-03, -9.57091277e-04,  1.10000000e-02
  101725,  2.39330779e-03, -7.26001986e-04,  1.10000000e-02
  101726,  2.45294399e-03, -4.87920900e-04,  1.10000000e-02
  101727,  2.48895700e-03, -2.45140870e-04,  1.10000000e-02
  101728,  2.50100000e-03,  2.22133423e-19,  1.10000000e-02
  101729,  2.48895700e-03,  2.45140870e-04,  1.10000000e-02
  101730,  2.45294399e-03,  4.87920900e-04,  1.10000000e-02
  101731,  2.39330779e-03,  7.26001986e-04,  1.10000000e-02
  101732,  2.31062272e-03,  9.57091277e-04,  1.10000000e-02
  101733,  2.20568510e-03,  1.17896326e-03,  1.10000000e-02
  101734,  2.07950553e-03,  1.38948118e-03,  1.10000000e-02
  101735,  1.93329918e-03,  1.58661764e-03,  1.10000000e-02
  101736,  1.76847411e-03,  1.76847411e-03,  1.10000000e-02
  101737,  1.76847411e-03, -1.76847411e-03,  1.15000000e-02
  101738,  1.93329918e-03, -1.58661764e-03,  1.15000000e-02
  101739,  2.07950553e-03, -1.38948118e-03,  1.15000000e-02
  101740,  2.20568510e-03, -1.17896326e-03,  1.15000000e-02
  101741,  2.31062272e-03, -9.57091277e-04,  1.15000000e-02
  101742,  2.39330779e-03, -7.26001986e-04,  1.15000000e-02
  101743,  2.45294399e-03, -4.87920900e-04,  1.15000000e-02
  101744,  2.48895700e-03, -2.45140870e-04,  1.15000000e-02
  101745,  2.50100000e-03,  2.22133423e-19,  1.15000000e-02
  101746,  2.48895700e-03,  2.45140870e-04,  1.15000000e-02
  101747,  2.45294399e-03,  4.87920900e-04,  1.15000000e-02
  101748,  2.39330779e-03,  7.26001986e-04,  1.15000000e-02
  101749,  2.31062272e-03,  9.57091277e-04,  1.15000000e-02
  101750,  2.20568510e-03,  1.17896326e-03,  1.15000000e-02
  101751,  2.07950553e-03,  1.38948118e-03,  1.15000000e-02
  101752,  1.93329918e-03,  1.58661764e-03,  1.15000000e-02
  101753,  1.76847411e-03,  1.76847411e-03,  1.15000000e-02
  101754,  1.76847411e-03, -1.76847411e-03,  1.20000000e-02
  101755,  1.93329918e-03, -1.58661764e-03,  1.20000000e-02
  101756,  2.07950553e-03, -1.38948118e-03,  1.20000000e-02
  101757,  2.20568510e-03, -1.17896326e-03,  1.20000000e-02
  101758,  2.31062272e-03, -9.57091277e-04,  1.20000000e-02
  101759,  2.39330779e-03, -7.26001986e-04,  1.20000000e-02
  101760,  2.45294399e-03, -4.87920900e-04,  1.20000000e-02
  101761,  2.48895700e-03, -2.45140870e-04,  1.20000000e-02
  101762,  2.50100000e-03,  2.22133423e-19,  1.20000000e-02
  101763,  2.48895700e-03,  2.45140870e-04,  1.20000000e-02
  101764,  2.45294399e-03,  4.87920900e-04,  1.20000000e-02
  101765,  2.39330779e-03,  7.26001986e-04,  1.20000000e-02
  101766,  2.31062272e-03,  9.57091277e-04,  1.20000000e-02
  101767,  2.20568510e-03,  1.17896326e-03,  1.20000000e-02
  101768,  2.07950553e-03,  1.38948118e-03,  1.20000000e-02
  101769,  1.93329918e-03,  1.58661764e-03,  1.20000000e-02
  101770,  1.76847411e-03,  1.76847411e-03,  1.20000000e-02
  101771,  1.76847411e-03, -1.76847411e-03,  1.25000000e-02
  101772,  1.93329918e-03, -1.58661764e-03,  1.25000000e-02
  101773,  2.07950553e-03, -1.38948118e-03,  1.25000000e-02
  101774,  2.20568510e-03, -1.17896326e-03,  1.25000000e-02
  101775,  2.31062272e-03, -9.57091277e-04,  1.25000000e-02
  101776,  2.39330779e-03, -7.26001986e-04,  1.25000000e-02
  101777,  2.45294399e-03, -4.87920900e-04,  1.25000000e-02
  101778,  2.48895700e-03, -2.45140870e-04,  1.25000000e-02
  101779,  2.50100000e-03,  2.22133423e-19,  1.25000000e-02
  101780,  2.48895700e-03,  2.45140870e-04,  1.25000000e-02
  101781,  2.45294399e-03,  4.87920900e-04,  1.25000000e-02
  101782,  2.39330779e-03,  7.26001986e-04,  1.25000000e-02
  101783,  2.31062272e-03,  9.57091277e-04,  1.25000000e-02
  101784,  2.20568510e-03,  1.17896326e-03,  1.25000000e-02
  101785,  2.07950553e-03,  1.38948118e-03,  1.25000000e-02
  101786,  1.93329918e-03,  1.58661764e-03,  1.25000000e-02
  101787,  1.76847411e-03,  1.76847411e-03,  1.25000000e-02
  101788,  1.76847411e-03, -1.76847411e-03,  1.30000000e-02
  101789,  1.93329918e-03, -1.58661764e-03,  1.30000000e-02
  101790,  2.07950553e-03, -1.38948118e-03,  1.30000000e-02
  101791,  2.20568510e-03, -1.17896326e-03,  1.30000000e-02
  101792,  2.31062272e-03, -9.57091277e-04,  1.30000000e-02
  101793,  2.39330779e-03, -7.26001986e-04,  1.30000000e-02
  101794,  2.45294399e-03, -4.87920900e-04,  1.30000000e-02
  101795,  2.48895700e-03, -2.45140870e-04,  1.30000000e-02
  101796,  2.50100000e-03,  2.22133423e-19,  1.30000000e-02
  101797,  2.48895700e-03,  2.45140870e-04,  1.30000000e-02
  101798,  2.45294399e-03,  4.87920900e-04,  1.30000000e-02
  101799,  2.39330779e-03,  7.26001986e-04,  1.30000000e-02
  101800,  2.31062272e-03,  9.57091277e-04,  1.30000000e-02
  101801,  2.20568510e-03,  1.17896326e-03,  1.30000000e-02
  101802,  2.07950553e-03,  1.38948118e-03,  1.30000000e-02
  101803,  1.93329918e-03,  1.58661764e-03,  1.30000000e-02
  101804,  1.76847411e-03,  1.76847411e-03,  1.30000000e-02
  101805,  1.76847411e-03, -1.76847411e-03,  1.35000000e-02
  101806,  1.93329918e-03, -1.58661764e-03,  1.35000000e-02
  101807,  2.07950553e-03, -1.38948118e-03,  1.35000000e-02
  101808,  2.20568510e-03, -1.17896326e-03,  1.35000000e-02
  101809,  2.31062272e-03, -9.57091277e-04,  1.35000000e-02
  101810,  2.39330779e-03, -7.26001986e-04,  1.35000000e-02
  101811,  2.45294399e-03, -4.87920900e-04,  1.35000000e-02
  101812,  2.48895700e-03, -2.45140870e-04,  1.35000000e-02
  101813,  2.50100000e-03,  2.22133423e-19,  1.35000000e-02
  101814,  2.48895700e-03,  2.45140870e-04,  1.35000000e-02
  101815,  2.45294399e-03,  4.87920900e-04,  1.35000000e-02
  101816,  2.39330779e-03,  7.26001986e-04,  1.35000000e-02
  101817,  2.31062272e-03,  9.57091277e-04,  1.35000000e-02
  101818,  2.20568510e-03,  1.17896326e-03,  1.35000000e-02
  101819,  2.07950553e-03,  1.38948118e-03,  1.35000000e-02
  101820,  1.93329918e-03,  1.58661764e-03,  1.35000000e-02
  101821,  1.76847411e-03,  1.76847411e-03,  1.35000000e-02
  101822,  1.76847411e-03, -1.76847411e-03,  1.40000000e-02
  101823,  1.93329918e-03, -1.58661764e-03,  1.40000000e-02
  101824,  2.07950553e-03, -1.38948118e-03,  1.40000000e-02
  101825,  2.20568510e-03, -1.17896326e-03,  1.40000000e-02
  101826,  2.31062272e-03, -9.57091277e-04,  1.40000000e-02
  101827,  2.39330779e-03, -7.26001986e-04,  1.40000000e-02
  101828,  2.45294399e-03, -4.87920900e-04,  1.40000000e-02
  101829,  2.48895700e-03, -2.45140870e-04,  1.40000000e-02
  101830,  2.50100000e-03,  2.22133423e-19,  1.40000000e-02
  101831,  2.48895700e-03,  2.45140870e-04,  1.40000000e-02
  101832,  2.45294399e-03,  4.87920900e-04,  1.40000000e-02
  101833,  2.39330779e-03,  7.26001986e-04,  1.40000000e-02
  101834,  2.31062272e-03,  9.57091277e-04,  1.40000000e-02
  101835,  2.20568510e-03,  1.17896326e-03,  1.40000000e-02
  101836,  2.07950553e-03,  1.38948118e-03,  1.40000000e-02
  101837,  1.93329918e-03,  1.58661764e-03,  1.40000000e-02
  101838,  1.76847411e-03,  1.76847411e-03,  1.40000000e-02
  101839,  1.76847411e-03, -1.76847411e-03,  1.45000000e-02
  101840,  1.93329918e-03, -1.58661764e-03,  1.45000000e-02
  101841,  2.07950553e-03, -1.38948118e-03,  1.45000000e-02
  101842,  2.20568510e-03, -1.17896326e-03,  1.45000000e-02
  101843,  2.31062272e-03, -9.57091277e-04,  1.45000000e-02
  101844,  2.39330779e-03, -7.26001986e-04,  1.45000000e-02
  101845,  2.45294399e-03, -4.87920900e-04,  1.45000000e-02
  101846,  2.48895700e-03, -2.45140870e-04,  1.45000000e-02
  101847,  2.50100000e-03,  2.22133423e-19,  1.45000000e-02
  101848,  2.48895700e-03,  2.45140870e-04,  1.45000000e-02
  101849,  2.45294399e-03,  4.87920900e-04,  1.45000000e-02
  101850,  2.39330779e-03,  7.26001986e-04,  1.45000000e-02
  101851,  2.31062272e-03,  9.57091277e-04,  1.45000000e-02
  101852,  2.20568510e-03,  1.17896326e-03,  1.45000000e-02
  101853,  2.07950553e-03,  1.38948118e-03,  1.45000000e-02
  101854,  1.93329918e-03,  1.58661764e-03,  1.45000000e-02
  101855,  1.76847411e-03,  1.76847411e-03,  1.45000000e-02
  101856,  1.76847411e-03, -1.76847411e-03,  1.50000000e-02
  101857,  1.93329918e-03, -1.58661764e-03,  1.50000000e-02
  101858,  2.07950553e-03, -1.38948118e-03,  1.50000000e-02
  101859,  2.20568510e-03, -1.17896326e-03,  1.50000000e-02
  101860,  2.31062272e-03, -9.57091277e-04,  1.50000000e-02
  101861,  2.39330779e-03, -7.26001986e-04,  1.50000000e-02
  101862,  2.45294399e-03, -4.87920900e-04,  1.50000000e-02
  101863,  2.48895700e-03, -2.45140870e-04,  1.50000000e-02
  101864,  2.50100000e-03,  2.22133423e-19,  1.50000000e-02
  101865,  2.48895700e-03,  2.45140870e-04,  1.50000000e-02
  101866,  2.45294399e-03,  4.87920900e-04,  1.50000000e-02
  101867,  2.39330779e-03,  7.26001986e-04,  1.50000000e-02
  101868,  2.31062272e-03,  9.57091277e-04,  1.50000000e-02
  101869,  2.20568510e-03,  1.17896326e-03,  1.50000000e-02
  101870,  2.07950553e-03,  1.38948118e-03,  1.50000000e-02
  101871,  1.93329918e-03,  1.58661764e-03,  1.50000000e-02
  101872,  1.76847411e-03,  1.76847411e-03,  1.50000000e-02
  101873,  1.76847411e-03, -1.76847411e-03,  1.55000000e-02
  101874,  1.93329918e-03, -1.58661764e-03,  1.55000000e-02
  101875,  2.07950553e-03, -1.38948118e-03,  1.55000000e-02
  101876,  2.20568510e-03, -1.17896326e-03,  1.55000000e-02
  101877,  2.31062272e-03, -9.57091277e-04,  1.55000000e-02
  101878,  2.39330779e-03, -7.26001986e-04,  1.55000000e-02
  101879,  2.45294399e-03, -4.87920900e-04,  1.55000000e-02
  101880,  2.48895700e-03, -2.45140870e-04,  1.55000000e-02
  101881,  2.50100000e-03,  2.22133423e-19,  1.55000000e-02
  101882,  2.48895700e-03,  2.45140870e-04,  1.55000000e-02
  101883,  2.45294399e-03,  4.87920900e-04,  1.55000000e-02
  101884,  2.39330779e-03,  7.26001986e-04,  1.55000000e-02
  101885,  2.31062272e-03,  9.57091277e-04,  1.55000000e-02
  101886,  2.20568510e-03,  1.17896326e-03,  1.55000000e-02
  101887,  2.07950553e-03,  1.38948118e-03,  1.55000000e-02
  101888,  1.93329918e-03,  1.58661764e-03,  1.55000000e-02
  101889,  1.76847411e-03,  1.76847411e-03,  1.55000000e-02
  101890,  1.76847411e-03, -1.76847411e-03,  1.60000000e-02
  101891,  1.93329918e-03, -1.58661764e-03,  1.60000000e-02
  101892,  2.07950553e-03, -1.38948118e-03,  1.60000000e-02
  101893,  2.20568510e-03, -1.17896326e-03,  1.60000000e-02
  101894,  2.31062272e-03, -9.57091277e-04,  1.60000000e-02
  101895,  2.39330779e-03, -7.26001986e-04,  1.60000000e-02
  101896,  2.45294399e-03, -4.87920900e-04,  1.60000000e-02
  101897,  2.48895700e-03, -2.45140870e-04,  1.60000000e-02
  101898,  2.50100000e-03,  2.22133423e-19,  1.60000000e-02
  101899,  2.48895700e-03,  2.45140870e-04,  1.60000000e-02
  101900,  2.45294399e-03,  4.87920900e-04,  1.60000000e-02
  101901,  2.39330779e-03,  7.26001986e-04,  1.60000000e-02
  101902,  2.31062272e-03,  9.57091277e-04,  1.60000000e-02
  101903,  2.20568510e-03,  1.17896326e-03,  1.60000000e-02
  101904,  2.07950553e-03,  1.38948118e-03,  1.60000000e-02
  101905,  1.93329918e-03,  1.58661764e-03,  1.60000000e-02
  101906,  1.76847411e-03,  1.76847411e-03,  1.60000000e-02
  101907,  1.76847411e-03, -1.76847411e-03,  1.65000000e-02
  101908,  1.93329918e-03, -1.58661764e-03,  1.65000000e-02
  101909,  2.07950553e-03, -1.38948118e-03,  1.65000000e-02
  101910,  2.20568510e-03, -1.17896326e-03,  1.65000000e-02
  101911,  2.31062272e-03, -9.57091277e-04,  1.65000000e-02
  101912,  2.39330779e-03, -7.26001986e-04,  1.65000000e-02
  101913,  2.45294399e-03, -4.87920900e-04,  1.65000000e-02
  101914,  2.48895700e-03, -2.45140870e-04,  1.65000000e-02
  101915,  2.50100000e-03,  2.22133423e-19,  1.65000000e-02
  101916,  2.48895700e-03,  2.45140870e-04,  1.65000000e-02
  101917,  2.45294399e-03,  4.87920900e-04,  1.65000000e-02
  101918,  2.39330779e-03,  7.26001986e-04,  1.65000000e-02
  101919,  2.31062272e-03,  9.57091277e-04,  1.65000000e-02
  101920,  2.20568510e-03,  1.17896326e-03,  1.65000000e-02
  101921,  2.07950553e-03,  1.38948118e-03,  1.65000000e-02
  101922,  1.93329918e-03,  1.58661764e-03,  1.65000000e-02
  101923,  1.76847411e-03,  1.76847411e-03,  1.65000000e-02
  101924,  1.76847411e-03, -1.76847411e-03,  1.70000000e-02
  101925,  1.93329918e-03, -1.58661764e-03,  1.70000000e-02
  101926,  2.07950553e-03, -1.38948118e-03,  1.70000000e-02
  101927,  2.20568510e-03, -1.17896326e-03,  1.70000000e-02
  101928,  2.31062272e-03, -9.57091277e-04,  1.70000000e-02
  101929,  2.39330779e-03, -7.26001986e-04,  1.70000000e-02
  101930,  2.45294399e-03, -4.87920900e-04,  1.70000000e-02
  101931,  2.48895700e-03, -2.45140870e-04,  1.70000000e-02
  101932,  2.50100000e-03,  2.22133423e-19,  1.70000000e-02
  101933,  2.48895700e-03,  2.45140870e-04,  1.70000000e-02
  101934,  2.45294399e-03,  4.87920900e-04,  1.70000000e-02
  101935,  2.39330779e-03,  7.26001986e-04,  1.70000000e-02
  101936,  2.31062272e-03,  9.57091277e-04,  1.70000000e-02
  101937,  2.20568510e-03,  1.17896326e-03,  1.70000000e-02
  101938,  2.07950553e-03,  1.38948118e-03,  1.70000000e-02
  101939,  1.93329918e-03,  1.58661764e-03,  1.70000000e-02
  101940,  1.76847411e-03,  1.76847411e-03,  1.70000000e-02
  101941,  1.76847411e-03, -1.76847411e-03,  1.75000000e-02
  101942,  1.93329918e-03, -1.58661764e-03,  1.75000000e-02
  101943,  2.07950553e-03, -1.38948118e-03,  1.75000000e-02
  101944,  2.20568510e-03, -1.17896326e-03,  1.75000000e-02
  101945,  2.31062272e-03, -9.57091277e-04,  1.75000000e-02
  101946,  2.39330779e-03, -7.26001986e-04,  1.75000000e-02
  101947,  2.45294399e-03, -4.87920900e-04,  1.75000000e-02
  101948,  2.48895700e-03, -2.45140870e-04,  1.75000000e-02
  101949,  2.50100000e-03,  2.22133423e-19,  1.75000000e-02
  101950,  2.48895700e-03,  2.45140870e-04,  1.75000000e-02
  101951,  2.45294399e-03,  4.87920900e-04,  1.75000000e-02
  101952,  2.39330779e-03,  7.26001986e-04,  1.75000000e-02
  101953,  2.31062272e-03,  9.57091277e-04,  1.75000000e-02
  101954,  2.20568510e-03,  1.17896326e-03,  1.75000000e-02
  101955,  2.07950553e-03,  1.38948118e-03,  1.75000000e-02
  101956,  1.93329918e-03,  1.58661764e-03,  1.75000000e-02
  101957,  1.76847411e-03,  1.76847411e-03,  1.75000000e-02
  101958,  1.76847411e-03, -1.76847411e-03,  1.80000000e-02
  101959,  1.93329918e-03, -1.58661764e-03,  1.80000000e-02
  101960,  2.07950553e-03, -1.38948118e-03,  1.80000000e-02
  101961,  2.20568510e-03, -1.17896326e-03,  1.80000000e-02
  101962,  2.31062272e-03, -9.57091277e-04,  1.80000000e-02
  101963,  2.39330779e-03, -7.26001986e-04,  1.80000000e-02
  101964,  2.45294399e-03, -4.87920900e-04,  1.80000000e-02
  101965,  2.48895700e-03, -2.45140870e-04,  1.80000000e-02
  101966,  2.50100000e-03,  2.22133423e-19,  1.80000000e-02
  101967,  2.48895700e-03,  2.45140870e-04,  1.80000000e-02
  101968,  2.45294399e-03,  4.87920900e-04,  1.80000000e-02
  101969,  2.39330779e-03,  7.26001986e-04,  1.80000000e-02
  101970,  2.31062272e-03,  9.57091277e-04,  1.80000000e-02
  101971,  2.20568510e-03,  1.17896326e-03,  1.80000000e-02
  101972,  2.07950553e-03,  1.38948118e-03,  1.80000000e-02
  101973,  1.93329918e-03,  1.58661764e-03,  1.80000000e-02
  101974,  1.76847411e-03,  1.76847411e-03,  1.80000000e-02
  101975,  1.76847411e-03, -1.76847411e-03,  1.85000000e-02
  101976,  1.93329918e-03, -1.58661764e-03,  1.85000000e-02
  101977,  2.07950553e-03, -1.38948118e-03,  1.85000000e-02
  101978,  2.20568510e-03, -1.17896326e-03,  1.85000000e-02
  101979,  2.31062272e-03, -9.57091277e-04,  1.85000000e-02
  101980,  2.39330779e-03, -7.26001986e-04,  1.85000000e-02
  101981,  2.45294399e-03, -4.87920900e-04,  1.85000000e-02
  101982,  2.48895700e-03, -2.45140870e-04,  1.85000000e-02
  101983,  2.50100000e-03,  2.22133423e-19,  1.85000000e-02
  101984,  2.48895700e-03,  2.45140870e-04,  1.85000000e-02
  101985,  2.45294399e-03,  4.87920900e-04,  1.85000000e-02
  101986,  2.39330779e-03,  7.26001986e-04,  1.85000000e-02
  101987,  2.31062272e-03,  9.57091277e-04,  1.85000000e-02
  101988,  2.20568510e-03,  1.17896326e-03,  1.85000000e-02
  101989,  2.07950553e-03,  1.38948118e-03,  1.85000000e-02
  101990,  1.93329918e-03,  1.58661764e-03,  1.85000000e-02
  101991,  1.76847411e-03,  1.76847411e-03,  1.85000000e-02
  101992,  1.76847411e-03, -1.76847411e-03,  1.90000000e-02
  101993,  1.93329918e-03, -1.58661764e-03,  1.90000000e-02
  101994,  2.07950553e-03, -1.38948118e-03,  1.90000000e-02
  101995,  2.20568510e-03, -1.17896326e-03,  1.90000000e-02
  101996,  2.31062272e-03, -9.57091277e-04,  1.90000000e-02
  101997,  2.39330779e-03, -7.26001986e-04,  1.90000000e-02
  101998,  2.45294399e-03, -4.87920900e-04,  1.90000000e-02
  101999,  2.48895700e-03, -2.45140870e-04,  1.90000000e-02
  102000,  2.50100000e-03,  2.22133423e-19,  1.90000000e-02
  102001,  2.48895700e-03,  2.45140870e-04,  1.90000000e-02
  102002,  2.45294399e-03,  4.87920900e-04,  1.90000000e-02
  102003,  2.39330779e-03,  7.26001986e-04,  1.90000000e-02
  102004,  2.31062272e-03,  9.57091277e-04,  1.90000000e-02
  102005,  2.20568510e-03,  1.17896326e-03,  1.90000000e-02
  102006,  2.07950553e-03,  1.38948118e-03,  1.90000000e-02
  102007,  1.93329918e-03,  1.58661764e-03,  1.90000000e-02
  102008,  1.76847411e-03,  1.76847411e-03,  1.90000000e-02
  102009,  1.76847411e-03, -1.76847411e-03,  1.95000000e-02
  102010,  1.93329918e-03, -1.58661764e-03,  1.95000000e-02
  102011,  2.07950553e-03, -1.38948118e-03,  1.95000000e-02
  102012,  2.20568510e-03, -1.17896326e-03,  1.95000000e-02
  102013,  2.31062272e-03, -9.57091277e-04,  1.95000000e-02
  102014,  2.39330779e-03, -7.26001986e-04,  1.95000000e-02
  102015,  2.45294399e-03, -4.87920900e-04,  1.95000000e-02
  102016,  2.48895700e-03, -2.45140870e-04,  1.95000000e-02
  102017,  2.50100000e-03,  2.22133423e-19,  1.95000000e-02
  102018,  2.48895700e-03,  2.45140870e-04,  1.95000000e-02
  102019,  2.45294399e-03,  4.87920900e-04,  1.95000000e-02
  102020,  2.39330779e-03,  7.26001986e-04,  1.95000000e-02
  102021,  2.31062272e-03,  9.57091277e-04,  1.95000000e-02
  102022,  2.20568510e-03,  1.17896326e-03,  1.95000000e-02
  102023,  2.07950553e-03,  1.38948118e-03,  1.95000000e-02
  102024,  1.93329918e-03,  1.58661764e-03,  1.95000000e-02
  102025,  1.76847411e-03,  1.76847411e-03,  1.95000000e-02
  102026,  1.76847411e-03, -1.76847411e-03,  2.00000000e-02
  102027,  1.93329918e-03, -1.58661764e-03,  2.00000000e-02
  102028,  2.07950553e-03, -1.38948118e-03,  2.00000000e-02
  102029,  2.20568510e-03, -1.17896326e-03,  2.00000000e-02
  102030,  2.31062272e-03, -9.57091277e-04,  2.00000000e-02
  102031,  2.39330779e-03, -7.26001986e-04,  2.00000000e-02
  102032,  2.45294399e-03, -4.87920900e-04,  2.00000000e-02
  102033,  2.48895700e-03, -2.45140870e-04,  2.00000000e-02
  102034,  2.50100000e-03,  2.22133423e-19,  2.00000000e-02
  102035,  2.48895700e-03,  2.45140870e-04,  2.00000000e-02
  102036,  2.45294399e-03,  4.87920900e-04,  2.00000000e-02
  102037,  2.39330779e-03,  7.26001986e-04,  2.00000000e-02
  102038,  2.31062272e-03,  9.57091277e-04,  2.00000000e-02
  102039,  2.20568510e-03,  1.17896326e-03,  2.00000000e-02
  102040,  2.07950553e-03,  1.38948118e-03,  2.00000000e-02
  102041,  1.93329918e-03,  1.58661764e-03,  2.00000000e-02
  102042,  1.76847411e-03,  1.76847411e-03,  2.00000000e-02
  102043,  1.76847411e-03, -1.76847411e-03,  2.05000000e-02
  102044,  1.93329918e-03, -1.58661764e-03,  2.05000000e-02
  102045,  2.07950553e-03, -1.38948118e-03,  2.05000000e-02
  102046,  2.20568510e-03, -1.17896326e-03,  2.05000000e-02
  102047,  2.31062272e-03, -9.57091277e-04,  2.05000000e-02
  102048,  2.39330779e-03, -7.26001986e-04,  2.05000000e-02
  102049,  2.45294399e-03, -4.87920900e-04,  2.05000000e-02
  102050,  2.48895700e-03, -2.45140870e-04,  2.05000000e-02
  102051,  2.50100000e-03,  2.22133423e-19,  2.05000000e-02
  102052,  2.48895700e-03,  2.45140870e-04,  2.05000000e-02
  102053,  2.45294399e-03,  4.87920900e-04,  2.05000000e-02
  102054,  2.39330779e-03,  7.26001986e-04,  2.05000000e-02
  102055,  2.31062272e-03,  9.57091277e-04,  2.05000000e-02
  102056,  2.20568510e-03,  1.17896326e-03,  2.05000000e-02
  102057,  2.07950553e-03,  1.38948118e-03,  2.05000000e-02
  102058,  1.93329918e-03,  1.58661764e-03,  2.05000000e-02
  102059,  1.76847411e-03,  1.76847411e-03,  2.05000000e-02
  102060,  1.76847411e-03, -1.76847411e-03,  2.10000000e-02
  102061,  1.93329918e-03, -1.58661764e-03,  2.10000000e-02
  102062,  2.07950553e-03, -1.38948118e-03,  2.10000000e-02
  102063,  2.20568510e-03, -1.17896326e-03,  2.10000000e-02
  102064,  2.31062272e-03, -9.57091277e-04,  2.10000000e-02
  102065,  2.39330779e-03, -7.26001986e-04,  2.10000000e-02
  102066,  2.45294399e-03, -4.87920900e-04,  2.10000000e-02
  102067,  2.48895700e-03, -2.45140870e-04,  2.10000000e-02
  102068,  2.50100000e-03,  2.22133423e-19,  2.10000000e-02
  102069,  2.48895700e-03,  2.45140870e-04,  2.10000000e-02
  102070,  2.45294399e-03,  4.87920900e-04,  2.10000000e-02
  102071,  2.39330779e-03,  7.26001986e-04,  2.10000000e-02
  102072,  2.31062272e-03,  9.57091277e-04,  2.10000000e-02
  102073,  2.20568510e-03,  1.17896326e-03,  2.10000000e-02
  102074,  2.07950553e-03,  1.38948118e-03,  2.10000000e-02
  102075,  1.93329918e-03,  1.58661764e-03,  2.10000000e-02
  102076,  1.76847411e-03,  1.76847411e-03,  2.10000000e-02
  102077,  1.76847411e-03, -1.76847411e-03,  2.15000000e-02
  102078,  1.93329918e-03, -1.58661764e-03,  2.15000000e-02
  102079,  2.07950553e-03, -1.38948118e-03,  2.15000000e-02
  102080,  2.20568510e-03, -1.17896326e-03,  2.15000000e-02
  102081,  2.31062272e-03, -9.57091277e-04,  2.15000000e-02
  102082,  2.39330779e-03, -7.26001986e-04,  2.15000000e-02
  102083,  2.45294399e-03, -4.87920900e-04,  2.15000000e-02
  102084,  2.48895700e-03, -2.45140870e-04,  2.15000000e-02
  102085,  2.50100000e-03,  2.22133423e-19,  2.15000000e-02
  102086,  2.48895700e-03,  2.45140870e-04,  2.15000000e-02
  102087,  2.45294399e-03,  4.87920900e-04,  2.15000000e-02
  102088,  2.39330779e-03,  7.26001986e-04,  2.15000000e-02
  102089,  2.31062272e-03,  9.57091277e-04,  2.15000000e-02
  102090,  2.20568510e-03,  1.17896326e-03,  2.15000000e-02
  102091,  2.07950553e-03,  1.38948118e-03,  2.15000000e-02
  102092,  1.93329918e-03,  1.58661764e-03,  2.15000000e-02
  102093,  1.76847411e-03,  1.76847411e-03,  2.15000000e-02
  102094,  1.76847411e-03, -1.76847411e-03,  2.20000000e-02
  102095,  1.93329918e-03, -1.58661764e-03,  2.20000000e-02
  102096,  2.07950553e-03, -1.38948118e-03,  2.20000000e-02
  102097,  2.20568510e-03, -1.17896326e-03,  2.20000000e-02
  102098,  2.31062272e-03, -9.57091277e-04,  2.20000000e-02
  102099,  2.39330779e-03, -7.26001986e-04,  2.20000000e-02
  102100,  2.45294399e-03, -4.87920900e-04,  2.20000000e-02
  102101,  2.48895700e-03, -2.45140870e-04,  2.20000000e-02
  102102,  2.50100000e-03,  2.22133423e-19,  2.20000000e-02
  102103,  2.48895700e-03,  2.45140870e-04,  2.20000000e-02
  102104,  2.45294399e-03,  4.87920900e-04,  2.20000000e-02
  102105,  2.39330779e-03,  7.26001986e-04,  2.20000000e-02
  102106,  2.31062272e-03,  9.57091277e-04,  2.20000000e-02
  102107,  2.20568510e-03,  1.17896326e-03,  2.20000000e-02
  102108,  2.07950553e-03,  1.38948118e-03,  2.20000000e-02
  102109,  1.93329918e-03,  1.58661764e-03,  2.20000000e-02
  102110,  1.76847411e-03,  1.76847411e-03,  2.20000000e-02
  102111,  1.76847411e-03, -1.76847411e-03,  2.25000000e-02
  102112,  1.93329918e-03, -1.58661764e-03,  2.25000000e-02
  102113,  2.07950553e-03, -1.38948118e-03,  2.25000000e-02
  102114,  2.20568510e-03, -1.17896326e-03,  2.25000000e-02
  102115,  2.31062272e-03, -9.57091277e-04,  2.25000000e-02
  102116,  2.39330779e-03, -7.26001986e-04,  2.25000000e-02
  102117,  2.45294399e-03, -4.87920900e-04,  2.25000000e-02
  102118,  2.45294399e-03,  4.87920900e-04,  2.25000000e-02
  102119,  2.39330779e-03,  7.26001986e-04,  2.25000000e-02
  102120,  2.31062272e-03,  9.57091277e-04,  2.25000000e-02
  102121,  2.20568510e-03,  1.17896326e-03,  2.25000000e-02
  102122,  2.07950553e-03,  1.38948118e-03,  2.25000000e-02
  102123,  1.93329918e-03,  1.58661764e-03,  2.25000000e-02
  102124,  1.76847411e-03,  1.76847411e-03,  2.25000000e-02
  102125,  1.76847411e-03, -1.76847411e-03,  2.30000000e-02
  102126,  1.93329918e-03, -1.58661764e-03,  2.30000000e-02
  102127,  2.07950553e-03, -1.38948118e-03,  2.30000000e-02
  102128,  2.20568510e-03, -1.17896326e-03,  2.30000000e-02
  102129,  2.31062272e-03, -9.57091277e-04,  2.30000000e-02
  102130,  2.39330779e-03, -7.26001986e-04,  2.30000000e-02
  102131,  2.45294399e-03, -4.87920900e-04,  2.30000000e-02
  102132,  2.48895700e-03, -2.45140870e-04,  2.30000000e-02
  102133,  2.50100000e-03,  2.22133423e-19,  2.30000000e-02
  102134,  2.48895700e-03,  2.45140870e-04,  2.30000000e-02
  102135,  2.45294399e-03,  4.87920900e-04,  2.30000000e-02
  102136,  2.39330779e-03,  7.26001986e-04,  2.30000000e-02
  102137,  2.31062272e-03,  9.57091277e-04,  2.30000000e-02
  102138,  2.20568510e-03,  1.17896326e-03,  2.30000000e-02
  102139,  2.07950553e-03,  1.38948118e-03,  2.30000000e-02
  102140,  1.93329918e-03,  1.58661764e-03,  2.30000000e-02
  102141,  1.76847411e-03,  1.76847411e-03,  2.30000000e-02
  102142,  1.76847411e-03, -1.76847411e-03,  2.35000000e-02
  102143,  1.93329918e-03, -1.58661764e-03,  2.35000000e-02
  102144,  2.07950553e-03, -1.38948118e-03,  2.35000000e-02
  102145,  2.20568510e-03, -1.17896326e-03,  2.35000000e-02
  102146,  2.31062272e-03, -9.57091277e-04,  2.35000000e-02
  102147,  2.39330779e-03, -7.26001986e-04,  2.35000000e-02
  102148,  2.45294399e-03, -4.87920900e-04,  2.35000000e-02
  102149,  2.48895700e-03, -2.45140870e-04,  2.35000000e-02
  102150,  2.50100000e-03,  2.22133423e-19,  2.35000000e-02
  102151,  2.48895700e-03,  2.45140870e-04,  2.35000000e-02
  102152,  2.45294399e-03,  4.87920900e-04,  2.35000000e-02
  102153,  2.39330779e-03,  7.26001986e-04,  2.35000000e-02
  102154,  2.31062272e-03,  9.57091277e-04,  2.35000000e-02
  102155,  2.20568510e-03,  1.17896326e-03,  2.35000000e-02
  102156,  2.07950553e-03,  1.38948118e-03,  2.35000000e-02
  102157,  1.93329918e-03,  1.58661764e-03,  2.35000000e-02
  102158,  1.76847411e-03,  1.76847411e-03,  2.35000000e-02
  102159,  1.76847411e-03, -1.76847411e-03,  2.40000000e-02
  102160,  1.93329918e-03, -1.58661764e-03,  2.40000000e-02
  102161,  2.07950553e-03, -1.38948118e-03,  2.40000000e-02
  102162,  2.20568510e-03, -1.17896326e-03,  2.40000000e-02
  102163,  2.31062272e-03, -9.57091277e-04,  2.40000000e-02
  102164,  2.39330779e-03, -7.26001986e-04,  2.40000000e-02
  102165,  2.45294399e-03, -4.87920900e-04,  2.40000000e-02
  102166,  2.48895700e-03, -2.45140870e-04,  2.40000000e-02
  102167,  2.50100000e-03,  2.22133423e-19,  2.40000000e-02
  102168,  2.48895700e-03,  2.45140870e-04,  2.40000000e-02
  102169,  2.45294399e-03,  4.87920900e-04,  2.40000000e-02
  102170,  2.39330779e-03,  7.26001986e-04,  2.40000000e-02
  102171,  2.31062272e-03,  9.57091277e-04,  2.40000000e-02
  102172,  2.20568510e-03,  1.17896326e-03,  2.40000000e-02
  102173,  2.07950553e-03,  1.38948118e-03,  2.40000000e-02
  102174,  1.93329918e-03,  1.58661764e-03,  2.40000000e-02
  102175,  1.76847411e-03,  1.76847411e-03,  2.40000000e-02
  102176,  1.76847411e-03, -1.76847411e-03,  2.45000000e-02
  102177,  1.93329918e-03, -1.58661764e-03,  2.45000000e-02
  102178,  2.07950553e-03, -1.38948118e-03,  2.45000000e-02
  102179,  2.20568510e-03, -1.17896326e-03,  2.45000000e-02
  102180,  2.31062272e-03, -9.57091277e-04,  2.45000000e-02
  102181,  2.39330779e-03, -7.26001986e-04,  2.45000000e-02
  102182,  2.45294399e-03, -4.87920900e-04,  2.45000000e-02
  102183,  2.48895700e-03, -2.45140870e-04,  2.45000000e-02
  102184,  2.50100000e-03,  2.22133423e-19,  2.45000000e-02
  102185,  2.48895700e-03,  2.45140870e-04,  2.45000000e-02
  102186,  2.45294399e-03,  4.87920900e-04,  2.45000000e-02
  102187,  2.39330779e-03,  7.26001986e-04,  2.45000000e-02
  102188,  2.31062272e-03,  9.57091277e-04,  2.45000000e-02
  102189,  2.20568510e-03,  1.17896326e-03,  2.45000000e-02
  102190,  2.07950553e-03,  1.38948118e-03,  2.45000000e-02
  102191,  1.93329918e-03,  1.58661764e-03,  2.45000000e-02
  102192,  1.76847411e-03,  1.76847411e-03,  2.45000000e-02
  102193,  1.76847411e-03, -1.76847411e-03,  2.50000000e-02
  102194,  1.93329918e-03, -1.58661764e-03,  2.50000000e-02
  102195,  2.07950553e-03, -1.38948118e-03,  2.50000000e-02
  102196,  2.20568510e-03, -1.17896326e-03,  2.50000000e-02
  102197,  2.31062272e-03, -9.57091277e-04,  2.50000000e-02
  102198,  2.39330779e-03, -7.26001986e-04,  2.50000000e-02
  102199,  2.45294399e-03, -4.87920900e-04,  2.50000000e-02
  102200,  2.48895700e-03, -2.45140870e-04,  2.50000000e-02
  102201,  2.50100000e-03,  2.22133423e-19,  2.50000000e-02
  102202,  2.48895700e-03,  2.45140870e-04,  2.50000000e-02
  102203,  2.45294399e-03,  4.87920900e-04,  2.50000000e-02
  102204,  2.39330779e-03,  7.26001986e-04,  2.50000000e-02
  102205,  2.31062272e-03,  9.57091277e-04,  2.50000000e-02
  102206,  2.20568510e-03,  1.17896326e-03,  2.50000000e-02
  102207,  2.07950553e-03,  1.38948118e-03,  2.50000000e-02
  102208,  1.93329918e-03,  1.58661764e-03,  2.50000000e-02
  102209,  1.76847411e-03,  1.76847411e-03,  2.50000000e-02
  102210,  1.76847411e-03, -1.76847411e-03,  2.55000000e-02
  102211,  1.93329918e-03, -1.58661764e-03,  2.55000000e-02
  102212,  2.07950553e-03, -1.38948118e-03,  2.55000000e-02
  102213,  2.20568510e-03, -1.17896326e-03,  2.55000000e-02
  102214,  2.31062272e-03, -9.57091277e-04,  2.55000000e-02
  102215,  2.39330779e-03, -7.26001986e-04,  2.55000000e-02
  102216,  2.45294399e-03, -4.87920900e-04,  2.55000000e-02
  102217,  2.48895700e-03, -2.45140870e-04,  2.55000000e-02
  102218,  2.50100000e-03,  2.22133423e-19,  2.55000000e-02
  102219,  2.48895700e-03,  2.45140870e-04,  2.55000000e-02
  102220,  2.45294399e-03,  4.87920900e-04,  2.55000000e-02
  102221,  2.39330779e-03,  7.26001986e-04,  2.55000000e-02
  102222,  2.31062272e-03,  9.57091277e-04,  2.55000000e-02
  102223,  2.20568510e-03,  1.17896326e-03,  2.55000000e-02
  102224,  2.07950553e-03,  1.38948118e-03,  2.55000000e-02
  102225,  1.93329918e-03,  1.58661764e-03,  2.55000000e-02
  102226,  1.76847411e-03,  1.76847411e-03,  2.55000000e-02
  102227,  1.76847411e-03, -1.76847411e-03,  2.60000000e-02
  102228,  1.93329918e-03, -1.58661764e-03,  2.60000000e-02
  102229,  2.07950553e-03, -1.38948118e-03,  2.60000000e-02
  102230,  2.20568510e-03, -1.17896326e-03,  2.60000000e-02
  102231,  2.31062272e-03, -9.57091277e-04,  2.60000000e-02
  102232,  2.39330779e-03, -7.26001986e-04,  2.60000000e-02
  102233,  2.45294399e-03, -4.87920900e-04,  2.60000000e-02
  102234,  2.48895700e-03, -2.45140870e-04,  2.60000000e-02
  102235,  2.50100000e-03,  2.22133423e-19,  2.60000000e-02
  102236,  2.48895700e-03,  2.45140870e-04,  2.60000000e-02
  102237,  2.45294399e-03,  4.87920900e-04,  2.60000000e-02
  102238,  2.39330779e-03,  7.26001986e-04,  2.60000000e-02
  102239,  2.31062272e-03,  9.57091277e-04,  2.60000000e-02
  102240,  2.20568510e-03,  1.17896326e-03,  2.60000000e-02
  102241,  2.07950553e-03,  1.38948118e-03,  2.60000000e-02
  102242,  1.93329918e-03,  1.58661764e-03,  2.60000000e-02
  102243,  1.76847411e-03,  1.76847411e-03,  2.60000000e-02
  102244,  1.76847411e-03, -1.76847411e-03,  2.65000000e-02
  102245,  1.93329918e-03, -1.58661764e-03,  2.65000000e-02
  102246,  2.07950553e-03, -1.38948118e-03,  2.65000000e-02
  102247,  2.20568510e-03, -1.17896326e-03,  2.65000000e-02
  102248,  2.31062272e-03, -9.57091277e-04,  2.65000000e-02
  102249,  2.39330779e-03, -7.26001986e-04,  2.65000000e-02
  102250,  2.45294399e-03, -4.87920900e-04,  2.65000000e-02
  102251,  2.48895700e-03, -2.45140870e-04,  2.65000000e-02
  102252,  2.50100000e-03,  2.22133423e-19,  2.65000000e-02
  102253,  2.48895700e-03,  2.45140870e-04,  2.65000000e-02
  102254,  2.45294399e-03,  4.87920900e-04,  2.65000000e-02
  102255,  2.39330779e-03,  7.26001986e-04,  2.65000000e-02
  102256,  2.31062272e-03,  9.57091277e-04,  2.65000000e-02
  102257,  2.20568510e-03,  1.17896326e-03,  2.65000000e-02
  102258,  2.07950553e-03,  1.38948118e-03,  2.65000000e-02
  102259,  1.93329918e-03,  1.58661764e-03,  2.65000000e-02
  102260,  1.76847411e-03,  1.76847411e-03,  2.65000000e-02
  102261,  1.76847411e-03, -1.76847411e-03,  2.70000000e-02
  102262,  1.93329918e-03, -1.58661764e-03,  2.70000000e-02
  102263,  2.07950553e-03, -1.38948118e-03,  2.70000000e-02
  102264,  2.20568510e-03, -1.17896326e-03,  2.70000000e-02
  102265,  2.31062272e-03, -9.57091277e-04,  2.70000000e-02
  102266,  2.39330779e-03, -7.26001986e-04,  2.70000000e-02
  102267,  2.45294399e-03, -4.87920900e-04,  2.70000000e-02
  102268,  2.48895700e-03, -2.45140870e-04,  2.70000000e-02
  102269,  2.50100000e-03,  2.22133423e-19,  2.70000000e-02
  102270,  2.48895700e-03,  2.45140870e-04,  2.70000000e-02
  102271,  2.45294399e-03,  4.87920900e-04,  2.70000000e-02
  102272,  2.39330779e-03,  7.26001986e-04,  2.70000000e-02
  102273,  2.31062272e-03,  9.57091277e-04,  2.70000000e-02
  102274,  2.20568510e-03,  1.17896326e-03,  2.70000000e-02
  102275,  2.07950553e-03,  1.38948118e-03,  2.70000000e-02
  102276,  1.93329918e-03,  1.58661764e-03,  2.70000000e-02
  102277,  1.76847411e-03,  1.76847411e-03,  2.70000000e-02
  102278,  1.76847411e-03, -1.76847411e-03,  2.75000000e-02
  102279,  1.93329918e-03, -1.58661764e-03,  2.75000000e-02
  102280,  2.07950553e-03, -1.38948118e-03,  2.75000000e-02
  102281,  2.20568510e-03, -1.17896326e-03,  2.75000000e-02
  102282,  2.31062272e-03, -9.57091277e-04,  2.75000000e-02
  102283,  2.39330779e-03, -7.26001986e-04,  2.75000000e-02
  102284,  2.45294399e-03, -4.87920900e-04,  2.75000000e-02
  102285,  2.48895700e-03, -2.45140870e-04,  2.75000000e-02
  102286,  2.50100000e-03,  2.22133423e-19,  2.75000000e-02
  102287,  2.48895700e-03,  2.45140870e-04,  2.75000000e-02
  102288,  2.45294399e-03,  4.87920900e-04,  2.75000000e-02
  102289,  2.39330779e-03,  7.26001986e-04,  2.75000000e-02
  102290,  2.31062272e-03,  9.57091277e-04,  2.75000000e-02
  102291,  2.20568510e-03,  1.17896326e-03,  2.75000000e-02
  102292,  2.07950553e-03,  1.38948118e-03,  2.75000000e-02
  102293,  1.93329918e-03,  1.58661764e-03,  2.75000000e-02
  102294,  1.76847411e-03,  1.76847411e-03,  2.75000000e-02
  102295,  1.76847411e-03, -1.76847411e-03,  2.80000000e-02
  102296,  1.93329918e-03, -1.58661764e-03,  2.80000000e-02
  102297,  2.07950553e-03, -1.38948118e-03,  2.80000000e-02
  102298,  2.20568510e-03, -1.17896326e-03,  2.80000000e-02
  102299,  2.31062272e-03, -9.57091277e-04,  2.80000000e-02
  102300,  2.39330779e-03, -7.26001986e-04,  2.80000000e-02
  102301,  2.45294399e-03, -4.87920900e-04,  2.80000000e-02
  102302,  2.48895700e-03, -2.45140870e-04,  2.80000000e-02
  102303,  2.50100000e-03,  2.22133423e-19,  2.80000000e-02
  102304,  2.48895700e-03,  2.45140870e-04,  2.80000000e-02
  102305,  2.45294399e-03,  4.87920900e-04,  2.80000000e-02
  102306,  2.39330779e-03,  7.26001986e-04,  2.80000000e-02
  102307,  2.31062272e-03,  9.57091277e-04,  2.80000000e-02
  102308,  2.20568510e-03,  1.17896326e-03,  2.80000000e-02
  102309,  2.07950553e-03,  1.38948118e-03,  2.80000000e-02
  102310,  1.93329918e-03,  1.58661764e-03,  2.80000000e-02
  102311,  1.76847411e-03,  1.76847411e-03,  2.80000000e-02
  102312,  1.76847411e-03, -1.76847411e-03,  2.85000000e-02
  102313,  1.93329918e-03, -1.58661764e-03,  2.85000000e-02
  102314,  2.07950553e-03, -1.38948118e-03,  2.85000000e-02
  102315,  2.20568510e-03, -1.17896326e-03,  2.85000000e-02
  102316,  2.31062272e-03, -9.57091277e-04,  2.85000000e-02
  102317,  2.39330779e-03, -7.26001986e-04,  2.85000000e-02
  102318,  2.45294399e-03, -4.87920900e-04,  2.85000000e-02
  102319,  2.48895700e-03, -2.45140870e-04,  2.85000000e-02
  102320,  2.50100000e-03,  2.22133423e-19,  2.85000000e-02
  102321,  2.48895700e-03,  2.45140870e-04,  2.85000000e-02
  102322,  2.45294399e-03,  4.87920900e-04,  2.85000000e-02
  102323,  2.39330779e-03,  7.26001986e-04,  2.85000000e-02
  102324,  2.31062272e-03,  9.57091277e-04,  2.85000000e-02
  102325,  2.20568510e-03,  1.17896326e-03,  2.85000000e-02
  102326,  2.07950553e-03,  1.38948118e-03,  2.85000000e-02
  102327,  1.93329918e-03,  1.58661764e-03,  2.85000000e-02
  102328,  1.76847411e-03,  1.76847411e-03,  2.85000000e-02
  102329,  1.76847411e-03, -1.76847411e-03,  2.90000000e-02
  102330,  1.93329918e-03, -1.58661764e-03,  2.90000000e-02
  102331,  2.07950553e-03, -1.38948118e-03,  2.90000000e-02
  102332,  2.20568510e-03, -1.17896326e-03,  2.90000000e-02
  102333,  2.31062272e-03, -9.57091277e-04,  2.90000000e-02
  102334,  2.39330779e-03, -7.26001986e-04,  2.90000000e-02
  102335,  2.45294399e-03, -4.87920900e-04,  2.90000000e-02
  102336,  2.48895700e-03, -2.45140870e-04,  2.90000000e-02
  102337,  2.50100000e-03,  2.22133423e-19,  2.90000000e-02
  102338,  2.48895700e-03,  2.45140870e-04,  2.90000000e-02
  102339,  2.45294399e-03,  4.87920900e-04,  2.90000000e-02
  102340,  2.39330779e-03,  7.26001986e-04,  2.90000000e-02
  102341,  2.31062272e-03,  9.57091277e-04,  2.90000000e-02
  102342,  2.20568510e-03,  1.17896326e-03,  2.90000000e-02
  102343,  2.07950553e-03,  1.38948118e-03,  2.90000000e-02
  102344,  1.93329918e-03,  1.58661764e-03,  2.90000000e-02
  102345,  1.76847411e-03,  1.76847411e-03,  2.90000000e-02
  102346,  1.76847411e-03, -1.76847411e-03,  2.95000000e-02
  102347,  1.93329918e-03, -1.58661764e-03,  2.95000000e-02
  102348,  2.07950553e-03, -1.38948118e-03,  2.95000000e-02
  102349,  2.20568510e-03, -1.17896326e-03,  2.95000000e-02
  102350,  2.31062272e-03, -9.57091277e-04,  2.95000000e-02
  102351,  2.39330779e-03, -7.26001986e-04,  2.95000000e-02
  102352,  2.45294399e-03, -4.87920900e-04,  2.95000000e-02
  102353,  2.48895700e-03, -2.45140870e-04,  2.95000000e-02
  102354,  2.50100000e-03,  2.22133423e-19,  2.95000000e-02
  102355,  2.48895700e-03,  2.45140870e-04,  2.95000000e-02
  102356,  2.45294399e-03,  4.87920900e-04,  2.95000000e-02
  102357,  2.39330779e-03,  7.26001986e-04,  2.95000000e-02
  102358,  2.31062272e-03,  9.57091277e-04,  2.95000000e-02
  102359,  2.20568510e-03,  1.17896326e-03,  2.95000000e-02
  102360,  2.07950553e-03,  1.38948118e-03,  2.95000000e-02
  102361,  1.93329918e-03,  1.58661764e-03,  2.95000000e-02
  102362,  1.76847411e-03,  1.76847411e-03,  2.95000000e-02
  102363,  1.76847411e-03, -1.76847411e-03,  3.00000000e-02
  102364,  1.93329918e-03, -1.58661764e-03,  3.00000000e-02
  102365,  2.07950553e-03, -1.38948118e-03,  3.00000000e-02
  102366,  2.20568510e-03, -1.17896326e-03,  3.00000000e-02
  102367,  2.31062272e-03, -9.57091277e-04,  3.00000000e-02
  102368,  2.39330779e-03, -7.26001986e-04,  3.00000000e-02
  102369,  2.45294399e-03, -4.87920900e-04,  3.00000000e-02
  102370,  2.48895700e-03, -2.45140870e-04,  3.00000000e-02
  102371,  2.50100000e-03,  2.22133423e-19,  3.00000000e-02
  102372,  2.48895700e-03,  2.45140870e-04,  3.00000000e-02
  102373,  2.45294399e-03,  4.87920900e-04,  3.00000000e-02
  102374,  2.39330779e-03,  7.26001986e-04,  3.00000000e-02
  102375,  2.31062272e-03,  9.57091277e-04,  3.00000000e-02
  102376,  2.20568510e-03,  1.17896326e-03,  3.00000000e-02
  102377,  2.07950553e-03,  1.38948118e-03,  3.00000000e-02
  102378,  1.93329918e-03,  1.58661764e-03,  3.00000000e-02
  102379,  1.76847411e-03,  1.76847411e-03,  3.00000000e-02
  102380,  1.58661764e-03,  1.93329918e-03,  0.00000000e+00
  102381,  1.38948118e-03,  2.07950553e-03,  0.00000000e+00
  102382,  1.17896326e-03,  2.20568510e-03,  0.00000000e+00
  102383,  9.57091277e-04,  2.31062272e-03,  0.00000000e+00
  102384,  7.26001986e-04,  2.39330779e-03,  0.00000000e+00
  102385,  4.87920900e-04,  2.45294399e-03,  0.00000000e+00
  102386,  2.45140870e-04,  2.48895700e-03,  0.00000000e+00
  102387,  2.22133423e-19,  2.50100000e-03,  0.00000000e+00
  102388, -2.45140870e-04,  2.48895700e-03,  0.00000000e+00
  102389, -4.87920900e-04,  2.45294399e-03,  0.00000000e+00
  102390, -7.26001986e-04,  2.39330779e-03,  0.00000000e+00
  102391, -9.57091277e-04,  2.31062272e-03,  0.00000000e+00
  102392, -1.17896326e-03,  2.20568510e-03,  0.00000000e+00
  102393, -1.38948118e-03,  2.07950553e-03,  0.00000000e+00
  102394, -1.58661764e-03,  1.93329918e-03,  0.00000000e+00
  102395, -1.76847411e-03,  1.76847411e-03,  0.00000000e+00
  102396,  1.58661764e-03,  1.93329918e-03,  5.00000000e-04
  102397,  1.38948118e-03,  2.07950553e-03,  5.00000000e-04
  102398,  1.17896326e-03,  2.20568510e-03,  5.00000000e-04
  102399,  9.57091277e-04,  2.31062272e-03,  5.00000000e-04
  102400,  7.26001986e-04,  2.39330779e-03,  5.00000000e-04
  102401,  4.87920900e-04,  2.45294399e-03,  5.00000000e-04
  102402,  2.45140870e-04,  2.48895700e-03,  5.00000000e-04
  102403,  2.22133423e-19,  2.50100000e-03,  5.00000000e-04
  102404, -2.45140870e-04,  2.48895700e-03,  5.00000000e-04
  102405, -4.87920900e-04,  2.45294399e-03,  5.00000000e-04
  102406, -7.26001986e-04,  2.39330779e-03,  5.00000000e-04
  102407, -9.57091277e-04,  2.31062272e-03,  5.00000000e-04
  102408, -1.17896326e-03,  2.20568510e-03,  5.00000000e-04
  102409, -1.38948118e-03,  2.07950553e-03,  5.00000000e-04
  102410, -1.58661764e-03,  1.93329918e-03,  5.00000000e-04
  102411, -1.76847411e-03,  1.76847411e-03,  5.00000000e-04
  102412,  1.58661764e-03,  1.93329918e-03,  1.00000000e-03
  102413,  1.38948118e-03,  2.07950553e-03,  1.00000000e-03
  102414,  1.17896326e-03,  2.20568510e-03,  1.00000000e-03
  102415,  9.57091277e-04,  2.31062272e-03,  1.00000000e-03
  102416,  7.26001986e-04,  2.39330779e-03,  1.00000000e-03
  102417,  4.87920900e-04,  2.45294399e-03,  1.00000000e-03
  102418,  2.45140870e-04,  2.48895700e-03,  1.00000000e-03
  102419,  2.22133423e-19,  2.50100000e-03,  1.00000000e-03
  102420, -2.45140870e-04,  2.48895700e-03,  1.00000000e-03
  102421, -4.87920900e-04,  2.45294399e-03,  1.00000000e-03
  102422, -7.26001986e-04,  2.39330779e-03,  1.00000000e-03
  102423, -9.57091277e-04,  2.31062272e-03,  1.00000000e-03
  102424, -1.17896326e-03,  2.20568510e-03,  1.00000000e-03
  102425, -1.38948118e-03,  2.07950553e-03,  1.00000000e-03
  102426, -1.58661764e-03,  1.93329918e-03,  1.00000000e-03
  102427, -1.76847411e-03,  1.76847411e-03,  1.00000000e-03
  102428,  1.58661764e-03,  1.93329918e-03,  1.50000000e-03
  102429,  1.38948118e-03,  2.07950553e-03,  1.50000000e-03
  102430,  1.17896326e-03,  2.20568510e-03,  1.50000000e-03
  102431,  9.57091277e-04,  2.31062272e-03,  1.50000000e-03
  102432,  7.26001986e-04,  2.39330779e-03,  1.50000000e-03
  102433,  4.87920900e-04,  2.45294399e-03,  1.50000000e-03
  102434,  2.45140870e-04,  2.48895700e-03,  1.50000000e-03
  102435,  2.22133423e-19,  2.50100000e-03,  1.50000000e-03
  102436, -2.45140870e-04,  2.48895700e-03,  1.50000000e-03
  102437, -4.87920900e-04,  2.45294399e-03,  1.50000000e-03
  102438, -7.26001986e-04,  2.39330779e-03,  1.50000000e-03
  102439, -9.57091277e-04,  2.31062272e-03,  1.50000000e-03
  102440, -1.17896326e-03,  2.20568510e-03,  1.50000000e-03
  102441, -1.38948118e-03,  2.07950553e-03,  1.50000000e-03
  102442, -1.58661764e-03,  1.93329918e-03,  1.50000000e-03
  102443, -1.76847411e-03,  1.76847411e-03,  1.50000000e-03
  102444,  1.58661764e-03,  1.93329918e-03,  2.00000000e-03
  102445,  1.38948118e-03,  2.07950553e-03,  2.00000000e-03
  102446,  1.17896326e-03,  2.20568510e-03,  2.00000000e-03
  102447,  9.57091277e-04,  2.31062272e-03,  2.00000000e-03
  102448,  7.26001986e-04,  2.39330779e-03,  2.00000000e-03
  102449,  4.87920900e-04,  2.45294399e-03,  2.00000000e-03
  102450,  2.45140870e-04,  2.48895700e-03,  2.00000000e-03
  102451,  2.22133423e-19,  2.50100000e-03,  2.00000000e-03
  102452, -2.45140870e-04,  2.48895700e-03,  2.00000000e-03
  102453, -4.87920900e-04,  2.45294399e-03,  2.00000000e-03
  102454, -7.26001986e-04,  2.39330779e-03,  2.00000000e-03
  102455, -9.57091277e-04,  2.31062272e-03,  2.00000000e-03
  102456, -1.17896326e-03,  2.20568510e-03,  2.00000000e-03
  102457, -1.38948118e-03,  2.07950553e-03,  2.00000000e-03
  102458, -1.58661764e-03,  1.93329918e-03,  2.00000000e-03
  102459, -1.76847411e-03,  1.76847411e-03,  2.00000000e-03
  102460,  1.58661764e-03,  1.93329918e-03,  2.50000000e-03
  102461,  1.38948118e-03,  2.07950553e-03,  2.50000000e-03
  102462,  1.17896326e-03,  2.20568510e-03,  2.50000000e-03
  102463,  9.57091277e-04,  2.31062272e-03,  2.50000000e-03
  102464,  7.26001986e-04,  2.39330779e-03,  2.50000000e-03
  102465,  4.87920900e-04,  2.45294399e-03,  2.50000000e-03
  102466,  2.45140870e-04,  2.48895700e-03,  2.50000000e-03
  102467,  2.22133423e-19,  2.50100000e-03,  2.50000000e-03
  102468, -2.45140870e-04,  2.48895700e-03,  2.50000000e-03
  102469, -4.87920900e-04,  2.45294399e-03,  2.50000000e-03
  102470, -7.26001986e-04,  2.39330779e-03,  2.50000000e-03
  102471, -9.57091277e-04,  2.31062272e-03,  2.50000000e-03
  102472, -1.17896326e-03,  2.20568510e-03,  2.50000000e-03
  102473, -1.38948118e-03,  2.07950553e-03,  2.50000000e-03
  102474, -1.58661764e-03,  1.93329918e-03,  2.50000000e-03
  102475, -1.76847411e-03,  1.76847411e-03,  2.50000000e-03
  102476,  1.58661764e-03,  1.93329918e-03,  3.00000000e-03
  102477,  1.38948118e-03,  2.07950553e-03,  3.00000000e-03
  102478,  1.17896326e-03,  2.20568510e-03,  3.00000000e-03
  102479,  9.57091277e-04,  2.31062272e-03,  3.00000000e-03
  102480,  7.26001986e-04,  2.39330779e-03,  3.00000000e-03
  102481,  4.87920900e-04,  2.45294399e-03,  3.00000000e-03
  102482,  2.45140870e-04,  2.48895700e-03,  3.00000000e-03
  102483,  2.22133423e-19,  2.50100000e-03,  3.00000000e-03
  102484, -2.45140870e-04,  2.48895700e-03,  3.00000000e-03
  102485, -4.87920900e-04,  2.45294399e-03,  3.00000000e-03
  102486, -7.26001986e-04,  2.39330779e-03,  3.00000000e-03
  102487, -9.57091277e-04,  2.31062272e-03,  3.00000000e-03
  102488, -1.17896326e-03,  2.20568510e-03,  3.00000000e-03
  102489, -1.38948118e-03,  2.07950553e-03,  3.00000000e-03
  102490, -1.58661764e-03,  1.93329918e-03,  3.00000000e-03
  102491, -1.76847411e-03,  1.76847411e-03,  3.00000000e-03
  102492,  1.58661764e-03,  1.93329918e-03,  3.50000000e-03
  102493,  1.38948118e-03,  2.07950553e-03,  3.50000000e-03
  102494,  1.17896326e-03,  2.20568510e-03,  3.50000000e-03
  102495,  9.57091277e-04,  2.31062272e-03,  3.50000000e-03
  102496,  7.26001986e-04,  2.39330779e-03,  3.50000000e-03
  102497,  4.87920900e-04,  2.45294399e-03,  3.50000000e-03
  102498,  2.45140870e-04,  2.48895700e-03,  3.50000000e-03
  102499,  2.22133423e-19,  2.50100000e-03,  3.50000000e-03
  102500, -2.45140870e-04,  2.48895700e-03,  3.50000000e-03
  102501, -4.87920900e-04,  2.45294399e-03,  3.50000000e-03
  102502, -7.26001986e-04,  2.39330779e-03,  3.50000000e-03
  102503, -9.57091277e-04,  2.31062272e-03,  3.50000000e-03
  102504, -1.17896326e-03,  2.20568510e-03,  3.50000000e-03
  102505, -1.38948118e-03,  2.07950553e-03,  3.50000000e-03
  102506, -1.58661764e-03,  1.93329918e-03,  3.50000000e-03
  102507, -1.76847411e-03,  1.76847411e-03,  3.50000000e-03
  102508,  1.58661764e-03,  1.93329918e-03,  4.00000000e-03
  102509,  1.38948118e-03,  2.07950553e-03,  4.00000000e-03
  102510,  1.17896326e-03,  2.20568510e-03,  4.00000000e-03
  102511,  9.57091277e-04,  2.31062272e-03,  4.00000000e-03
  102512,  7.26001986e-04,  2.39330779e-03,  4.00000000e-03
  102513,  4.87920900e-04,  2.45294399e-03,  4.00000000e-03
  102514,  2.45140870e-04,  2.48895700e-03,  4.00000000e-03
  102515,  2.22133423e-19,  2.50100000e-03,  4.00000000e-03
  102516, -2.45140870e-04,  2.48895700e-03,  4.00000000e-03
  102517, -4.87920900e-04,  2.45294399e-03,  4.00000000e-03
  102518, -7.26001986e-04,  2.39330779e-03,  4.00000000e-03
  102519, -9.57091277e-04,  2.31062272e-03,  4.00000000e-03
  102520, -1.17896326e-03,  2.20568510e-03,  4.00000000e-03
  102521, -1.38948118e-03,  2.07950553e-03,  4.00000000e-03
  102522, -1.58661764e-03,  1.93329918e-03,  4.00000000e-03
  102523, -1.76847411e-03,  1.76847411e-03,  4.00000000e-03
  102524,  1.58661764e-03,  1.93329918e-03,  4.50000000e-03
  102525,  1.38948118e-03,  2.07950553e-03,  4.50000000e-03
  102526,  1.17896326e-03,  2.20568510e-03,  4.50000000e-03
  102527,  9.57091277e-04,  2.31062272e-03,  4.50000000e-03
  102528,  7.26001986e-04,  2.39330779e-03,  4.50000000e-03
  102529,  4.87920900e-04,  2.45294399e-03,  4.50000000e-03
  102530,  2.45140870e-04,  2.48895700e-03,  4.50000000e-03
  102531,  2.22133423e-19,  2.50100000e-03,  4.50000000e-03
  102532, -2.45140870e-04,  2.48895700e-03,  4.50000000e-03
  102533, -4.87920900e-04,  2.45294399e-03,  4.50000000e-03
  102534, -7.26001986e-04,  2.39330779e-03,  4.50000000e-03
  102535, -9.57091277e-04,  2.31062272e-03,  4.50000000e-03
  102536, -1.17896326e-03,  2.20568510e-03,  4.50000000e-03
  102537, -1.38948118e-03,  2.07950553e-03,  4.50000000e-03
  102538, -1.58661764e-03,  1.93329918e-03,  4.50000000e-03
  102539, -1.76847411e-03,  1.76847411e-03,  4.50000000e-03
  102540,  1.58661764e-03,  1.93329918e-03,  5.00000000e-03
  102541,  1.38948118e-03,  2.07950553e-03,  5.00000000e-03
  102542,  1.17896326e-03,  2.20568510e-03,  5.00000000e-03
  102543,  9.57091277e-04,  2.31062272e-03,  5.00000000e-03
  102544,  7.26001986e-04,  2.39330779e-03,  5.00000000e-03
  102545,  4.87920900e-04,  2.45294399e-03,  5.00000000e-03
  102546,  2.45140870e-04,  2.48895700e-03,  5.00000000e-03
  102547,  2.22133423e-19,  2.50100000e-03,  5.00000000e-03
  102548, -2.45140870e-04,  2.48895700e-03,  5.00000000e-03
  102549, -4.87920900e-04,  2.45294399e-03,  5.00000000e-03
  102550, -7.26001986e-04,  2.39330779e-03,  5.00000000e-03
  102551, -9.57091277e-04,  2.31062272e-03,  5.00000000e-03
  102552, -1.17896326e-03,  2.20568510e-03,  5.00000000e-03
  102553, -1.38948118e-03,  2.07950553e-03,  5.00000000e-03
  102554, -1.58661764e-03,  1.93329918e-03,  5.00000000e-03
  102555, -1.76847411e-03,  1.76847411e-03,  5.00000000e-03
  102556,  1.58661764e-03,  1.93329918e-03,  5.50000000e-03
  102557,  1.38948118e-03,  2.07950553e-03,  5.50000000e-03
  102558,  1.17896326e-03,  2.20568510e-03,  5.50000000e-03
  102559,  9.57091277e-04,  2.31062272e-03,  5.50000000e-03
  102560,  7.26001986e-04,  2.39330779e-03,  5.50000000e-03
  102561,  4.87920900e-04,  2.45294399e-03,  5.50000000e-03
  102562,  2.45140870e-04,  2.48895700e-03,  5.50000000e-03
  102563,  2.22133423e-19,  2.50100000e-03,  5.50000000e-03
  102564, -2.45140870e-04,  2.48895700e-03,  5.50000000e-03
  102565, -4.87920900e-04,  2.45294399e-03,  5.50000000e-03
  102566, -7.26001986e-04,  2.39330779e-03,  5.50000000e-03
  102567, -9.57091277e-04,  2.31062272e-03,  5.50000000e-03
  102568, -1.17896326e-03,  2.20568510e-03,  5.50000000e-03
  102569, -1.38948118e-03,  2.07950553e-03,  5.50000000e-03
  102570, -1.58661764e-03,  1.93329918e-03,  5.50000000e-03
  102571, -1.76847411e-03,  1.76847411e-03,  5.50000000e-03
  102572,  1.58661764e-03,  1.93329918e-03,  6.00000000e-03
  102573,  1.38948118e-03,  2.07950553e-03,  6.00000000e-03
  102574,  1.17896326e-03,  2.20568510e-03,  6.00000000e-03
  102575,  9.57091277e-04,  2.31062272e-03,  6.00000000e-03
  102576,  7.26001986e-04,  2.39330779e-03,  6.00000000e-03
  102577,  4.87920900e-04,  2.45294399e-03,  6.00000000e-03
  102578,  2.45140870e-04,  2.48895700e-03,  6.00000000e-03
  102579,  2.22133423e-19,  2.50100000e-03,  6.00000000e-03
  102580, -2.45140870e-04,  2.48895700e-03,  6.00000000e-03
  102581, -4.87920900e-04,  2.45294399e-03,  6.00000000e-03
  102582, -7.26001986e-04,  2.39330779e-03,  6.00000000e-03
  102583, -9.57091277e-04,  2.31062272e-03,  6.00000000e-03
  102584, -1.17896326e-03,  2.20568510e-03,  6.00000000e-03
  102585, -1.38948118e-03,  2.07950553e-03,  6.00000000e-03
  102586, -1.58661764e-03,  1.93329918e-03,  6.00000000e-03
  102587, -1.76847411e-03,  1.76847411e-03,  6.00000000e-03
  102588,  1.58661764e-03,  1.93329918e-03,  6.50000000e-03
  102589,  1.38948118e-03,  2.07950553e-03,  6.50000000e-03
  102590,  1.17896326e-03,  2.20568510e-03,  6.50000000e-03
  102591,  9.57091277e-04,  2.31062272e-03,  6.50000000e-03
  102592,  7.26001986e-04,  2.39330779e-03,  6.50000000e-03
  102593,  4.87920900e-04,  2.45294399e-03,  6.50000000e-03
  102594,  2.45140870e-04,  2.48895700e-03,  6.50000000e-03
  102595,  2.22133423e-19,  2.50100000e-03,  6.50000000e-03
  102596, -2.45140870e-04,  2.48895700e-03,  6.50000000e-03
  102597, -4.87920900e-04,  2.45294399e-03,  6.50000000e-03
  102598, -7.26001986e-04,  2.39330779e-03,  6.50000000e-03
  102599, -9.57091277e-04,  2.31062272e-03,  6.50000000e-03
  102600, -1.17896326e-03,  2.20568510e-03,  6.50000000e-03
  102601, -1.38948118e-03,  2.07950553e-03,  6.50000000e-03
  102602, -1.58661764e-03,  1.93329918e-03,  6.50000000e-03
  102603, -1.76847411e-03,  1.76847411e-03,  6.50000000e-03
  102604,  1.58661764e-03,  1.93329918e-03,  7.00000000e-03
  102605,  1.38948118e-03,  2.07950553e-03,  7.00000000e-03
  102606,  1.17896326e-03,  2.20568510e-03,  7.00000000e-03
  102607,  9.57091277e-04,  2.31062272e-03,  7.00000000e-03
  102608,  7.26001986e-04,  2.39330779e-03,  7.00000000e-03
  102609,  4.87920900e-04,  2.45294399e-03,  7.00000000e-03
  102610,  2.45140870e-04,  2.48895700e-03,  7.00000000e-03
  102611,  2.22133423e-19,  2.50100000e-03,  7.00000000e-03
  102612, -2.45140870e-04,  2.48895700e-03,  7.00000000e-03
  102613, -4.87920900e-04,  2.45294399e-03,  7.00000000e-03
  102614, -7.26001986e-04,  2.39330779e-03,  7.00000000e-03
  102615, -9.57091277e-04,  2.31062272e-03,  7.00000000e-03
  102616, -1.17896326e-03,  2.20568510e-03,  7.00000000e-03
  102617, -1.38948118e-03,  2.07950553e-03,  7.00000000e-03
  102618, -1.58661764e-03,  1.93329918e-03,  7.00000000e-03
  102619, -1.76847411e-03,  1.76847411e-03,  7.00000000e-03
  102620,  1.58661764e-03,  1.93329918e-03,  7.50000000e-03
  102621,  1.38948118e-03,  2.07950553e-03,  7.50000000e-03
  102622,  1.17896326e-03,  2.20568510e-03,  7.50000000e-03
  102623,  9.57091277e-04,  2.31062272e-03,  7.50000000e-03
  102624,  7.26001986e-04,  2.39330779e-03,  7.50000000e-03
  102625,  4.87920900e-04,  2.45294399e-03,  7.50000000e-03
  102626,  2.45140870e-04,  2.48895700e-03,  7.50000000e-03
  102627,  2.22133423e-19,  2.50100000e-03,  7.50000000e-03
  102628, -2.45140870e-04,  2.48895700e-03,  7.50000000e-03
  102629, -4.87920900e-04,  2.45294399e-03,  7.50000000e-03
  102630, -7.26001986e-04,  2.39330779e-03,  7.50000000e-03
  102631, -9.57091277e-04,  2.31062272e-03,  7.50000000e-03
  102632, -1.17896326e-03,  2.20568510e-03,  7.50000000e-03
  102633, -1.38948118e-03,  2.07950553e-03,  7.50000000e-03
  102634, -1.58661764e-03,  1.93329918e-03,  7.50000000e-03
  102635, -1.76847411e-03,  1.76847411e-03,  7.50000000e-03
  102636,  1.58661764e-03,  1.93329918e-03,  8.00000000e-03
  102637,  1.38948118e-03,  2.07950553e-03,  8.00000000e-03
  102638,  1.17896326e-03,  2.20568510e-03,  8.00000000e-03
  102639,  9.57091277e-04,  2.31062272e-03,  8.00000000e-03
  102640,  7.26001986e-04,  2.39330779e-03,  8.00000000e-03
  102641,  4.87920900e-04,  2.45294399e-03,  8.00000000e-03
  102642,  2.45140870e-04,  2.48895700e-03,  8.00000000e-03
  102643,  2.22133423e-19,  2.50100000e-03,  8.00000000e-03
  102644, -2.45140870e-04,  2.48895700e-03,  8.00000000e-03
  102645, -4.87920900e-04,  2.45294399e-03,  8.00000000e-03
  102646, -7.26001986e-04,  2.39330779e-03,  8.00000000e-03
  102647, -9.57091277e-04,  2.31062272e-03,  8.00000000e-03
  102648, -1.17896326e-03,  2.20568510e-03,  8.00000000e-03
  102649, -1.38948118e-03,  2.07950553e-03,  8.00000000e-03
  102650, -1.58661764e-03,  1.93329918e-03,  8.00000000e-03
  102651, -1.76847411e-03,  1.76847411e-03,  8.00000000e-03
  102652,  1.58661764e-03,  1.93329918e-03,  8.50000000e-03
  102653,  1.38948118e-03,  2.07950553e-03,  8.50000000e-03
  102654,  1.17896326e-03,  2.20568510e-03,  8.50000000e-03
  102655,  9.57091277e-04,  2.31062272e-03,  8.50000000e-03
  102656,  7.26001986e-04,  2.39330779e-03,  8.50000000e-03
  102657,  4.87920900e-04,  2.45294399e-03,  8.50000000e-03
  102658,  2.45140870e-04,  2.48895700e-03,  8.50000000e-03
  102659,  2.22133423e-19,  2.50100000e-03,  8.50000000e-03
  102660, -2.45140870e-04,  2.48895700e-03,  8.50000000e-03
  102661, -4.87920900e-04,  2.45294399e-03,  8.50000000e-03
  102662, -7.26001986e-04,  2.39330779e-03,  8.50000000e-03
  102663, -9.57091277e-04,  2.31062272e-03,  8.50000000e-03
  102664, -1.17896326e-03,  2.20568510e-03,  8.50000000e-03
  102665, -1.38948118e-03,  2.07950553e-03,  8.50000000e-03
  102666, -1.58661764e-03,  1.93329918e-03,  8.50000000e-03
  102667, -1.76847411e-03,  1.76847411e-03,  8.50000000e-03
  102668,  1.58661764e-03,  1.93329918e-03,  9.00000000e-03
  102669,  1.38948118e-03,  2.07950553e-03,  9.00000000e-03
  102670,  1.17896326e-03,  2.20568510e-03,  9.00000000e-03
  102671,  9.57091277e-04,  2.31062272e-03,  9.00000000e-03
  102672,  7.26001986e-04,  2.39330779e-03,  9.00000000e-03
  102673,  4.87920900e-04,  2.45294399e-03,  9.00000000e-03
  102674,  2.45140870e-04,  2.48895700e-03,  9.00000000e-03
  102675,  2.22133423e-19,  2.50100000e-03,  9.00000000e-03
  102676, -2.45140870e-04,  2.48895700e-03,  9.00000000e-03
  102677, -4.87920900e-04,  2.45294399e-03,  9.00000000e-03
  102678, -7.26001986e-04,  2.39330779e-03,  9.00000000e-03
  102679, -9.57091277e-04,  2.31062272e-03,  9.00000000e-03
  102680, -1.17896326e-03,  2.20568510e-03,  9.00000000e-03
  102681, -1.38948118e-03,  2.07950553e-03,  9.00000000e-03
  102682, -1.58661764e-03,  1.93329918e-03,  9.00000000e-03
  102683, -1.76847411e-03,  1.76847411e-03,  9.00000000e-03
  102684,  1.58661764e-03,  1.93329918e-03,  9.50000000e-03
  102685,  1.38948118e-03,  2.07950553e-03,  9.50000000e-03
  102686,  1.17896326e-03,  2.20568510e-03,  9.50000000e-03
  102687,  9.57091277e-04,  2.31062272e-03,  9.50000000e-03
  102688,  7.26001986e-04,  2.39330779e-03,  9.50000000e-03
  102689,  4.87920900e-04,  2.45294399e-03,  9.50000000e-03
  102690,  2.45140870e-04,  2.48895700e-03,  9.50000000e-03
  102691,  2.22133423e-19,  2.50100000e-03,  9.50000000e-03
  102692, -2.45140870e-04,  2.48895700e-03,  9.50000000e-03
  102693, -4.87920900e-04,  2.45294399e-03,  9.50000000e-03
  102694, -7.26001986e-04,  2.39330779e-03,  9.50000000e-03
  102695, -9.57091277e-04,  2.31062272e-03,  9.50000000e-03
  102696, -1.17896326e-03,  2.20568510e-03,  9.50000000e-03
  102697, -1.38948118e-03,  2.07950553e-03,  9.50000000e-03
  102698, -1.58661764e-03,  1.93329918e-03,  9.50000000e-03
  102699, -1.76847411e-03,  1.76847411e-03,  9.50000000e-03
  102700,  1.58661764e-03,  1.93329918e-03,  1.00000000e-02
  102701,  1.38948118e-03,  2.07950553e-03,  1.00000000e-02
  102702,  1.17896326e-03,  2.20568510e-03,  1.00000000e-02
  102703,  9.57091277e-04,  2.31062272e-03,  1.00000000e-02
  102704,  7.26001986e-04,  2.39330779e-03,  1.00000000e-02
  102705,  4.87920900e-04,  2.45294399e-03,  1.00000000e-02
  102706,  2.45140870e-04,  2.48895700e-03,  1.00000000e-02
  102707,  2.22133423e-19,  2.50100000e-03,  1.00000000e-02
  102708, -2.45140870e-04,  2.48895700e-03,  1.00000000e-02
  102709, -4.87920900e-04,  2.45294399e-03,  1.00000000e-02
  102710, -7.26001986e-04,  2.39330779e-03,  1.00000000e-02
  102711, -9.57091277e-04,  2.31062272e-03,  1.00000000e-02
  102712, -1.17896326e-03,  2.20568510e-03,  1.00000000e-02
  102713, -1.38948118e-03,  2.07950553e-03,  1.00000000e-02
  102714, -1.58661764e-03,  1.93329918e-03,  1.00000000e-02
  102715, -1.76847411e-03,  1.76847411e-03,  1.00000000e-02
  102716,  1.58661764e-03,  1.93329918e-03,  1.05000000e-02
  102717,  1.38948118e-03,  2.07950553e-03,  1.05000000e-02
  102718,  1.17896326e-03,  2.20568510e-03,  1.05000000e-02
  102719,  9.57091277e-04,  2.31062272e-03,  1.05000000e-02
  102720,  7.26001986e-04,  2.39330779e-03,  1.05000000e-02
  102721,  4.87920900e-04,  2.45294399e-03,  1.05000000e-02
  102722,  2.45140870e-04,  2.48895700e-03,  1.05000000e-02
  102723,  2.22133423e-19,  2.50100000e-03,  1.05000000e-02
  102724, -2.45140870e-04,  2.48895700e-03,  1.05000000e-02
  102725, -4.87920900e-04,  2.45294399e-03,  1.05000000e-02
  102726, -7.26001986e-04,  2.39330779e-03,  1.05000000e-02
  102727, -9.57091277e-04,  2.31062272e-03,  1.05000000e-02
  102728, -1.17896326e-03,  2.20568510e-03,  1.05000000e-02
  102729, -1.38948118e-03,  2.07950553e-03,  1.05000000e-02
  102730, -1.58661764e-03,  1.93329918e-03,  1.05000000e-02
  102731, -1.76847411e-03,  1.76847411e-03,  1.05000000e-02
  102732,  1.58661764e-03,  1.93329918e-03,  1.10000000e-02
  102733,  1.38948118e-03,  2.07950553e-03,  1.10000000e-02
  102734,  1.17896326e-03,  2.20568510e-03,  1.10000000e-02
  102735,  9.57091277e-04,  2.31062272e-03,  1.10000000e-02
  102736,  7.26001986e-04,  2.39330779e-03,  1.10000000e-02
  102737,  4.87920900e-04,  2.45294399e-03,  1.10000000e-02
  102738,  2.45140870e-04,  2.48895700e-03,  1.10000000e-02
  102739,  2.22133423e-19,  2.50100000e-03,  1.10000000e-02
  102740, -2.45140870e-04,  2.48895700e-03,  1.10000000e-02
  102741, -4.87920900e-04,  2.45294399e-03,  1.10000000e-02
  102742, -7.26001986e-04,  2.39330779e-03,  1.10000000e-02
  102743, -9.57091277e-04,  2.31062272e-03,  1.10000000e-02
  102744, -1.17896326e-03,  2.20568510e-03,  1.10000000e-02
  102745, -1.38948118e-03,  2.07950553e-03,  1.10000000e-02
  102746, -1.58661764e-03,  1.93329918e-03,  1.10000000e-02
  102747, -1.76847411e-03,  1.76847411e-03,  1.10000000e-02
  102748,  1.58661764e-03,  1.93329918e-03,  1.15000000e-02
  102749,  1.38948118e-03,  2.07950553e-03,  1.15000000e-02
  102750,  1.17896326e-03,  2.20568510e-03,  1.15000000e-02
  102751,  9.57091277e-04,  2.31062272e-03,  1.15000000e-02
  102752,  7.26001986e-04,  2.39330779e-03,  1.15000000e-02
  102753,  4.87920900e-04,  2.45294399e-03,  1.15000000e-02
  102754,  2.45140870e-04,  2.48895700e-03,  1.15000000e-02
  102755,  2.22133423e-19,  2.50100000e-03,  1.15000000e-02
  102756, -2.45140870e-04,  2.48895700e-03,  1.15000000e-02
  102757, -4.87920900e-04,  2.45294399e-03,  1.15000000e-02
  102758, -7.26001986e-04,  2.39330779e-03,  1.15000000e-02
  102759, -9.57091277e-04,  2.31062272e-03,  1.15000000e-02
  102760, -1.17896326e-03,  2.20568510e-03,  1.15000000e-02
  102761, -1.38948118e-03,  2.07950553e-03,  1.15000000e-02
  102762, -1.58661764e-03,  1.93329918e-03,  1.15000000e-02
  102763, -1.76847411e-03,  1.76847411e-03,  1.15000000e-02
  102764,  1.58661764e-03,  1.93329918e-03,  1.20000000e-02
  102765,  1.38948118e-03,  2.07950553e-03,  1.20000000e-02
  102766,  1.17896326e-03,  2.20568510e-03,  1.20000000e-02
  102767,  9.57091277e-04,  2.31062272e-03,  1.20000000e-02
  102768,  7.26001986e-04,  2.39330779e-03,  1.20000000e-02
  102769,  4.87920900e-04,  2.45294399e-03,  1.20000000e-02
  102770,  2.45140870e-04,  2.48895700e-03,  1.20000000e-02
  102771,  2.22133423e-19,  2.50100000e-03,  1.20000000e-02
  102772, -2.45140870e-04,  2.48895700e-03,  1.20000000e-02
  102773, -4.87920900e-04,  2.45294399e-03,  1.20000000e-02
  102774, -7.26001986e-04,  2.39330779e-03,  1.20000000e-02
  102775, -9.57091277e-04,  2.31062272e-03,  1.20000000e-02
  102776, -1.17896326e-03,  2.20568510e-03,  1.20000000e-02
  102777, -1.38948118e-03,  2.07950553e-03,  1.20000000e-02
  102778, -1.58661764e-03,  1.93329918e-03,  1.20000000e-02
  102779, -1.76847411e-03,  1.76847411e-03,  1.20000000e-02
  102780,  1.58661764e-03,  1.93329918e-03,  1.25000000e-02
  102781,  1.38948118e-03,  2.07950553e-03,  1.25000000e-02
  102782,  1.17896326e-03,  2.20568510e-03,  1.25000000e-02
  102783,  9.57091277e-04,  2.31062272e-03,  1.25000000e-02
  102784,  7.26001986e-04,  2.39330779e-03,  1.25000000e-02
  102785,  4.87920900e-04,  2.45294399e-03,  1.25000000e-02
  102786,  2.45140870e-04,  2.48895700e-03,  1.25000000e-02
  102787,  2.22133423e-19,  2.50100000e-03,  1.25000000e-02
  102788, -2.45140870e-04,  2.48895700e-03,  1.25000000e-02
  102789, -4.87920900e-04,  2.45294399e-03,  1.25000000e-02
  102790, -7.26001986e-04,  2.39330779e-03,  1.25000000e-02
  102791, -9.57091277e-04,  2.31062272e-03,  1.25000000e-02
  102792, -1.17896326e-03,  2.20568510e-03,  1.25000000e-02
  102793, -1.38948118e-03,  2.07950553e-03,  1.25000000e-02
  102794, -1.58661764e-03,  1.93329918e-03,  1.25000000e-02
  102795, -1.76847411e-03,  1.76847411e-03,  1.25000000e-02
  102796,  1.58661764e-03,  1.93329918e-03,  1.30000000e-02
  102797,  1.38948118e-03,  2.07950553e-03,  1.30000000e-02
  102798,  1.17896326e-03,  2.20568510e-03,  1.30000000e-02
  102799,  9.57091277e-04,  2.31062272e-03,  1.30000000e-02
  102800,  7.26001986e-04,  2.39330779e-03,  1.30000000e-02
  102801,  4.87920900e-04,  2.45294399e-03,  1.30000000e-02
  102802,  2.45140870e-04,  2.48895700e-03,  1.30000000e-02
  102803,  2.22133423e-19,  2.50100000e-03,  1.30000000e-02
  102804, -2.45140870e-04,  2.48895700e-03,  1.30000000e-02
  102805, -4.87920900e-04,  2.45294399e-03,  1.30000000e-02
  102806, -7.26001986e-04,  2.39330779e-03,  1.30000000e-02
  102807, -9.57091277e-04,  2.31062272e-03,  1.30000000e-02
  102808, -1.17896326e-03,  2.20568510e-03,  1.30000000e-02
  102809, -1.38948118e-03,  2.07950553e-03,  1.30000000e-02
  102810, -1.58661764e-03,  1.93329918e-03,  1.30000000e-02
  102811, -1.76847411e-03,  1.76847411e-03,  1.30000000e-02
  102812,  1.58661764e-03,  1.93329918e-03,  1.35000000e-02
  102813,  1.38948118e-03,  2.07950553e-03,  1.35000000e-02
  102814,  1.17896326e-03,  2.20568510e-03,  1.35000000e-02
  102815,  9.57091277e-04,  2.31062272e-03,  1.35000000e-02
  102816,  7.26001986e-04,  2.39330779e-03,  1.35000000e-02
  102817,  4.87920900e-04,  2.45294399e-03,  1.35000000e-02
  102818,  2.45140870e-04,  2.48895700e-03,  1.35000000e-02
  102819,  2.22133423e-19,  2.50100000e-03,  1.35000000e-02
  102820, -2.45140870e-04,  2.48895700e-03,  1.35000000e-02
  102821, -4.87920900e-04,  2.45294399e-03,  1.35000000e-02
  102822, -7.26001986e-04,  2.39330779e-03,  1.35000000e-02
  102823, -9.57091277e-04,  2.31062272e-03,  1.35000000e-02
  102824, -1.17896326e-03,  2.20568510e-03,  1.35000000e-02
  102825, -1.38948118e-03,  2.07950553e-03,  1.35000000e-02
  102826, -1.58661764e-03,  1.93329918e-03,  1.35000000e-02
  102827, -1.76847411e-03,  1.76847411e-03,  1.35000000e-02
  102828,  1.58661764e-03,  1.93329918e-03,  1.40000000e-02
  102829,  1.38948118e-03,  2.07950553e-03,  1.40000000e-02
  102830,  1.17896326e-03,  2.20568510e-03,  1.40000000e-02
  102831,  9.57091277e-04,  2.31062272e-03,  1.40000000e-02
  102832,  7.26001986e-04,  2.39330779e-03,  1.40000000e-02
  102833,  4.87920900e-04,  2.45294399e-03,  1.40000000e-02
  102834,  2.45140870e-04,  2.48895700e-03,  1.40000000e-02
  102835,  2.22133423e-19,  2.50100000e-03,  1.40000000e-02
  102836, -2.45140870e-04,  2.48895700e-03,  1.40000000e-02
  102837, -4.87920900e-04,  2.45294399e-03,  1.40000000e-02
  102838, -7.26001986e-04,  2.39330779e-03,  1.40000000e-02
  102839, -9.57091277e-04,  2.31062272e-03,  1.40000000e-02
  102840, -1.17896326e-03,  2.20568510e-03,  1.40000000e-02
  102841, -1.38948118e-03,  2.07950553e-03,  1.40000000e-02
  102842, -1.58661764e-03,  1.93329918e-03,  1.40000000e-02
  102843, -1.76847411e-03,  1.76847411e-03,  1.40000000e-02
  102844,  1.58661764e-03,  1.93329918e-03,  1.45000000e-02
  102845,  1.38948118e-03,  2.07950553e-03,  1.45000000e-02
  102846,  1.17896326e-03,  2.20568510e-03,  1.45000000e-02
  102847,  9.57091277e-04,  2.31062272e-03,  1.45000000e-02
  102848,  7.26001986e-04,  2.39330779e-03,  1.45000000e-02
  102849,  4.87920900e-04,  2.45294399e-03,  1.45000000e-02
  102850,  2.45140870e-04,  2.48895700e-03,  1.45000000e-02
  102851,  2.22133423e-19,  2.50100000e-03,  1.45000000e-02
  102852, -2.45140870e-04,  2.48895700e-03,  1.45000000e-02
  102853, -4.87920900e-04,  2.45294399e-03,  1.45000000e-02
  102854, -7.26001986e-04,  2.39330779e-03,  1.45000000e-02
  102855, -9.57091277e-04,  2.31062272e-03,  1.45000000e-02
  102856, -1.17896326e-03,  2.20568510e-03,  1.45000000e-02
  102857, -1.38948118e-03,  2.07950553e-03,  1.45000000e-02
  102858, -1.58661764e-03,  1.93329918e-03,  1.45000000e-02
  102859, -1.76847411e-03,  1.76847411e-03,  1.45000000e-02
  102860,  1.58661764e-03,  1.93329918e-03,  1.50000000e-02
  102861,  1.38948118e-03,  2.07950553e-03,  1.50000000e-02
  102862,  1.17896326e-03,  2.20568510e-03,  1.50000000e-02
  102863,  9.57091277e-04,  2.31062272e-03,  1.50000000e-02
  102864,  7.26001986e-04,  2.39330779e-03,  1.50000000e-02
  102865,  4.87920900e-04,  2.45294399e-03,  1.50000000e-02
  102866,  2.45140870e-04,  2.48895700e-03,  1.50000000e-02
  102867,  2.22133423e-19,  2.50100000e-03,  1.50000000e-02
  102868, -2.45140870e-04,  2.48895700e-03,  1.50000000e-02
  102869, -4.87920900e-04,  2.45294399e-03,  1.50000000e-02
  102870, -7.26001986e-04,  2.39330779e-03,  1.50000000e-02
  102871, -9.57091277e-04,  2.31062272e-03,  1.50000000e-02
  102872, -1.17896326e-03,  2.20568510e-03,  1.50000000e-02
  102873, -1.38948118e-03,  2.07950553e-03,  1.50000000e-02
  102874, -1.58661764e-03,  1.93329918e-03,  1.50000000e-02
  102875, -1.76847411e-03,  1.76847411e-03,  1.50000000e-02
  102876,  1.58661764e-03,  1.93329918e-03,  1.55000000e-02
  102877,  1.38948118e-03,  2.07950553e-03,  1.55000000e-02
  102878,  1.17896326e-03,  2.20568510e-03,  1.55000000e-02
  102879,  9.57091277e-04,  2.31062272e-03,  1.55000000e-02
  102880,  7.26001986e-04,  2.39330779e-03,  1.55000000e-02
  102881,  4.87920900e-04,  2.45294399e-03,  1.55000000e-02
  102882,  2.45140870e-04,  2.48895700e-03,  1.55000000e-02
  102883,  2.22133423e-19,  2.50100000e-03,  1.55000000e-02
  102884, -2.45140870e-04,  2.48895700e-03,  1.55000000e-02
  102885, -4.87920900e-04,  2.45294399e-03,  1.55000000e-02
  102886, -7.26001986e-04,  2.39330779e-03,  1.55000000e-02
  102887, -9.57091277e-04,  2.31062272e-03,  1.55000000e-02
  102888, -1.17896326e-03,  2.20568510e-03,  1.55000000e-02
  102889, -1.38948118e-03,  2.07950553e-03,  1.55000000e-02
  102890, -1.58661764e-03,  1.93329918e-03,  1.55000000e-02
  102891, -1.76847411e-03,  1.76847411e-03,  1.55000000e-02
  102892,  1.58661764e-03,  1.93329918e-03,  1.60000000e-02
  102893,  1.38948118e-03,  2.07950553e-03,  1.60000000e-02
  102894,  1.17896326e-03,  2.20568510e-03,  1.60000000e-02
  102895,  9.57091277e-04,  2.31062272e-03,  1.60000000e-02
  102896,  7.26001986e-04,  2.39330779e-03,  1.60000000e-02
  102897,  4.87920900e-04,  2.45294399e-03,  1.60000000e-02
  102898,  2.45140870e-04,  2.48895700e-03,  1.60000000e-02
  102899,  2.22133423e-19,  2.50100000e-03,  1.60000000e-02
  102900, -2.45140870e-04,  2.48895700e-03,  1.60000000e-02
  102901, -4.87920900e-04,  2.45294399e-03,  1.60000000e-02
  102902, -7.26001986e-04,  2.39330779e-03,  1.60000000e-02
  102903, -9.57091277e-04,  2.31062272e-03,  1.60000000e-02
  102904, -1.17896326e-03,  2.20568510e-03,  1.60000000e-02
  102905, -1.38948118e-03,  2.07950553e-03,  1.60000000e-02
  102906, -1.58661764e-03,  1.93329918e-03,  1.60000000e-02
  102907, -1.76847411e-03,  1.76847411e-03,  1.60000000e-02
  102908,  1.58661764e-03,  1.93329918e-03,  1.65000000e-02
  102909,  1.38948118e-03,  2.07950553e-03,  1.65000000e-02
  102910,  1.17896326e-03,  2.20568510e-03,  1.65000000e-02
  102911,  9.57091277e-04,  2.31062272e-03,  1.65000000e-02
  102912,  7.26001986e-04,  2.39330779e-03,  1.65000000e-02
  102913,  4.87920900e-04,  2.45294399e-03,  1.65000000e-02
  102914,  2.45140870e-04,  2.48895700e-03,  1.65000000e-02
  102915,  2.22133423e-19,  2.50100000e-03,  1.65000000e-02
  102916, -2.45140870e-04,  2.48895700e-03,  1.65000000e-02
  102917, -4.87920900e-04,  2.45294399e-03,  1.65000000e-02
  102918, -7.26001986e-04,  2.39330779e-03,  1.65000000e-02
  102919, -9.57091277e-04,  2.31062272e-03,  1.65000000e-02
  102920, -1.17896326e-03,  2.20568510e-03,  1.65000000e-02
  102921, -1.38948118e-03,  2.07950553e-03,  1.65000000e-02
  102922, -1.58661764e-03,  1.93329918e-03,  1.65000000e-02
  102923, -1.76847411e-03,  1.76847411e-03,  1.65000000e-02
  102924,  1.58661764e-03,  1.93329918e-03,  1.70000000e-02
  102925,  1.38948118e-03,  2.07950553e-03,  1.70000000e-02
  102926,  1.17896326e-03,  2.20568510e-03,  1.70000000e-02
  102927,  9.57091277e-04,  2.31062272e-03,  1.70000000e-02
  102928,  7.26001986e-04,  2.39330779e-03,  1.70000000e-02
  102929,  4.87920900e-04,  2.45294399e-03,  1.70000000e-02
  102930,  2.45140870e-04,  2.48895700e-03,  1.70000000e-02
  102931,  2.22133423e-19,  2.50100000e-03,  1.70000000e-02
  102932, -2.45140870e-04,  2.48895700e-03,  1.70000000e-02
  102933, -4.87920900e-04,  2.45294399e-03,  1.70000000e-02
  102934, -7.26001986e-04,  2.39330779e-03,  1.70000000e-02
  102935, -9.57091277e-04,  2.31062272e-03,  1.70000000e-02
  102936, -1.17896326e-03,  2.20568510e-03,  1.70000000e-02
  102937, -1.38948118e-03,  2.07950553e-03,  1.70000000e-02
  102938, -1.58661764e-03,  1.93329918e-03,  1.70000000e-02
  102939, -1.76847411e-03,  1.76847411e-03,  1.70000000e-02
  102940,  1.58661764e-03,  1.93329918e-03,  1.75000000e-02
  102941,  1.38948118e-03,  2.07950553e-03,  1.75000000e-02
  102942,  1.17896326e-03,  2.20568510e-03,  1.75000000e-02
  102943,  9.57091277e-04,  2.31062272e-03,  1.75000000e-02
  102944,  7.26001986e-04,  2.39330779e-03,  1.75000000e-02
  102945,  4.87920900e-04,  2.45294399e-03,  1.75000000e-02
  102946,  2.45140870e-04,  2.48895700e-03,  1.75000000e-02
  102947,  2.22133423e-19,  2.50100000e-03,  1.75000000e-02
  102948, -2.45140870e-04,  2.48895700e-03,  1.75000000e-02
  102949, -4.87920900e-04,  2.45294399e-03,  1.75000000e-02
  102950, -7.26001986e-04,  2.39330779e-03,  1.75000000e-02
  102951, -9.57091277e-04,  2.31062272e-03,  1.75000000e-02
  102952, -1.17896326e-03,  2.20568510e-03,  1.75000000e-02
  102953, -1.38948118e-03,  2.07950553e-03,  1.75000000e-02
  102954, -1.58661764e-03,  1.93329918e-03,  1.75000000e-02
  102955, -1.76847411e-03,  1.76847411e-03,  1.75000000e-02
  102956,  1.58661764e-03,  1.93329918e-03,  1.80000000e-02
  102957,  1.38948118e-03,  2.07950553e-03,  1.80000000e-02
  102958,  1.17896326e-03,  2.20568510e-03,  1.80000000e-02
  102959,  9.57091277e-04,  2.31062272e-03,  1.80000000e-02
  102960,  7.26001986e-04,  2.39330779e-03,  1.80000000e-02
  102961,  4.87920900e-04,  2.45294399e-03,  1.80000000e-02
  102962,  2.45140870e-04,  2.48895700e-03,  1.80000000e-02
  102963,  2.22133423e-19,  2.50100000e-03,  1.80000000e-02
  102964, -2.45140870e-04,  2.48895700e-03,  1.80000000e-02
  102965, -4.87920900e-04,  2.45294399e-03,  1.80000000e-02
  102966, -7.26001986e-04,  2.39330779e-03,  1.80000000e-02
  102967, -9.57091277e-04,  2.31062272e-03,  1.80000000e-02
  102968, -1.17896326e-03,  2.20568510e-03,  1.80000000e-02
  102969, -1.38948118e-03,  2.07950553e-03,  1.80000000e-02
  102970, -1.58661764e-03,  1.93329918e-03,  1.80000000e-02
  102971, -1.76847411e-03,  1.76847411e-03,  1.80000000e-02
  102972,  1.58661764e-03,  1.93329918e-03,  1.85000000e-02
  102973,  1.38948118e-03,  2.07950553e-03,  1.85000000e-02
  102974,  1.17896326e-03,  2.20568510e-03,  1.85000000e-02
  102975,  9.57091277e-04,  2.31062272e-03,  1.85000000e-02
  102976,  7.26001986e-04,  2.39330779e-03,  1.85000000e-02
  102977,  4.87920900e-04,  2.45294399e-03,  1.85000000e-02
  102978,  2.45140870e-04,  2.48895700e-03,  1.85000000e-02
  102979,  2.22133423e-19,  2.50100000e-03,  1.85000000e-02
  102980, -2.45140870e-04,  2.48895700e-03,  1.85000000e-02
  102981, -4.87920900e-04,  2.45294399e-03,  1.85000000e-02
  102982, -7.26001986e-04,  2.39330779e-03,  1.85000000e-02
  102983, -9.57091277e-04,  2.31062272e-03,  1.85000000e-02
  102984, -1.17896326e-03,  2.20568510e-03,  1.85000000e-02
  102985, -1.38948118e-03,  2.07950553e-03,  1.85000000e-02
  102986, -1.58661764e-03,  1.93329918e-03,  1.85000000e-02
  102987, -1.76847411e-03,  1.76847411e-03,  1.85000000e-02
  102988,  1.58661764e-03,  1.93329918e-03,  1.90000000e-02
  102989,  1.38948118e-03,  2.07950553e-03,  1.90000000e-02
  102990,  1.17896326e-03,  2.20568510e-03,  1.90000000e-02
  102991,  9.57091277e-04,  2.31062272e-03,  1.90000000e-02
  102992,  7.26001986e-04,  2.39330779e-03,  1.90000000e-02
  102993,  4.87920900e-04,  2.45294399e-03,  1.90000000e-02
  102994,  2.45140870e-04,  2.48895700e-03,  1.90000000e-02
  102995,  2.22133423e-19,  2.50100000e-03,  1.90000000e-02
  102996, -2.45140870e-04,  2.48895700e-03,  1.90000000e-02
  102997, -4.87920900e-04,  2.45294399e-03,  1.90000000e-02
  102998, -7.26001986e-04,  2.39330779e-03,  1.90000000e-02
  102999, -9.57091277e-04,  2.31062272e-03,  1.90000000e-02
  103000, -1.17896326e-03,  2.20568510e-03,  1.90000000e-02
  103001, -1.38948118e-03,  2.07950553e-03,  1.90000000e-02
  103002, -1.58661764e-03,  1.93329918e-03,  1.90000000e-02
  103003, -1.76847411e-03,  1.76847411e-03,  1.90000000e-02
  103004,  1.58661764e-03,  1.93329918e-03,  1.95000000e-02
  103005,  1.38948118e-03,  2.07950553e-03,  1.95000000e-02
  103006,  1.17896326e-03,  2.20568510e-03,  1.95000000e-02
  103007,  9.57091277e-04,  2.31062272e-03,  1.95000000e-02
  103008,  7.26001986e-04,  2.39330779e-03,  1.95000000e-02
  103009,  4.87920900e-04,  2.45294399e-03,  1.95000000e-02
  103010,  2.45140870e-04,  2.48895700e-03,  1.95000000e-02
  103011,  2.22133423e-19,  2.50100000e-03,  1.95000000e-02
  103012, -2.45140870e-04,  2.48895700e-03,  1.95000000e-02
  103013, -4.87920900e-04,  2.45294399e-03,  1.95000000e-02
  103014, -7.26001986e-04,  2.39330779e-03,  1.95000000e-02
  103015, -9.57091277e-04,  2.31062272e-03,  1.95000000e-02
  103016, -1.17896326e-03,  2.20568510e-03,  1.95000000e-02
  103017, -1.38948118e-03,  2.07950553e-03,  1.95000000e-02
  103018, -1.58661764e-03,  1.93329918e-03,  1.95000000e-02
  103019, -1.76847411e-03,  1.76847411e-03,  1.95000000e-02
  103020,  1.58661764e-03,  1.93329918e-03,  2.00000000e-02
  103021,  1.38948118e-03,  2.07950553e-03,  2.00000000e-02
  103022,  1.17896326e-03,  2.20568510e-03,  2.00000000e-02
  103023,  9.57091277e-04,  2.31062272e-03,  2.00000000e-02
  103024,  7.26001986e-04,  2.39330779e-03,  2.00000000e-02
  103025,  4.87920900e-04,  2.45294399e-03,  2.00000000e-02
  103026,  2.45140870e-04,  2.48895700e-03,  2.00000000e-02
  103027,  2.22133423e-19,  2.50100000e-03,  2.00000000e-02
  103028, -2.45140870e-04,  2.48895700e-03,  2.00000000e-02
  103029, -4.87920900e-04,  2.45294399e-03,  2.00000000e-02
  103030, -7.26001986e-04,  2.39330779e-03,  2.00000000e-02
  103031, -9.57091277e-04,  2.31062272e-03,  2.00000000e-02
  103032, -1.17896326e-03,  2.20568510e-03,  2.00000000e-02
  103033, -1.38948118e-03,  2.07950553e-03,  2.00000000e-02
  103034, -1.58661764e-03,  1.93329918e-03,  2.00000000e-02
  103035, -1.76847411e-03,  1.76847411e-03,  2.00000000e-02
  103036,  1.58661764e-03,  1.93329918e-03,  2.05000000e-02
  103037,  1.38948118e-03,  2.07950553e-03,  2.05000000e-02
  103038,  1.17896326e-03,  2.20568510e-03,  2.05000000e-02
  103039,  9.57091277e-04,  2.31062272e-03,  2.05000000e-02
  103040,  7.26001986e-04,  2.39330779e-03,  2.05000000e-02
  103041,  4.87920900e-04,  2.45294399e-03,  2.05000000e-02
  103042,  2.45140870e-04,  2.48895700e-03,  2.05000000e-02
  103043,  2.22133423e-19,  2.50100000e-03,  2.05000000e-02
  103044, -2.45140870e-04,  2.48895700e-03,  2.05000000e-02
  103045, -4.87920900e-04,  2.45294399e-03,  2.05000000e-02
  103046, -7.26001986e-04,  2.39330779e-03,  2.05000000e-02
  103047, -9.57091277e-04,  2.31062272e-03,  2.05000000e-02
  103048, -1.17896326e-03,  2.20568510e-03,  2.05000000e-02
  103049, -1.38948118e-03,  2.07950553e-03,  2.05000000e-02
  103050, -1.58661764e-03,  1.93329918e-03,  2.05000000e-02
  103051, -1.76847411e-03,  1.76847411e-03,  2.05000000e-02
  103052,  1.58661764e-03,  1.93329918e-03,  2.10000000e-02
  103053,  1.38948118e-03,  2.07950553e-03,  2.10000000e-02
  103054,  1.17896326e-03,  2.20568510e-03,  2.10000000e-02
  103055,  9.57091277e-04,  2.31062272e-03,  2.10000000e-02
  103056,  7.26001986e-04,  2.39330779e-03,  2.10000000e-02
  103057,  4.87920900e-04,  2.45294399e-03,  2.10000000e-02
  103058,  2.45140870e-04,  2.48895700e-03,  2.10000000e-02
  103059,  2.22133423e-19,  2.50100000e-03,  2.10000000e-02
  103060, -2.45140870e-04,  2.48895700e-03,  2.10000000e-02
  103061, -4.87920900e-04,  2.45294399e-03,  2.10000000e-02
  103062, -7.26001986e-04,  2.39330779e-03,  2.10000000e-02
  103063, -9.57091277e-04,  2.31062272e-03,  2.10000000e-02
  103064, -1.17896326e-03,  2.20568510e-03,  2.10000000e-02
  103065, -1.38948118e-03,  2.07950553e-03,  2.10000000e-02
  103066, -1.58661764e-03,  1.93329918e-03,  2.10000000e-02
  103067, -1.76847411e-03,  1.76847411e-03,  2.10000000e-02
  103068,  1.58661764e-03,  1.93329918e-03,  2.15000000e-02
  103069,  1.38948118e-03,  2.07950553e-03,  2.15000000e-02
  103070,  1.17896326e-03,  2.20568510e-03,  2.15000000e-02
  103071,  9.57091277e-04,  2.31062272e-03,  2.15000000e-02
  103072,  7.26001986e-04,  2.39330779e-03,  2.15000000e-02
  103073,  4.87920900e-04,  2.45294399e-03,  2.15000000e-02
  103074,  2.45140870e-04,  2.48895700e-03,  2.15000000e-02
  103075,  2.22133423e-19,  2.50100000e-03,  2.15000000e-02
  103076, -2.45140870e-04,  2.48895700e-03,  2.15000000e-02
  103077, -4.87920900e-04,  2.45294399e-03,  2.15000000e-02
  103078, -7.26001986e-04,  2.39330779e-03,  2.15000000e-02
  103079, -9.57091277e-04,  2.31062272e-03,  2.15000000e-02
  103080, -1.17896326e-03,  2.20568510e-03,  2.15000000e-02
  103081, -1.38948118e-03,  2.07950553e-03,  2.15000000e-02
  103082, -1.58661764e-03,  1.93329918e-03,  2.15000000e-02
  103083, -1.76847411e-03,  1.76847411e-03,  2.15000000e-02
  103084,  1.58661764e-03,  1.93329918e-03,  2.20000000e-02
  103085,  1.38948118e-03,  2.07950553e-03,  2.20000000e-02
  103086,  1.17896326e-03,  2.20568510e-03,  2.20000000e-02
  103087,  9.57091277e-04,  2.31062272e-03,  2.20000000e-02
  103088,  7.26001986e-04,  2.39330779e-03,  2.20000000e-02
  103089,  4.87920900e-04,  2.45294399e-03,  2.20000000e-02
  103090,  2.45140870e-04,  2.48895700e-03,  2.20000000e-02
  103091,  2.22133423e-19,  2.50100000e-03,  2.20000000e-02
  103092, -2.45140870e-04,  2.48895700e-03,  2.20000000e-02
  103093, -4.87920900e-04,  2.45294399e-03,  2.20000000e-02
  103094, -7.26001986e-04,  2.39330779e-03,  2.20000000e-02
  103095, -9.57091277e-04,  2.31062272e-03,  2.20000000e-02
  103096, -1.17896326e-03,  2.20568510e-03,  2.20000000e-02
  103097, -1.38948118e-03,  2.07950553e-03,  2.20000000e-02
  103098, -1.58661764e-03,  1.93329918e-03,  2.20000000e-02
  103099, -1.76847411e-03,  1.76847411e-03,  2.20000000e-02
  103100,  1.58661764e-03,  1.93329918e-03,  2.25000000e-02
  103101,  1.38948118e-03,  2.07950553e-03,  2.25000000e-02
  103102,  1.17896326e-03,  2.20568510e-03,  2.25000000e-02
  103103,  9.57091277e-04,  2.31062272e-03,  2.25000000e-02
  103104,  7.26001986e-04,  2.39330779e-03,  2.25000000e-02
  103105,  4.87920900e-04,  2.45294399e-03,  2.25000000e-02
  103106,  2.45140870e-04,  2.48895700e-03,  2.25000000e-02
  103107,  2.22133423e-19,  2.50100000e-03,  2.25000000e-02
  103108, -2.45140870e-04,  2.48895700e-03,  2.25000000e-02
  103109, -4.87920900e-04,  2.45294399e-03,  2.25000000e-02
  103110, -7.26001986e-04,  2.39330779e-03,  2.25000000e-02
  103111, -9.57091277e-04,  2.31062272e-03,  2.25000000e-02
  103112, -1.17896326e-03,  2.20568510e-03,  2.25000000e-02
  103113, -1.38948118e-03,  2.07950553e-03,  2.25000000e-02
  103114, -1.58661764e-03,  1.93329918e-03,  2.25000000e-02
  103115, -1.76847411e-03,  1.76847411e-03,  2.25000000e-02
  103116,  1.58661764e-03,  1.93329918e-03,  2.30000000e-02
  103117,  1.38948118e-03,  2.07950553e-03,  2.30000000e-02
  103118,  1.17896326e-03,  2.20568510e-03,  2.30000000e-02
  103119,  9.57091277e-04,  2.31062272e-03,  2.30000000e-02
  103120,  7.26001986e-04,  2.39330779e-03,  2.30000000e-02
  103121,  4.87920900e-04,  2.45294399e-03,  2.30000000e-02
  103122,  2.45140870e-04,  2.48895700e-03,  2.30000000e-02
  103123,  2.22133423e-19,  2.50100000e-03,  2.30000000e-02
  103124, -2.45140870e-04,  2.48895700e-03,  2.30000000e-02
  103125, -4.87920900e-04,  2.45294399e-03,  2.30000000e-02
  103126, -7.26001986e-04,  2.39330779e-03,  2.30000000e-02
  103127, -9.57091277e-04,  2.31062272e-03,  2.30000000e-02
  103128, -1.17896326e-03,  2.20568510e-03,  2.30000000e-02
  103129, -1.38948118e-03,  2.07950553e-03,  2.30000000e-02
  103130, -1.58661764e-03,  1.93329918e-03,  2.30000000e-02
  103131, -1.76847411e-03,  1.76847411e-03,  2.30000000e-02
  103132,  1.58661764e-03,  1.93329918e-03,  2.35000000e-02
  103133,  1.38948118e-03,  2.07950553e-03,  2.35000000e-02
  103134,  1.17896326e-03,  2.20568510e-03,  2.35000000e-02
  103135,  9.57091277e-04,  2.31062272e-03,  2.35000000e-02
  103136,  7.26001986e-04,  2.39330779e-03,  2.35000000e-02
  103137,  4.87920900e-04,  2.45294399e-03,  2.35000000e-02
  103138,  2.45140870e-04,  2.48895700e-03,  2.35000000e-02
  103139,  2.22133423e-19,  2.50100000e-03,  2.35000000e-02
  103140, -2.45140870e-04,  2.48895700e-03,  2.35000000e-02
  103141, -4.87920900e-04,  2.45294399e-03,  2.35000000e-02
  103142, -7.26001986e-04,  2.39330779e-03,  2.35000000e-02
  103143, -9.57091277e-04,  2.31062272e-03,  2.35000000e-02
  103144, -1.17896326e-03,  2.20568510e-03,  2.35000000e-02
  103145, -1.38948118e-03,  2.07950553e-03,  2.35000000e-02
  103146, -1.58661764e-03,  1.93329918e-03,  2.35000000e-02
  103147, -1.76847411e-03,  1.76847411e-03,  2.35000000e-02
  103148,  1.58661764e-03,  1.93329918e-03,  2.40000000e-02
  103149,  1.38948118e-03,  2.07950553e-03,  2.40000000e-02
  103150,  1.17896326e-03,  2.20568510e-03,  2.40000000e-02
  103151,  9.57091277e-04,  2.31062272e-03,  2.40000000e-02
  103152,  7.26001986e-04,  2.39330779e-03,  2.40000000e-02
  103153,  4.87920900e-04,  2.45294399e-03,  2.40000000e-02
  103154,  2.45140870e-04,  2.48895700e-03,  2.40000000e-02
  103155,  2.22133423e-19,  2.50100000e-03,  2.40000000e-02
  103156, -2.45140870e-04,  2.48895700e-03,  2.40000000e-02
  103157, -4.87920900e-04,  2.45294399e-03,  2.40000000e-02
  103158, -7.26001986e-04,  2.39330779e-03,  2.40000000e-02
  103159, -9.57091277e-04,  2.31062272e-03,  2.40000000e-02
  103160, -1.17896326e-03,  2.20568510e-03,  2.40000000e-02
  103161, -1.38948118e-03,  2.07950553e-03,  2.40000000e-02
  103162, -1.58661764e-03,  1.93329918e-03,  2.40000000e-02
  103163, -1.76847411e-03,  1.76847411e-03,  2.40000000e-02
  103164,  1.58661764e-03,  1.93329918e-03,  2.45000000e-02
  103165,  1.38948118e-03,  2.07950553e-03,  2.45000000e-02
  103166,  1.17896326e-03,  2.20568510e-03,  2.45000000e-02
  103167,  9.57091277e-04,  2.31062272e-03,  2.45000000e-02
  103168,  7.26001986e-04,  2.39330779e-03,  2.45000000e-02
  103169,  4.87920900e-04,  2.45294399e-03,  2.45000000e-02
  103170,  2.45140870e-04,  2.48895700e-03,  2.45000000e-02
  103171,  2.22133423e-19,  2.50100000e-03,  2.45000000e-02
  103172, -2.45140870e-04,  2.48895700e-03,  2.45000000e-02
  103173, -4.87920900e-04,  2.45294399e-03,  2.45000000e-02
  103174, -7.26001986e-04,  2.39330779e-03,  2.45000000e-02
  103175, -9.57091277e-04,  2.31062272e-03,  2.45000000e-02
  103176, -1.17896326e-03,  2.20568510e-03,  2.45000000e-02
  103177, -1.38948118e-03,  2.07950553e-03,  2.45000000e-02
  103178, -1.58661764e-03,  1.93329918e-03,  2.45000000e-02
  103179, -1.76847411e-03,  1.76847411e-03,  2.45000000e-02
  103180,  1.58661764e-03,  1.93329918e-03,  2.50000000e-02
  103181,  1.38948118e-03,  2.07950553e-03,  2.50000000e-02
  103182,  1.17896326e-03,  2.20568510e-03,  2.50000000e-02
  103183,  9.57091277e-04,  2.31062272e-03,  2.50000000e-02
  103184,  7.26001986e-04,  2.39330779e-03,  2.50000000e-02
  103185,  4.87920900e-04,  2.45294399e-03,  2.50000000e-02
  103186,  2.45140870e-04,  2.48895700e-03,  2.50000000e-02
  103187,  2.22133423e-19,  2.50100000e-03,  2.50000000e-02
  103188, -2.45140870e-04,  2.48895700e-03,  2.50000000e-02
  103189, -4.87920900e-04,  2.45294399e-03,  2.50000000e-02
  103190, -7.26001986e-04,  2.39330779e-03,  2.50000000e-02
  103191, -9.57091277e-04,  2.31062272e-03,  2.50000000e-02
  103192, -1.17896326e-03,  2.20568510e-03,  2.50000000e-02
  103193, -1.38948118e-03,  2.07950553e-03,  2.50000000e-02
  103194, -1.58661764e-03,  1.93329918e-03,  2.50000000e-02
  103195, -1.76847411e-03,  1.76847411e-03,  2.50000000e-02
  103196,  1.58661764e-03,  1.93329918e-03,  2.55000000e-02
  103197,  1.38948118e-03,  2.07950553e-03,  2.55000000e-02
  103198,  1.17896326e-03,  2.20568510e-03,  2.55000000e-02
  103199,  9.57091277e-04,  2.31062272e-03,  2.55000000e-02
  103200,  7.26001986e-04,  2.39330779e-03,  2.55000000e-02
  103201,  4.87920900e-04,  2.45294399e-03,  2.55000000e-02
  103202,  2.45140870e-04,  2.48895700e-03,  2.55000000e-02
  103203,  2.22133423e-19,  2.50100000e-03,  2.55000000e-02
  103204, -2.45140870e-04,  2.48895700e-03,  2.55000000e-02
  103205, -4.87920900e-04,  2.45294399e-03,  2.55000000e-02
  103206, -7.26001986e-04,  2.39330779e-03,  2.55000000e-02
  103207, -9.57091277e-04,  2.31062272e-03,  2.55000000e-02
  103208, -1.17896326e-03,  2.20568510e-03,  2.55000000e-02
  103209, -1.38948118e-03,  2.07950553e-03,  2.55000000e-02
  103210, -1.58661764e-03,  1.93329918e-03,  2.55000000e-02
  103211, -1.76847411e-03,  1.76847411e-03,  2.55000000e-02
  103212,  1.58661764e-03,  1.93329918e-03,  2.60000000e-02
  103213,  1.38948118e-03,  2.07950553e-03,  2.60000000e-02
  103214,  1.17896326e-03,  2.20568510e-03,  2.60000000e-02
  103215,  9.57091277e-04,  2.31062272e-03,  2.60000000e-02
  103216,  7.26001986e-04,  2.39330779e-03,  2.60000000e-02
  103217,  4.87920900e-04,  2.45294399e-03,  2.60000000e-02
  103218,  2.45140870e-04,  2.48895700e-03,  2.60000000e-02
  103219,  2.22133423e-19,  2.50100000e-03,  2.60000000e-02
  103220, -2.45140870e-04,  2.48895700e-03,  2.60000000e-02
  103221, -4.87920900e-04,  2.45294399e-03,  2.60000000e-02
  103222, -7.26001986e-04,  2.39330779e-03,  2.60000000e-02
  103223, -9.57091277e-04,  2.31062272e-03,  2.60000000e-02
  103224, -1.17896326e-03,  2.20568510e-03,  2.60000000e-02
  103225, -1.38948118e-03,  2.07950553e-03,  2.60000000e-02
  103226, -1.58661764e-03,  1.93329918e-03,  2.60000000e-02
  103227, -1.76847411e-03,  1.76847411e-03,  2.60000000e-02
  103228,  1.58661764e-03,  1.93329918e-03,  2.65000000e-02
  103229,  1.38948118e-03,  2.07950553e-03,  2.65000000e-02
  103230,  1.17896326e-03,  2.20568510e-03,  2.65000000e-02
  103231,  9.57091277e-04,  2.31062272e-03,  2.65000000e-02
  103232,  7.26001986e-04,  2.39330779e-03,  2.65000000e-02
  103233,  4.87920900e-04,  2.45294399e-03,  2.65000000e-02
  103234,  2.45140870e-04,  2.48895700e-03,  2.65000000e-02
  103235,  2.22133423e-19,  2.50100000e-03,  2.65000000e-02
  103236, -2.45140870e-04,  2.48895700e-03,  2.65000000e-02
  103237, -4.87920900e-04,  2.45294399e-03,  2.65000000e-02
  103238, -7.26001986e-04,  2.39330779e-03,  2.65000000e-02
  103239, -9.57091277e-04,  2.31062272e-03,  2.65000000e-02
  103240, -1.17896326e-03,  2.20568510e-03,  2.65000000e-02
  103241, -1.38948118e-03,  2.07950553e-03,  2.65000000e-02
  103242, -1.58661764e-03,  1.93329918e-03,  2.65000000e-02
  103243, -1.76847411e-03,  1.76847411e-03,  2.65000000e-02
  103244,  1.58661764e-03,  1.93329918e-03,  2.70000000e-02
  103245,  1.38948118e-03,  2.07950553e-03,  2.70000000e-02
  103246,  1.17896326e-03,  2.20568510e-03,  2.70000000e-02
  103247,  9.57091277e-04,  2.31062272e-03,  2.70000000e-02
  103248,  7.26001986e-04,  2.39330779e-03,  2.70000000e-02
  103249,  4.87920900e-04,  2.45294399e-03,  2.70000000e-02
  103250,  2.45140870e-04,  2.48895700e-03,  2.70000000e-02
  103251,  2.22133423e-19,  2.50100000e-03,  2.70000000e-02
  103252, -2.45140870e-04,  2.48895700e-03,  2.70000000e-02
  103253, -4.87920900e-04,  2.45294399e-03,  2.70000000e-02
  103254, -7.26001986e-04,  2.39330779e-03,  2.70000000e-02
  103255, -9.57091277e-04,  2.31062272e-03,  2.70000000e-02
  103256, -1.17896326e-03,  2.20568510e-03,  2.70000000e-02
  103257, -1.38948118e-03,  2.07950553e-03,  2.70000000e-02
  103258, -1.58661764e-03,  1.93329918e-03,  2.70000000e-02
  103259, -1.76847411e-03,  1.76847411e-03,  2.70000000e-02
  103260,  1.58661764e-03,  1.93329918e-03,  2.75000000e-02
  103261,  1.38948118e-03,  2.07950553e-03,  2.75000000e-02
  103262,  1.17896326e-03,  2.20568510e-03,  2.75000000e-02
  103263,  9.57091277e-04,  2.31062272e-03,  2.75000000e-02
  103264,  7.26001986e-04,  2.39330779e-03,  2.75000000e-02
  103265,  4.87920900e-04,  2.45294399e-03,  2.75000000e-02
  103266,  2.45140870e-04,  2.48895700e-03,  2.75000000e-02
  103267,  2.22133423e-19,  2.50100000e-03,  2.75000000e-02
  103268, -2.45140870e-04,  2.48895700e-03,  2.75000000e-02
  103269, -4.87920900e-04,  2.45294399e-03,  2.75000000e-02
  103270, -7.26001986e-04,  2.39330779e-03,  2.75000000e-02
  103271, -9.57091277e-04,  2.31062272e-03,  2.75000000e-02
  103272, -1.17896326e-03,  2.20568510e-03,  2.75000000e-02
  103273, -1.38948118e-03,  2.07950553e-03,  2.75000000e-02
  103274, -1.58661764e-03,  1.93329918e-03,  2.75000000e-02
  103275, -1.76847411e-03,  1.76847411e-03,  2.75000000e-02
  103276,  1.58661764e-03,  1.93329918e-03,  2.80000000e-02
  103277,  1.38948118e-03,  2.07950553e-03,  2.80000000e-02
  103278,  1.17896326e-03,  2.20568510e-03,  2.80000000e-02
  103279,  9.57091277e-04,  2.31062272e-03,  2.80000000e-02
  103280,  7.26001986e-04,  2.39330779e-03,  2.80000000e-02
  103281,  4.87920900e-04,  2.45294399e-03,  2.80000000e-02
  103282,  2.45140870e-04,  2.48895700e-03,  2.80000000e-02
  103283,  2.22133423e-19,  2.50100000e-03,  2.80000000e-02
  103284, -2.45140870e-04,  2.48895700e-03,  2.80000000e-02
  103285, -4.87920900e-04,  2.45294399e-03,  2.80000000e-02
  103286, -7.26001986e-04,  2.39330779e-03,  2.80000000e-02
  103287, -9.57091277e-04,  2.31062272e-03,  2.80000000e-02
  103288, -1.17896326e-03,  2.20568510e-03,  2.80000000e-02
  103289, -1.38948118e-03,  2.07950553e-03,  2.80000000e-02
  103290, -1.58661764e-03,  1.93329918e-03,  2.80000000e-02
  103291, -1.76847411e-03,  1.76847411e-03,  2.80000000e-02
  103292,  1.58661764e-03,  1.93329918e-03,  2.85000000e-02
  103293,  1.38948118e-03,  2.07950553e-03,  2.85000000e-02
  103294,  1.17896326e-03,  2.20568510e-03,  2.85000000e-02
  103295,  9.57091277e-04,  2.31062272e-03,  2.85000000e-02
  103296,  7.26001986e-04,  2.39330779e-03,  2.85000000e-02
  103297,  4.87920900e-04,  2.45294399e-03,  2.85000000e-02
  103298,  2.45140870e-04,  2.48895700e-03,  2.85000000e-02
  103299,  2.22133423e-19,  2.50100000e-03,  2.85000000e-02
  103300, -2.45140870e-04,  2.48895700e-03,  2.85000000e-02
  103301, -4.87920900e-04,  2.45294399e-03,  2.85000000e-02
  103302, -7.26001986e-04,  2.39330779e-03,  2.85000000e-02
  103303, -9.57091277e-04,  2.31062272e-03,  2.85000000e-02
  103304, -1.17896326e-03,  2.20568510e-03,  2.85000000e-02
  103305, -1.38948118e-03,  2.07950553e-03,  2.85000000e-02
  103306, -1.58661764e-03,  1.93329918e-03,  2.85000000e-02
  103307, -1.76847411e-03,  1.76847411e-03,  2.85000000e-02
  103308,  1.58661764e-03,  1.93329918e-03,  2.90000000e-02
  103309,  1.38948118e-03,  2.07950553e-03,  2.90000000e-02
  103310,  1.17896326e-03,  2.20568510e-03,  2.90000000e-02
  103311,  9.57091277e-04,  2.31062272e-03,  2.90000000e-02
  103312,  7.26001986e-04,  2.39330779e-03,  2.90000000e-02
  103313,  4.87920900e-04,  2.45294399e-03,  2.90000000e-02
  103314,  2.45140870e-04,  2.48895700e-03,  2.90000000e-02
  103315,  2.22133423e-19,  2.50100000e-03,  2.90000000e-02
  103316, -2.45140870e-04,  2.48895700e-03,  2.90000000e-02
  103317, -4.87920900e-04,  2.45294399e-03,  2.90000000e-02
  103318, -7.26001986e-04,  2.39330779e-03,  2.90000000e-02
  103319, -9.57091277e-04,  2.31062272e-03,  2.90000000e-02
  103320, -1.17896326e-03,  2.20568510e-03,  2.90000000e-02
  103321, -1.38948118e-03,  2.07950553e-03,  2.90000000e-02
  103322, -1.58661764e-03,  1.93329918e-03,  2.90000000e-02
  103323, -1.76847411e-03,  1.76847411e-03,  2.90000000e-02
  103324,  1.58661764e-03,  1.93329918e-03,  2.95000000e-02
  103325,  1.38948118e-03,  2.07950553e-03,  2.95000000e-02
  103326,  1.17896326e-03,  2.20568510e-03,  2.95000000e-02
  103327,  9.57091277e-04,  2.31062272e-03,  2.95000000e-02
  103328,  7.26001986e-04,  2.39330779e-03,  2.95000000e-02
  103329,  4.87920900e-04,  2.45294399e-03,  2.95000000e-02
  103330,  2.45140870e-04,  2.48895700e-03,  2.95000000e-02
  103331,  2.22133423e-19,  2.50100000e-03,  2.95000000e-02
  103332, -2.45140870e-04,  2.48895700e-03,  2.95000000e-02
  103333, -4.87920900e-04,  2.45294399e-03,  2.95000000e-02
  103334, -7.26001986e-04,  2.39330779e-03,  2.95000000e-02
  103335, -9.57091277e-04,  2.31062272e-03,  2.95000000e-02
  103336, -1.17896326e-03,  2.20568510e-03,  2.95000000e-02
  103337, -1.38948118e-03,  2.07950553e-03,  2.95000000e-02
  103338, -1.58661764e-03,  1.93329918e-03,  2.95000000e-02
  103339, -1.76847411e-03,  1.76847411e-03,  2.95000000e-02
  103340,  1.58661764e-03,  1.93329918e-03,  3.00000000e-02
  103341,  1.38948118e-03,  2.07950553e-03,  3.00000000e-02
  103342,  1.17896326e-03,  2.20568510e-03,  3.00000000e-02
  103343,  9.57091277e-04,  2.31062272e-03,  3.00000000e-02
  103344,  7.26001986e-04,  2.39330779e-03,  3.00000000e-02
  103345,  4.87920900e-04,  2.45294399e-03,  3.00000000e-02
  103346,  2.45140870e-04,  2.48895700e-03,  3.00000000e-02
  103347,  2.22133423e-19,  2.50100000e-03,  3.00000000e-02
  103348, -2.45140870e-04,  2.48895700e-03,  3.00000000e-02
  103349, -4.87920900e-04,  2.45294399e-03,  3.00000000e-02
  103350, -7.26001986e-04,  2.39330779e-03,  3.00000000e-02
  103351, -9.57091277e-04,  2.31062272e-03,  3.00000000e-02
  103352, -1.17896326e-03,  2.20568510e-03,  3.00000000e-02
  103353, -1.38948118e-03,  2.07950553e-03,  3.00000000e-02
  103354, -1.58661764e-03,  1.93329918e-03,  3.00000000e-02
  103355, -1.76847411e-03,  1.76847411e-03,  3.00000000e-02
  103356, -1.93329918e-03,  1.58661764e-03,  0.00000000e+00
  103357, -2.07950553e-03,  1.38948118e-03,  0.00000000e+00
  103358, -2.20568510e-03,  1.17896326e-03,  0.00000000e+00
  103359, -2.31062272e-03,  9.57091277e-04,  0.00000000e+00
  103360, -2.39330779e-03,  7.26001986e-04,  0.00000000e+00
  103361, -2.45294399e-03,  4.87920900e-04,  0.00000000e+00
  103362, -2.48895700e-03,  2.45140870e-04,  0.00000000e+00
  103363, -2.50100000e-03,  2.22133423e-19,  0.00000000e+00
  103364, -2.48895700e-03, -2.45140870e-04,  0.00000000e+00
  103365, -2.45294399e-03, -4.87920900e-04,  0.00000000e+00
  103366, -2.39330779e-03, -7.26001986e-04,  0.00000000e+00
  103367, -2.31062272e-03, -9.57091277e-04,  0.00000000e+00
  103368, -2.20568510e-03, -1.17896326e-03,  0.00000000e+00
  103369, -2.07950553e-03, -1.38948118e-03,  0.00000000e+00
  103370, -1.93329918e-03, -1.58661764e-03,  0.00000000e+00
  103371, -1.76847411e-03, -1.76847411e-03,  0.00000000e+00
  103372, -1.93329918e-03,  1.58661764e-03,  5.00000000e-04
  103373, -2.07950553e-03,  1.38948118e-03,  5.00000000e-04
  103374, -2.20568510e-03,  1.17896326e-03,  5.00000000e-04
  103375, -2.31062272e-03,  9.57091277e-04,  5.00000000e-04
  103376, -2.39330779e-03,  7.26001986e-04,  5.00000000e-04
  103377, -2.45294399e-03,  4.87920900e-04,  5.00000000e-04
  103378, -2.48895700e-03,  2.45140870e-04,  5.00000000e-04
  103379, -2.50100000e-03,  2.22133423e-19,  5.00000000e-04
  103380, -2.48895700e-03, -2.45140870e-04,  5.00000000e-04
  103381, -2.45294399e-03, -4.87920900e-04,  5.00000000e-04
  103382, -2.39330779e-03, -7.26001986e-04,  5.00000000e-04
  103383, -2.31062272e-03, -9.57091277e-04,  5.00000000e-04
  103384, -2.20568510e-03, -1.17896326e-03,  5.00000000e-04
  103385, -2.07950553e-03, -1.38948118e-03,  5.00000000e-04
  103386, -1.93329918e-03, -1.58661764e-03,  5.00000000e-04
  103387, -1.76847411e-03, -1.76847411e-03,  5.00000000e-04
  103388, -1.93329918e-03,  1.58661764e-03,  1.00000000e-03
  103389, -2.07950553e-03,  1.38948118e-03,  1.00000000e-03
  103390, -2.20568510e-03,  1.17896326e-03,  1.00000000e-03
  103391, -2.31062272e-03,  9.57091277e-04,  1.00000000e-03
  103392, -2.39330779e-03,  7.26001986e-04,  1.00000000e-03
  103393, -2.45294399e-03,  4.87920900e-04,  1.00000000e-03
  103394, -2.48895700e-03,  2.45140870e-04,  1.00000000e-03
  103395, -2.50100000e-03,  2.22133423e-19,  1.00000000e-03
  103396, -2.48895700e-03, -2.45140870e-04,  1.00000000e-03
  103397, -2.45294399e-03, -4.87920900e-04,  1.00000000e-03
  103398, -2.39330779e-03, -7.26001986e-04,  1.00000000e-03
  103399, -2.31062272e-03, -9.57091277e-04,  1.00000000e-03
  103400, -2.20568510e-03, -1.17896326e-03,  1.00000000e-03
  103401, -2.07950553e-03, -1.38948118e-03,  1.00000000e-03
  103402, -1.93329918e-03, -1.58661764e-03,  1.00000000e-03
  103403, -1.76847411e-03, -1.76847411e-03,  1.00000000e-03
  103404, -1.93329918e-03,  1.58661764e-03,  1.50000000e-03
  103405, -2.07950553e-03,  1.38948118e-03,  1.50000000e-03
  103406, -2.20568510e-03,  1.17896326e-03,  1.50000000e-03
  103407, -2.31062272e-03,  9.57091277e-04,  1.50000000e-03
  103408, -2.39330779e-03,  7.26001986e-04,  1.50000000e-03
  103409, -2.45294399e-03,  4.87920900e-04,  1.50000000e-03
  103410, -2.48895700e-03,  2.45140870e-04,  1.50000000e-03
  103411, -2.50100000e-03,  2.22133423e-19,  1.50000000e-03
  103412, -2.48895700e-03, -2.45140870e-04,  1.50000000e-03
  103413, -2.45294399e-03, -4.87920900e-04,  1.50000000e-03
  103414, -2.39330779e-03, -7.26001986e-04,  1.50000000e-03
  103415, -2.31062272e-03, -9.57091277e-04,  1.50000000e-03
  103416, -2.20568510e-03, -1.17896326e-03,  1.50000000e-03
  103417, -2.07950553e-03, -1.38948118e-03,  1.50000000e-03
  103418, -1.93329918e-03, -1.58661764e-03,  1.50000000e-03
  103419, -1.76847411e-03, -1.76847411e-03,  1.50000000e-03
  103420, -1.93329918e-03,  1.58661764e-03,  2.00000000e-03
  103421, -2.07950553e-03,  1.38948118e-03,  2.00000000e-03
  103422, -2.20568510e-03,  1.17896326e-03,  2.00000000e-03
  103423, -2.31062272e-03,  9.57091277e-04,  2.00000000e-03
  103424, -2.39330779e-03,  7.26001986e-04,  2.00000000e-03
  103425, -2.45294399e-03,  4.87920900e-04,  2.00000000e-03
  103426, -2.48895700e-03,  2.45140870e-04,  2.00000000e-03
  103427, -2.50100000e-03,  2.22133423e-19,  2.00000000e-03
  103428, -2.48895700e-03, -2.45140870e-04,  2.00000000e-03
  103429, -2.45294399e-03, -4.87920900e-04,  2.00000000e-03
  103430, -2.39330779e-03, -7.26001986e-04,  2.00000000e-03
  103431, -2.31062272e-03, -9.57091277e-04,  2.00000000e-03
  103432, -2.20568510e-03, -1.17896326e-03,  2.00000000e-03
  103433, -2.07950553e-03, -1.38948118e-03,  2.00000000e-03
  103434, -1.93329918e-03, -1.58661764e-03,  2.00000000e-03
  103435, -1.76847411e-03, -1.76847411e-03,  2.00000000e-03
  103436, -1.93329918e-03,  1.58661764e-03,  2.50000000e-03
  103437, -2.07950553e-03,  1.38948118e-03,  2.50000000e-03
  103438, -2.20568510e-03,  1.17896326e-03,  2.50000000e-03
  103439, -2.31062272e-03,  9.57091277e-04,  2.50000000e-03
  103440, -2.39330779e-03,  7.26001986e-04,  2.50000000e-03
  103441, -2.45294399e-03,  4.87920900e-04,  2.50000000e-03
  103442, -2.48895700e-03,  2.45140870e-04,  2.50000000e-03
  103443, -2.50100000e-03,  2.22133423e-19,  2.50000000e-03
  103444, -2.48895700e-03, -2.45140870e-04,  2.50000000e-03
  103445, -2.45294399e-03, -4.87920900e-04,  2.50000000e-03
  103446, -2.39330779e-03, -7.26001986e-04,  2.50000000e-03
  103447, -2.31062272e-03, -9.57091277e-04,  2.50000000e-03
  103448, -2.20568510e-03, -1.17896326e-03,  2.50000000e-03
  103449, -2.07950553e-03, -1.38948118e-03,  2.50000000e-03
  103450, -1.93329918e-03, -1.58661764e-03,  2.50000000e-03
  103451, -1.76847411e-03, -1.76847411e-03,  2.50000000e-03
  103452, -1.93329918e-03,  1.58661764e-03,  3.00000000e-03
  103453, -2.07950553e-03,  1.38948118e-03,  3.00000000e-03
  103454, -2.20568510e-03,  1.17896326e-03,  3.00000000e-03
  103455, -2.31062272e-03,  9.57091277e-04,  3.00000000e-03
  103456, -2.39330779e-03,  7.26001986e-04,  3.00000000e-03
  103457, -2.45294399e-03,  4.87920900e-04,  3.00000000e-03
  103458, -2.48895700e-03,  2.45140870e-04,  3.00000000e-03
  103459, -2.50100000e-03,  2.22133423e-19,  3.00000000e-03
  103460, -2.48895700e-03, -2.45140870e-04,  3.00000000e-03
  103461, -2.45294399e-03, -4.87920900e-04,  3.00000000e-03
  103462, -2.39330779e-03, -7.26001986e-04,  3.00000000e-03
  103463, -2.31062272e-03, -9.57091277e-04,  3.00000000e-03
  103464, -2.20568510e-03, -1.17896326e-03,  3.00000000e-03
  103465, -2.07950553e-03, -1.38948118e-03,  3.00000000e-03
  103466, -1.93329918e-03, -1.58661764e-03,  3.00000000e-03
  103467, -1.76847411e-03, -1.76847411e-03,  3.00000000e-03
  103468, -1.93329918e-03,  1.58661764e-03,  3.50000000e-03
  103469, -2.07950553e-03,  1.38948118e-03,  3.50000000e-03
  103470, -2.20568510e-03,  1.17896326e-03,  3.50000000e-03
  103471, -2.31062272e-03,  9.57091277e-04,  3.50000000e-03
  103472, -2.39330779e-03,  7.26001986e-04,  3.50000000e-03
  103473, -2.45294399e-03,  4.87920900e-04,  3.50000000e-03
  103474, -2.48895700e-03,  2.45140870e-04,  3.50000000e-03
  103475, -2.50100000e-03,  2.22133423e-19,  3.50000000e-03
  103476, -2.48895700e-03, -2.45140870e-04,  3.50000000e-03
  103477, -2.45294399e-03, -4.87920900e-04,  3.50000000e-03
  103478, -2.39330779e-03, -7.26001986e-04,  3.50000000e-03
  103479, -2.31062272e-03, -9.57091277e-04,  3.50000000e-03
  103480, -2.20568510e-03, -1.17896326e-03,  3.50000000e-03
  103481, -2.07950553e-03, -1.38948118e-03,  3.50000000e-03
  103482, -1.93329918e-03, -1.58661764e-03,  3.50000000e-03
  103483, -1.76847411e-03, -1.76847411e-03,  3.50000000e-03
  103484, -1.93329918e-03,  1.58661764e-03,  4.00000000e-03
  103485, -2.07950553e-03,  1.38948118e-03,  4.00000000e-03
  103486, -2.20568510e-03,  1.17896326e-03,  4.00000000e-03
  103487, -2.31062272e-03,  9.57091277e-04,  4.00000000e-03
  103488, -2.39330779e-03,  7.26001986e-04,  4.00000000e-03
  103489, -2.45294399e-03,  4.87920900e-04,  4.00000000e-03
  103490, -2.48895700e-03,  2.45140870e-04,  4.00000000e-03
  103491, -2.50100000e-03,  2.22133423e-19,  4.00000000e-03
  103492, -2.48895700e-03, -2.45140870e-04,  4.00000000e-03
  103493, -2.45294399e-03, -4.87920900e-04,  4.00000000e-03
  103494, -2.39330779e-03, -7.26001986e-04,  4.00000000e-03
  103495, -2.31062272e-03, -9.57091277e-04,  4.00000000e-03
  103496, -2.20568510e-03, -1.17896326e-03,  4.00000000e-03
  103497, -2.07950553e-03, -1.38948118e-03,  4.00000000e-03
  103498, -1.93329918e-03, -1.58661764e-03,  4.00000000e-03
  103499, -1.76847411e-03, -1.76847411e-03,  4.00000000e-03
  103500, -1.93329918e-03,  1.58661764e-03,  4.50000000e-03
  103501, -2.07950553e-03,  1.38948118e-03,  4.50000000e-03
  103502, -2.20568510e-03,  1.17896326e-03,  4.50000000e-03
  103503, -2.31062272e-03,  9.57091277e-04,  4.50000000e-03
  103504, -2.39330779e-03,  7.26001986e-04,  4.50000000e-03
  103505, -2.45294399e-03,  4.87920900e-04,  4.50000000e-03
  103506, -2.48895700e-03,  2.45140870e-04,  4.50000000e-03
  103507, -2.50100000e-03,  2.22133423e-19,  4.50000000e-03
  103508, -2.48895700e-03, -2.45140870e-04,  4.50000000e-03
  103509, -2.45294399e-03, -4.87920900e-04,  4.50000000e-03
  103510, -2.39330779e-03, -7.26001986e-04,  4.50000000e-03
  103511, -2.31062272e-03, -9.57091277e-04,  4.50000000e-03
  103512, -2.20568510e-03, -1.17896326e-03,  4.50000000e-03
  103513, -2.07950553e-03, -1.38948118e-03,  4.50000000e-03
  103514, -1.93329918e-03, -1.58661764e-03,  4.50000000e-03
  103515, -1.76847411e-03, -1.76847411e-03,  4.50000000e-03
  103516, -1.93329918e-03,  1.58661764e-03,  5.00000000e-03
  103517, -2.07950553e-03,  1.38948118e-03,  5.00000000e-03
  103518, -2.20568510e-03,  1.17896326e-03,  5.00000000e-03
  103519, -2.31062272e-03,  9.57091277e-04,  5.00000000e-03
  103520, -2.39330779e-03,  7.26001986e-04,  5.00000000e-03
  103521, -2.45294399e-03,  4.87920900e-04,  5.00000000e-03
  103522, -2.48895700e-03,  2.45140870e-04,  5.00000000e-03
  103523, -2.50100000e-03,  2.22133423e-19,  5.00000000e-03
  103524, -2.48895700e-03, -2.45140870e-04,  5.00000000e-03
  103525, -2.45294399e-03, -4.87920900e-04,  5.00000000e-03
  103526, -2.39330779e-03, -7.26001986e-04,  5.00000000e-03
  103527, -2.31062272e-03, -9.57091277e-04,  5.00000000e-03
  103528, -2.20568510e-03, -1.17896326e-03,  5.00000000e-03
  103529, -2.07950553e-03, -1.38948118e-03,  5.00000000e-03
  103530, -1.93329918e-03, -1.58661764e-03,  5.00000000e-03
  103531, -1.76847411e-03, -1.76847411e-03,  5.00000000e-03
  103532, -1.93329918e-03,  1.58661764e-03,  5.50000000e-03
  103533, -2.07950553e-03,  1.38948118e-03,  5.50000000e-03
  103534, -2.20568510e-03,  1.17896326e-03,  5.50000000e-03
  103535, -2.31062272e-03,  9.57091277e-04,  5.50000000e-03
  103536, -2.39330779e-03,  7.26001986e-04,  5.50000000e-03
  103537, -2.45294399e-03,  4.87920900e-04,  5.50000000e-03
  103538, -2.48895700e-03,  2.45140870e-04,  5.50000000e-03
  103539, -2.50100000e-03,  2.22133423e-19,  5.50000000e-03
  103540, -2.48895700e-03, -2.45140870e-04,  5.50000000e-03
  103541, -2.45294399e-03, -4.87920900e-04,  5.50000000e-03
  103542, -2.39330779e-03, -7.26001986e-04,  5.50000000e-03
  103543, -2.31062272e-03, -9.57091277e-04,  5.50000000e-03
  103544, -2.20568510e-03, -1.17896326e-03,  5.50000000e-03
  103545, -2.07950553e-03, -1.38948118e-03,  5.50000000e-03
  103546, -1.93329918e-03, -1.58661764e-03,  5.50000000e-03
  103547, -1.76847411e-03, -1.76847411e-03,  5.50000000e-03
  103548, -1.93329918e-03,  1.58661764e-03,  6.00000000e-03
  103549, -2.07950553e-03,  1.38948118e-03,  6.00000000e-03
  103550, -2.20568510e-03,  1.17896326e-03,  6.00000000e-03
  103551, -2.31062272e-03,  9.57091277e-04,  6.00000000e-03
  103552, -2.39330779e-03,  7.26001986e-04,  6.00000000e-03
  103553, -2.45294399e-03,  4.87920900e-04,  6.00000000e-03
  103554, -2.48895700e-03,  2.45140870e-04,  6.00000000e-03
  103555, -2.50100000e-03,  2.22133423e-19,  6.00000000e-03
  103556, -2.48895700e-03, -2.45140870e-04,  6.00000000e-03
  103557, -2.45294399e-03, -4.87920900e-04,  6.00000000e-03
  103558, -2.39330779e-03, -7.26001986e-04,  6.00000000e-03
  103559, -2.31062272e-03, -9.57091277e-04,  6.00000000e-03
  103560, -2.20568510e-03, -1.17896326e-03,  6.00000000e-03
  103561, -2.07950553e-03, -1.38948118e-03,  6.00000000e-03
  103562, -1.93329918e-03, -1.58661764e-03,  6.00000000e-03
  103563, -1.76847411e-03, -1.76847411e-03,  6.00000000e-03
  103564, -1.93329918e-03,  1.58661764e-03,  6.50000000e-03
  103565, -2.07950553e-03,  1.38948118e-03,  6.50000000e-03
  103566, -2.20568510e-03,  1.17896326e-03,  6.50000000e-03
  103567, -2.31062272e-03,  9.57091277e-04,  6.50000000e-03
  103568, -2.39330779e-03,  7.26001986e-04,  6.50000000e-03
  103569, -2.45294399e-03,  4.87920900e-04,  6.50000000e-03
  103570, -2.48895700e-03,  2.45140870e-04,  6.50000000e-03
  103571, -2.50100000e-03,  2.22133423e-19,  6.50000000e-03
  103572, -2.48895700e-03, -2.45140870e-04,  6.50000000e-03
  103573, -2.45294399e-03, -4.87920900e-04,  6.50000000e-03
  103574, -2.39330779e-03, -7.26001986e-04,  6.50000000e-03
  103575, -2.31062272e-03, -9.57091277e-04,  6.50000000e-03
  103576, -2.20568510e-03, -1.17896326e-03,  6.50000000e-03
  103577, -2.07950553e-03, -1.38948118e-03,  6.50000000e-03
  103578, -1.93329918e-03, -1.58661764e-03,  6.50000000e-03
  103579, -1.76847411e-03, -1.76847411e-03,  6.50000000e-03
  103580, -1.93329918e-03,  1.58661764e-03,  7.00000000e-03
  103581, -2.07950553e-03,  1.38948118e-03,  7.00000000e-03
  103582, -2.20568510e-03,  1.17896326e-03,  7.00000000e-03
  103583, -2.31062272e-03,  9.57091277e-04,  7.00000000e-03
  103584, -2.39330779e-03,  7.26001986e-04,  7.00000000e-03
  103585, -2.45294399e-03,  4.87920900e-04,  7.00000000e-03
  103586, -2.48895700e-03,  2.45140870e-04,  7.00000000e-03
  103587, -2.50100000e-03,  2.22133423e-19,  7.00000000e-03
  103588, -2.48895700e-03, -2.45140870e-04,  7.00000000e-03
  103589, -2.45294399e-03, -4.87920900e-04,  7.00000000e-03
  103590, -2.39330779e-03, -7.26001986e-04,  7.00000000e-03
  103591, -2.31062272e-03, -9.57091277e-04,  7.00000000e-03
  103592, -2.20568510e-03, -1.17896326e-03,  7.00000000e-03
  103593, -2.07950553e-03, -1.38948118e-03,  7.00000000e-03
  103594, -1.93329918e-03, -1.58661764e-03,  7.00000000e-03
  103595, -1.76847411e-03, -1.76847411e-03,  7.00000000e-03
  103596, -1.93329918e-03,  1.58661764e-03,  7.50000000e-03
  103597, -2.07950553e-03,  1.38948118e-03,  7.50000000e-03
  103598, -2.20568510e-03,  1.17896326e-03,  7.50000000e-03
  103599, -2.31062272e-03,  9.57091277e-04,  7.50000000e-03
  103600, -2.39330779e-03,  7.26001986e-04,  7.50000000e-03
  103601, -2.45294399e-03,  4.87920900e-04,  7.50000000e-03
  103602, -2.48895700e-03,  2.45140870e-04,  7.50000000e-03
  103603, -2.50100000e-03,  2.22133423e-19,  7.50000000e-03
  103604, -2.48895700e-03, -2.45140870e-04,  7.50000000e-03
  103605, -2.45294399e-03, -4.87920900e-04,  7.50000000e-03
  103606, -2.39330779e-03, -7.26001986e-04,  7.50000000e-03
  103607, -2.31062272e-03, -9.57091277e-04,  7.50000000e-03
  103608, -2.20568510e-03, -1.17896326e-03,  7.50000000e-03
  103609, -2.07950553e-03, -1.38948118e-03,  7.50000000e-03
  103610, -1.93329918e-03, -1.58661764e-03,  7.50000000e-03
  103611, -1.76847411e-03, -1.76847411e-03,  7.50000000e-03
  103612, -1.93329918e-03,  1.58661764e-03,  8.00000000e-03
  103613, -2.07950553e-03,  1.38948118e-03,  8.00000000e-03
  103614, -2.20568510e-03,  1.17896326e-03,  8.00000000e-03
  103615, -2.31062272e-03,  9.57091277e-04,  8.00000000e-03
  103616, -2.39330779e-03,  7.26001986e-04,  8.00000000e-03
  103617, -2.45294399e-03,  4.87920900e-04,  8.00000000e-03
  103618, -2.48895700e-03,  2.45140870e-04,  8.00000000e-03
  103619, -2.50100000e-03,  2.22133423e-19,  8.00000000e-03
  103620, -2.48895700e-03, -2.45140870e-04,  8.00000000e-03
  103621, -2.45294399e-03, -4.87920900e-04,  8.00000000e-03
  103622, -2.39330779e-03, -7.26001986e-04,  8.00000000e-03
  103623, -2.31062272e-03, -9.57091277e-04,  8.00000000e-03
  103624, -2.20568510e-03, -1.17896326e-03,  8.00000000e-03
  103625, -2.07950553e-03, -1.38948118e-03,  8.00000000e-03
  103626, -1.93329918e-03, -1.58661764e-03,  8.00000000e-03
  103627, -1.76847411e-03, -1.76847411e-03,  8.00000000e-03
  103628, -1.93329918e-03,  1.58661764e-03,  8.50000000e-03
  103629, -2.07950553e-03,  1.38948118e-03,  8.50000000e-03
  103630, -2.20568510e-03,  1.17896326e-03,  8.50000000e-03
  103631, -2.31062272e-03,  9.57091277e-04,  8.50000000e-03
  103632, -2.39330779e-03,  7.26001986e-04,  8.50000000e-03
  103633, -2.45294399e-03,  4.87920900e-04,  8.50000000e-03
  103634, -2.48895700e-03,  2.45140870e-04,  8.50000000e-03
  103635, -2.50100000e-03,  2.22133423e-19,  8.50000000e-03
  103636, -2.48895700e-03, -2.45140870e-04,  8.50000000e-03
  103637, -2.45294399e-03, -4.87920900e-04,  8.50000000e-03
  103638, -2.39330779e-03, -7.26001986e-04,  8.50000000e-03
  103639, -2.31062272e-03, -9.57091277e-04,  8.50000000e-03
  103640, -2.20568510e-03, -1.17896326e-03,  8.50000000e-03
  103641, -2.07950553e-03, -1.38948118e-03,  8.50000000e-03
  103642, -1.93329918e-03, -1.58661764e-03,  8.50000000e-03
  103643, -1.76847411e-03, -1.76847411e-03,  8.50000000e-03
  103644, -1.93329918e-03,  1.58661764e-03,  9.00000000e-03
  103645, -2.07950553e-03,  1.38948118e-03,  9.00000000e-03
  103646, -2.20568510e-03,  1.17896326e-03,  9.00000000e-03
  103647, -2.31062272e-03,  9.57091277e-04,  9.00000000e-03
  103648, -2.39330779e-03,  7.26001986e-04,  9.00000000e-03
  103649, -2.45294399e-03,  4.87920900e-04,  9.00000000e-03
  103650, -2.48895700e-03,  2.45140870e-04,  9.00000000e-03
  103651, -2.50100000e-03,  2.22133423e-19,  9.00000000e-03
  103652, -2.48895700e-03, -2.45140870e-04,  9.00000000e-03
  103653, -2.45294399e-03, -4.87920900e-04,  9.00000000e-03
  103654, -2.39330779e-03, -7.26001986e-04,  9.00000000e-03
  103655, -2.31062272e-03, -9.57091277e-04,  9.00000000e-03
  103656, -2.20568510e-03, -1.17896326e-03,  9.00000000e-03
  103657, -2.07950553e-03, -1.38948118e-03,  9.00000000e-03
  103658, -1.93329918e-03, -1.58661764e-03,  9.00000000e-03
  103659, -1.76847411e-03, -1.76847411e-03,  9.00000000e-03
  103660, -1.93329918e-03,  1.58661764e-03,  9.50000000e-03
  103661, -2.07950553e-03,  1.38948118e-03,  9.50000000e-03
  103662, -2.20568510e-03,  1.17896326e-03,  9.50000000e-03
  103663, -2.31062272e-03,  9.57091277e-04,  9.50000000e-03
  103664, -2.39330779e-03,  7.26001986e-04,  9.50000000e-03
  103665, -2.45294399e-03,  4.87920900e-04,  9.50000000e-03
  103666, -2.48895700e-03,  2.45140870e-04,  9.50000000e-03
  103667, -2.50100000e-03,  2.22133423e-19,  9.50000000e-03
  103668, -2.48895700e-03, -2.45140870e-04,  9.50000000e-03
  103669, -2.45294399e-03, -4.87920900e-04,  9.50000000e-03
  103670, -2.39330779e-03, -7.26001986e-04,  9.50000000e-03
  103671, -2.31062272e-03, -9.57091277e-04,  9.50000000e-03
  103672, -2.20568510e-03, -1.17896326e-03,  9.50000000e-03
  103673, -2.07950553e-03, -1.38948118e-03,  9.50000000e-03
  103674, -1.93329918e-03, -1.58661764e-03,  9.50000000e-03
  103675, -1.76847411e-03, -1.76847411e-03,  9.50000000e-03
  103676, -1.93329918e-03,  1.58661764e-03,  1.00000000e-02
  103677, -2.07950553e-03,  1.38948118e-03,  1.00000000e-02
  103678, -2.20568510e-03,  1.17896326e-03,  1.00000000e-02
  103679, -2.31062272e-03,  9.57091277e-04,  1.00000000e-02
  103680, -2.39330779e-03,  7.26001986e-04,  1.00000000e-02
  103681, -2.45294399e-03,  4.87920900e-04,  1.00000000e-02
  103682, -2.48895700e-03,  2.45140870e-04,  1.00000000e-02
  103683, -2.50100000e-03,  2.22133423e-19,  1.00000000e-02
  103684, -2.48895700e-03, -2.45140870e-04,  1.00000000e-02
  103685, -2.45294399e-03, -4.87920900e-04,  1.00000000e-02
  103686, -2.39330779e-03, -7.26001986e-04,  1.00000000e-02
  103687, -2.31062272e-03, -9.57091277e-04,  1.00000000e-02
  103688, -2.20568510e-03, -1.17896326e-03,  1.00000000e-02
  103689, -2.07950553e-03, -1.38948118e-03,  1.00000000e-02
  103690, -1.93329918e-03, -1.58661764e-03,  1.00000000e-02
  103691, -1.76847411e-03, -1.76847411e-03,  1.00000000e-02
  103692, -1.93329918e-03,  1.58661764e-03,  1.05000000e-02
  103693, -2.07950553e-03,  1.38948118e-03,  1.05000000e-02
  103694, -2.20568510e-03,  1.17896326e-03,  1.05000000e-02
  103695, -2.31062272e-03,  9.57091277e-04,  1.05000000e-02
  103696, -2.39330779e-03,  7.26001986e-04,  1.05000000e-02
  103697, -2.45294399e-03,  4.87920900e-04,  1.05000000e-02
  103698, -2.48895700e-03,  2.45140870e-04,  1.05000000e-02
  103699, -2.50100000e-03,  2.22133423e-19,  1.05000000e-02
  103700, -2.48895700e-03, -2.45140870e-04,  1.05000000e-02
  103701, -2.45294399e-03, -4.87920900e-04,  1.05000000e-02
  103702, -2.39330779e-03, -7.26001986e-04,  1.05000000e-02
  103703, -2.31062272e-03, -9.57091277e-04,  1.05000000e-02
  103704, -2.20568510e-03, -1.17896326e-03,  1.05000000e-02
  103705, -2.07950553e-03, -1.38948118e-03,  1.05000000e-02
  103706, -1.93329918e-03, -1.58661764e-03,  1.05000000e-02
  103707, -1.76847411e-03, -1.76847411e-03,  1.05000000e-02
  103708, -1.93329918e-03,  1.58661764e-03,  1.10000000e-02
  103709, -2.07950553e-03,  1.38948118e-03,  1.10000000e-02
  103710, -2.20568510e-03,  1.17896326e-03,  1.10000000e-02
  103711, -2.31062272e-03,  9.57091277e-04,  1.10000000e-02
  103712, -2.39330779e-03,  7.26001986e-04,  1.10000000e-02
  103713, -2.45294399e-03,  4.87920900e-04,  1.10000000e-02
  103714, -2.48895700e-03,  2.45140870e-04,  1.10000000e-02
  103715, -2.50100000e-03,  2.22133423e-19,  1.10000000e-02
  103716, -2.48895700e-03, -2.45140870e-04,  1.10000000e-02
  103717, -2.45294399e-03, -4.87920900e-04,  1.10000000e-02
  103718, -2.39330779e-03, -7.26001986e-04,  1.10000000e-02
  103719, -2.31062272e-03, -9.57091277e-04,  1.10000000e-02
  103720, -2.20568510e-03, -1.17896326e-03,  1.10000000e-02
  103721, -2.07950553e-03, -1.38948118e-03,  1.10000000e-02
  103722, -1.93329918e-03, -1.58661764e-03,  1.10000000e-02
  103723, -1.76847411e-03, -1.76847411e-03,  1.10000000e-02
  103724, -1.93329918e-03,  1.58661764e-03,  1.15000000e-02
  103725, -2.07950553e-03,  1.38948118e-03,  1.15000000e-02
  103726, -2.20568510e-03,  1.17896326e-03,  1.15000000e-02
  103727, -2.31062272e-03,  9.57091277e-04,  1.15000000e-02
  103728, -2.39330779e-03,  7.26001986e-04,  1.15000000e-02
  103729, -2.45294399e-03,  4.87920900e-04,  1.15000000e-02
  103730, -2.48895700e-03,  2.45140870e-04,  1.15000000e-02
  103731, -2.50100000e-03,  2.22133423e-19,  1.15000000e-02
  103732, -2.48895700e-03, -2.45140870e-04,  1.15000000e-02
  103733, -2.45294399e-03, -4.87920900e-04,  1.15000000e-02
  103734, -2.39330779e-03, -7.26001986e-04,  1.15000000e-02
  103735, -2.31062272e-03, -9.57091277e-04,  1.15000000e-02
  103736, -2.20568510e-03, -1.17896326e-03,  1.15000000e-02
  103737, -2.07950553e-03, -1.38948118e-03,  1.15000000e-02
  103738, -1.93329918e-03, -1.58661764e-03,  1.15000000e-02
  103739, -1.76847411e-03, -1.76847411e-03,  1.15000000e-02
  103740, -1.93329918e-03,  1.58661764e-03,  1.20000000e-02
  103741, -2.07950553e-03,  1.38948118e-03,  1.20000000e-02
  103742, -2.20568510e-03,  1.17896326e-03,  1.20000000e-02
  103743, -2.31062272e-03,  9.57091277e-04,  1.20000000e-02
  103744, -2.39330779e-03,  7.26001986e-04,  1.20000000e-02
  103745, -2.45294399e-03,  4.87920900e-04,  1.20000000e-02
  103746, -2.48895700e-03,  2.45140870e-04,  1.20000000e-02
  103747, -2.50100000e-03,  2.22133423e-19,  1.20000000e-02
  103748, -2.48895700e-03, -2.45140870e-04,  1.20000000e-02
  103749, -2.45294399e-03, -4.87920900e-04,  1.20000000e-02
  103750, -2.39330779e-03, -7.26001986e-04,  1.20000000e-02
  103751, -2.31062272e-03, -9.57091277e-04,  1.20000000e-02
  103752, -2.20568510e-03, -1.17896326e-03,  1.20000000e-02
  103753, -2.07950553e-03, -1.38948118e-03,  1.20000000e-02
  103754, -1.93329918e-03, -1.58661764e-03,  1.20000000e-02
  103755, -1.76847411e-03, -1.76847411e-03,  1.20000000e-02
  103756, -1.93329918e-03,  1.58661764e-03,  1.25000000e-02
  103757, -2.07950553e-03,  1.38948118e-03,  1.25000000e-02
  103758, -2.20568510e-03,  1.17896326e-03,  1.25000000e-02
  103759, -2.31062272e-03,  9.57091277e-04,  1.25000000e-02
  103760, -2.39330779e-03,  7.26001986e-04,  1.25000000e-02
  103761, -2.45294399e-03,  4.87920900e-04,  1.25000000e-02
  103762, -2.48895700e-03,  2.45140870e-04,  1.25000000e-02
  103763, -2.50100000e-03,  2.22133423e-19,  1.25000000e-02
  103764, -2.48895700e-03, -2.45140870e-04,  1.25000000e-02
  103765, -2.45294399e-03, -4.87920900e-04,  1.25000000e-02
  103766, -2.39330779e-03, -7.26001986e-04,  1.25000000e-02
  103767, -2.31062272e-03, -9.57091277e-04,  1.25000000e-02
  103768, -2.20568510e-03, -1.17896326e-03,  1.25000000e-02
  103769, -2.07950553e-03, -1.38948118e-03,  1.25000000e-02
  103770, -1.93329918e-03, -1.58661764e-03,  1.25000000e-02
  103771, -1.76847411e-03, -1.76847411e-03,  1.25000000e-02
  103772, -1.93329918e-03,  1.58661764e-03,  1.30000000e-02
  103773, -2.07950553e-03,  1.38948118e-03,  1.30000000e-02
  103774, -2.20568510e-03,  1.17896326e-03,  1.30000000e-02
  103775, -2.31062272e-03,  9.57091277e-04,  1.30000000e-02
  103776, -2.39330779e-03,  7.26001986e-04,  1.30000000e-02
  103777, -2.45294399e-03,  4.87920900e-04,  1.30000000e-02
  103778, -2.48895700e-03,  2.45140870e-04,  1.30000000e-02
  103779, -2.50100000e-03,  2.22133423e-19,  1.30000000e-02
  103780, -2.48895700e-03, -2.45140870e-04,  1.30000000e-02
  103781, -2.45294399e-03, -4.87920900e-04,  1.30000000e-02
  103782, -2.39330779e-03, -7.26001986e-04,  1.30000000e-02
  103783, -2.31062272e-03, -9.57091277e-04,  1.30000000e-02
  103784, -2.20568510e-03, -1.17896326e-03,  1.30000000e-02
  103785, -2.07950553e-03, -1.38948118e-03,  1.30000000e-02
  103786, -1.93329918e-03, -1.58661764e-03,  1.30000000e-02
  103787, -1.76847411e-03, -1.76847411e-03,  1.30000000e-02
  103788, -1.93329918e-03,  1.58661764e-03,  1.35000000e-02
  103789, -2.07950553e-03,  1.38948118e-03,  1.35000000e-02
  103790, -2.20568510e-03,  1.17896326e-03,  1.35000000e-02
  103791, -2.31062272e-03,  9.57091277e-04,  1.35000000e-02
  103792, -2.39330779e-03,  7.26001986e-04,  1.35000000e-02
  103793, -2.45294399e-03,  4.87920900e-04,  1.35000000e-02
  103794, -2.48895700e-03,  2.45140870e-04,  1.35000000e-02
  103795, -2.50100000e-03,  2.22133423e-19,  1.35000000e-02
  103796, -2.48895700e-03, -2.45140870e-04,  1.35000000e-02
  103797, -2.45294399e-03, -4.87920900e-04,  1.35000000e-02
  103798, -2.39330779e-03, -7.26001986e-04,  1.35000000e-02
  103799, -2.31062272e-03, -9.57091277e-04,  1.35000000e-02
  103800, -2.20568510e-03, -1.17896326e-03,  1.35000000e-02
  103801, -2.07950553e-03, -1.38948118e-03,  1.35000000e-02
  103802, -1.93329918e-03, -1.58661764e-03,  1.35000000e-02
  103803, -1.76847411e-03, -1.76847411e-03,  1.35000000e-02
  103804, -1.93329918e-03,  1.58661764e-03,  1.40000000e-02
  103805, -2.07950553e-03,  1.38948118e-03,  1.40000000e-02
  103806, -2.20568510e-03,  1.17896326e-03,  1.40000000e-02
  103807, -2.31062272e-03,  9.57091277e-04,  1.40000000e-02
  103808, -2.39330779e-03,  7.26001986e-04,  1.40000000e-02
  103809, -2.45294399e-03,  4.87920900e-04,  1.40000000e-02
  103810, -2.48895700e-03,  2.45140870e-04,  1.40000000e-02
  103811, -2.50100000e-03,  2.22133423e-19,  1.40000000e-02
  103812, -2.48895700e-03, -2.45140870e-04,  1.40000000e-02
  103813, -2.45294399e-03, -4.87920900e-04,  1.40000000e-02
  103814, -2.39330779e-03, -7.26001986e-04,  1.40000000e-02
  103815, -2.31062272e-03, -9.57091277e-04,  1.40000000e-02
  103816, -2.20568510e-03, -1.17896326e-03,  1.40000000e-02
  103817, -2.07950553e-03, -1.38948118e-03,  1.40000000e-02
  103818, -1.93329918e-03, -1.58661764e-03,  1.40000000e-02
  103819, -1.76847411e-03, -1.76847411e-03,  1.40000000e-02
  103820, -1.93329918e-03,  1.58661764e-03,  1.45000000e-02
  103821, -2.07950553e-03,  1.38948118e-03,  1.45000000e-02
  103822, -2.20568510e-03,  1.17896326e-03,  1.45000000e-02
  103823, -2.31062272e-03,  9.57091277e-04,  1.45000000e-02
  103824, -2.39330779e-03,  7.26001986e-04,  1.45000000e-02
  103825, -2.45294399e-03,  4.87920900e-04,  1.45000000e-02
  103826, -2.48895700e-03,  2.45140870e-04,  1.45000000e-02
  103827, -2.50100000e-03,  2.22133423e-19,  1.45000000e-02
  103828, -2.48895700e-03, -2.45140870e-04,  1.45000000e-02
  103829, -2.45294399e-03, -4.87920900e-04,  1.45000000e-02
  103830, -2.39330779e-03, -7.26001986e-04,  1.45000000e-02
  103831, -2.31062272e-03, -9.57091277e-04,  1.45000000e-02
  103832, -2.20568510e-03, -1.17896326e-03,  1.45000000e-02
  103833, -2.07950553e-03, -1.38948118e-03,  1.45000000e-02
  103834, -1.93329918e-03, -1.58661764e-03,  1.45000000e-02
  103835, -1.76847411e-03, -1.76847411e-03,  1.45000000e-02
  103836, -1.93329918e-03,  1.58661764e-03,  1.50000000e-02
  103837, -2.07950553e-03,  1.38948118e-03,  1.50000000e-02
  103838, -2.20568510e-03,  1.17896326e-03,  1.50000000e-02
  103839, -2.31062272e-03,  9.57091277e-04,  1.50000000e-02
  103840, -2.39330779e-03,  7.26001986e-04,  1.50000000e-02
  103841, -2.45294399e-03,  4.87920900e-04,  1.50000000e-02
  103842, -2.48895700e-03,  2.45140870e-04,  1.50000000e-02
  103843, -2.50100000e-03,  2.22133423e-19,  1.50000000e-02
  103844, -2.48895700e-03, -2.45140870e-04,  1.50000000e-02
  103845, -2.45294399e-03, -4.87920900e-04,  1.50000000e-02
  103846, -2.39330779e-03, -7.26001986e-04,  1.50000000e-02
  103847, -2.31062272e-03, -9.57091277e-04,  1.50000000e-02
  103848, -2.20568510e-03, -1.17896326e-03,  1.50000000e-02
  103849, -2.07950553e-03, -1.38948118e-03,  1.50000000e-02
  103850, -1.93329918e-03, -1.58661764e-03,  1.50000000e-02
  103851, -1.76847411e-03, -1.76847411e-03,  1.50000000e-02
  103852, -1.93329918e-03,  1.58661764e-03,  1.55000000e-02
  103853, -2.07950553e-03,  1.38948118e-03,  1.55000000e-02
  103854, -2.20568510e-03,  1.17896326e-03,  1.55000000e-02
  103855, -2.31062272e-03,  9.57091277e-04,  1.55000000e-02
  103856, -2.39330779e-03,  7.26001986e-04,  1.55000000e-02
  103857, -2.45294399e-03,  4.87920900e-04,  1.55000000e-02
  103858, -2.48895700e-03,  2.45140870e-04,  1.55000000e-02
  103859, -2.50100000e-03,  2.22133423e-19,  1.55000000e-02
  103860, -2.48895700e-03, -2.45140870e-04,  1.55000000e-02
  103861, -2.45294399e-03, -4.87920900e-04,  1.55000000e-02
  103862, -2.39330779e-03, -7.26001986e-04,  1.55000000e-02
  103863, -2.31062272e-03, -9.57091277e-04,  1.55000000e-02
  103864, -2.20568510e-03, -1.17896326e-03,  1.55000000e-02
  103865, -2.07950553e-03, -1.38948118e-03,  1.55000000e-02
  103866, -1.93329918e-03, -1.58661764e-03,  1.55000000e-02
  103867, -1.76847411e-03, -1.76847411e-03,  1.55000000e-02
  103868, -1.93329918e-03,  1.58661764e-03,  1.60000000e-02
  103869, -2.07950553e-03,  1.38948118e-03,  1.60000000e-02
  103870, -2.20568510e-03,  1.17896326e-03,  1.60000000e-02
  103871, -2.31062272e-03,  9.57091277e-04,  1.60000000e-02
  103872, -2.39330779e-03,  7.26001986e-04,  1.60000000e-02
  103873, -2.45294399e-03,  4.87920900e-04,  1.60000000e-02
  103874, -2.48895700e-03,  2.45140870e-04,  1.60000000e-02
  103875, -2.50100000e-03,  2.22133423e-19,  1.60000000e-02
  103876, -2.48895700e-03, -2.45140870e-04,  1.60000000e-02
  103877, -2.45294399e-03, -4.87920900e-04,  1.60000000e-02
  103878, -2.39330779e-03, -7.26001986e-04,  1.60000000e-02
  103879, -2.31062272e-03, -9.57091277e-04,  1.60000000e-02
  103880, -2.20568510e-03, -1.17896326e-03,  1.60000000e-02
  103881, -2.07950553e-03, -1.38948118e-03,  1.60000000e-02
  103882, -1.93329918e-03, -1.58661764e-03,  1.60000000e-02
  103883, -1.76847411e-03, -1.76847411e-03,  1.60000000e-02
  103884, -1.93329918e-03,  1.58661764e-03,  1.65000000e-02
  103885, -2.07950553e-03,  1.38948118e-03,  1.65000000e-02
  103886, -2.20568510e-03,  1.17896326e-03,  1.65000000e-02
  103887, -2.31062272e-03,  9.57091277e-04,  1.65000000e-02
  103888, -2.39330779e-03,  7.26001986e-04,  1.65000000e-02
  103889, -2.45294399e-03,  4.87920900e-04,  1.65000000e-02
  103890, -2.48895700e-03,  2.45140870e-04,  1.65000000e-02
  103891, -2.50100000e-03,  2.22133423e-19,  1.65000000e-02
  103892, -2.48895700e-03, -2.45140870e-04,  1.65000000e-02
  103893, -2.45294399e-03, -4.87920900e-04,  1.65000000e-02
  103894, -2.39330779e-03, -7.26001986e-04,  1.65000000e-02
  103895, -2.31062272e-03, -9.57091277e-04,  1.65000000e-02
  103896, -2.20568510e-03, -1.17896326e-03,  1.65000000e-02
  103897, -2.07950553e-03, -1.38948118e-03,  1.65000000e-02
  103898, -1.93329918e-03, -1.58661764e-03,  1.65000000e-02
  103899, -1.76847411e-03, -1.76847411e-03,  1.65000000e-02
  103900, -1.93329918e-03,  1.58661764e-03,  1.70000000e-02
  103901, -2.07950553e-03,  1.38948118e-03,  1.70000000e-02
  103902, -2.20568510e-03,  1.17896326e-03,  1.70000000e-02
  103903, -2.31062272e-03,  9.57091277e-04,  1.70000000e-02
  103904, -2.39330779e-03,  7.26001986e-04,  1.70000000e-02
  103905, -2.45294399e-03,  4.87920900e-04,  1.70000000e-02
  103906, -2.48895700e-03,  2.45140870e-04,  1.70000000e-02
  103907, -2.50100000e-03,  2.22133423e-19,  1.70000000e-02
  103908, -2.48895700e-03, -2.45140870e-04,  1.70000000e-02
  103909, -2.45294399e-03, -4.87920900e-04,  1.70000000e-02
  103910, -2.39330779e-03, -7.26001986e-04,  1.70000000e-02
  103911, -2.31062272e-03, -9.57091277e-04,  1.70000000e-02
  103912, -2.20568510e-03, -1.17896326e-03,  1.70000000e-02
  103913, -2.07950553e-03, -1.38948118e-03,  1.70000000e-02
  103914, -1.93329918e-03, -1.58661764e-03,  1.70000000e-02
  103915, -1.76847411e-03, -1.76847411e-03,  1.70000000e-02
  103916, -1.93329918e-03,  1.58661764e-03,  1.75000000e-02
  103917, -2.07950553e-03,  1.38948118e-03,  1.75000000e-02
  103918, -2.20568510e-03,  1.17896326e-03,  1.75000000e-02
  103919, -2.31062272e-03,  9.57091277e-04,  1.75000000e-02
  103920, -2.39330779e-03,  7.26001986e-04,  1.75000000e-02
  103921, -2.45294399e-03,  4.87920900e-04,  1.75000000e-02
  103922, -2.48895700e-03,  2.45140870e-04,  1.75000000e-02
  103923, -2.50100000e-03,  2.22133423e-19,  1.75000000e-02
  103924, -2.48895700e-03, -2.45140870e-04,  1.75000000e-02
  103925, -2.45294399e-03, -4.87920900e-04,  1.75000000e-02
  103926, -2.39330779e-03, -7.26001986e-04,  1.75000000e-02
  103927, -2.31062272e-03, -9.57091277e-04,  1.75000000e-02
  103928, -2.20568510e-03, -1.17896326e-03,  1.75000000e-02
  103929, -2.07950553e-03, -1.38948118e-03,  1.75000000e-02
  103930, -1.93329918e-03, -1.58661764e-03,  1.75000000e-02
  103931, -1.76847411e-03, -1.76847411e-03,  1.75000000e-02
  103932, -1.93329918e-03,  1.58661764e-03,  1.80000000e-02
  103933, -2.07950553e-03,  1.38948118e-03,  1.80000000e-02
  103934, -2.20568510e-03,  1.17896326e-03,  1.80000000e-02
  103935, -2.31062272e-03,  9.57091277e-04,  1.80000000e-02
  103936, -2.39330779e-03,  7.26001986e-04,  1.80000000e-02
  103937, -2.45294399e-03,  4.87920900e-04,  1.80000000e-02
  103938, -2.48895700e-03,  2.45140870e-04,  1.80000000e-02
  103939, -2.50100000e-03,  2.22133423e-19,  1.80000000e-02
  103940, -2.48895700e-03, -2.45140870e-04,  1.80000000e-02
  103941, -2.45294399e-03, -4.87920900e-04,  1.80000000e-02
  103942, -2.39330779e-03, -7.26001986e-04,  1.80000000e-02
  103943, -2.31062272e-03, -9.57091277e-04,  1.80000000e-02
  103944, -2.20568510e-03, -1.17896326e-03,  1.80000000e-02
  103945, -2.07950553e-03, -1.38948118e-03,  1.80000000e-02
  103946, -1.93329918e-03, -1.58661764e-03,  1.80000000e-02
  103947, -1.76847411e-03, -1.76847411e-03,  1.80000000e-02
  103948, -1.93329918e-03,  1.58661764e-03,  1.85000000e-02
  103949, -2.07950553e-03,  1.38948118e-03,  1.85000000e-02
  103950, -2.20568510e-03,  1.17896326e-03,  1.85000000e-02
  103951, -2.31062272e-03,  9.57091277e-04,  1.85000000e-02
  103952, -2.39330779e-03,  7.26001986e-04,  1.85000000e-02
  103953, -2.45294399e-03,  4.87920900e-04,  1.85000000e-02
  103954, -2.48895700e-03,  2.45140870e-04,  1.85000000e-02
  103955, -2.50100000e-03,  2.22133423e-19,  1.85000000e-02
  103956, -2.48895700e-03, -2.45140870e-04,  1.85000000e-02
  103957, -2.45294399e-03, -4.87920900e-04,  1.85000000e-02
  103958, -2.39330779e-03, -7.26001986e-04,  1.85000000e-02
  103959, -2.31062272e-03, -9.57091277e-04,  1.85000000e-02
  103960, -2.20568510e-03, -1.17896326e-03,  1.85000000e-02
  103961, -2.07950553e-03, -1.38948118e-03,  1.85000000e-02
  103962, -1.93329918e-03, -1.58661764e-03,  1.85000000e-02
  103963, -1.76847411e-03, -1.76847411e-03,  1.85000000e-02
  103964, -1.93329918e-03,  1.58661764e-03,  1.90000000e-02
  103965, -2.07950553e-03,  1.38948118e-03,  1.90000000e-02
  103966, -2.20568510e-03,  1.17896326e-03,  1.90000000e-02
  103967, -2.31062272e-03,  9.57091277e-04,  1.90000000e-02
  103968, -2.39330779e-03,  7.26001986e-04,  1.90000000e-02
  103969, -2.45294399e-03,  4.87920900e-04,  1.90000000e-02
  103970, -2.48895700e-03,  2.45140870e-04,  1.90000000e-02
  103971, -2.50100000e-03,  2.22133423e-19,  1.90000000e-02
  103972, -2.48895700e-03, -2.45140870e-04,  1.90000000e-02
  103973, -2.45294399e-03, -4.87920900e-04,  1.90000000e-02
  103974, -2.39330779e-03, -7.26001986e-04,  1.90000000e-02
  103975, -2.31062272e-03, -9.57091277e-04,  1.90000000e-02
  103976, -2.20568510e-03, -1.17896326e-03,  1.90000000e-02
  103977, -2.07950553e-03, -1.38948118e-03,  1.90000000e-02
  103978, -1.93329918e-03, -1.58661764e-03,  1.90000000e-02
  103979, -1.76847411e-03, -1.76847411e-03,  1.90000000e-02
  103980, -1.93329918e-03,  1.58661764e-03,  1.95000000e-02
  103981, -2.07950553e-03,  1.38948118e-03,  1.95000000e-02
  103982, -2.20568510e-03,  1.17896326e-03,  1.95000000e-02
  103983, -2.31062272e-03,  9.57091277e-04,  1.95000000e-02
  103984, -2.39330779e-03,  7.26001986e-04,  1.95000000e-02
  103985, -2.45294399e-03,  4.87920900e-04,  1.95000000e-02
  103986, -2.48895700e-03,  2.45140870e-04,  1.95000000e-02
  103987, -2.50100000e-03,  2.22133423e-19,  1.95000000e-02
  103988, -2.48895700e-03, -2.45140870e-04,  1.95000000e-02
  103989, -2.45294399e-03, -4.87920900e-04,  1.95000000e-02
  103990, -2.39330779e-03, -7.26001986e-04,  1.95000000e-02
  103991, -2.31062272e-03, -9.57091277e-04,  1.95000000e-02
  103992, -2.20568510e-03, -1.17896326e-03,  1.95000000e-02
  103993, -2.07950553e-03, -1.38948118e-03,  1.95000000e-02
  103994, -1.93329918e-03, -1.58661764e-03,  1.95000000e-02
  103995, -1.76847411e-03, -1.76847411e-03,  1.95000000e-02
  103996, -1.93329918e-03,  1.58661764e-03,  2.00000000e-02
  103997, -2.07950553e-03,  1.38948118e-03,  2.00000000e-02
  103998, -2.20568510e-03,  1.17896326e-03,  2.00000000e-02
  103999, -2.31062272e-03,  9.57091277e-04,  2.00000000e-02
  104000, -2.39330779e-03,  7.26001986e-04,  2.00000000e-02
  104001, -2.45294399e-03,  4.87920900e-04,  2.00000000e-02
  104002, -2.48895700e-03,  2.45140870e-04,  2.00000000e-02
  104003, -2.50100000e-03,  2.22133423e-19,  2.00000000e-02
  104004, -2.48895700e-03, -2.45140870e-04,  2.00000000e-02
  104005, -2.45294399e-03, -4.87920900e-04,  2.00000000e-02
  104006, -2.39330779e-03, -7.26001986e-04,  2.00000000e-02
  104007, -2.31062272e-03, -9.57091277e-04,  2.00000000e-02
  104008, -2.20568510e-03, -1.17896326e-03,  2.00000000e-02
  104009, -2.07950553e-03, -1.38948118e-03,  2.00000000e-02
  104010, -1.93329918e-03, -1.58661764e-03,  2.00000000e-02
  104011, -1.76847411e-03, -1.76847411e-03,  2.00000000e-02
  104012, -1.93329918e-03,  1.58661764e-03,  2.05000000e-02
  104013, -2.07950553e-03,  1.38948118e-03,  2.05000000e-02
  104014, -2.20568510e-03,  1.17896326e-03,  2.05000000e-02
  104015, -2.31062272e-03,  9.57091277e-04,  2.05000000e-02
  104016, -2.39330779e-03,  7.26001986e-04,  2.05000000e-02
  104017, -2.45294399e-03,  4.87920900e-04,  2.05000000e-02
  104018, -2.48895700e-03,  2.45140870e-04,  2.05000000e-02
  104019, -2.50100000e-03,  2.22133423e-19,  2.05000000e-02
  104020, -2.48895700e-03, -2.45140870e-04,  2.05000000e-02
  104021, -2.45294399e-03, -4.87920900e-04,  2.05000000e-02
  104022, -2.39330779e-03, -7.26001986e-04,  2.05000000e-02
  104023, -2.31062272e-03, -9.57091277e-04,  2.05000000e-02
  104024, -2.20568510e-03, -1.17896326e-03,  2.05000000e-02
  104025, -2.07950553e-03, -1.38948118e-03,  2.05000000e-02
  104026, -1.93329918e-03, -1.58661764e-03,  2.05000000e-02
  104027, -1.76847411e-03, -1.76847411e-03,  2.05000000e-02
  104028, -1.93329918e-03,  1.58661764e-03,  2.10000000e-02
  104029, -2.07950553e-03,  1.38948118e-03,  2.10000000e-02
  104030, -2.20568510e-03,  1.17896326e-03,  2.10000000e-02
  104031, -2.31062272e-03,  9.57091277e-04,  2.10000000e-02
  104032, -2.39330779e-03,  7.26001986e-04,  2.10000000e-02
  104033, -2.45294399e-03,  4.87920900e-04,  2.10000000e-02
  104034, -2.48895700e-03,  2.45140870e-04,  2.10000000e-02
  104035, -2.50100000e-03,  2.22133423e-19,  2.10000000e-02
  104036, -2.48895700e-03, -2.45140870e-04,  2.10000000e-02
  104037, -2.45294399e-03, -4.87920900e-04,  2.10000000e-02
  104038, -2.39330779e-03, -7.26001986e-04,  2.10000000e-02
  104039, -2.31062272e-03, -9.57091277e-04,  2.10000000e-02
  104040, -2.20568510e-03, -1.17896326e-03,  2.10000000e-02
  104041, -2.07950553e-03, -1.38948118e-03,  2.10000000e-02
  104042, -1.93329918e-03, -1.58661764e-03,  2.10000000e-02
  104043, -1.76847411e-03, -1.76847411e-03,  2.10000000e-02
  104044, -1.93329918e-03,  1.58661764e-03,  2.15000000e-02
  104045, -2.07950553e-03,  1.38948118e-03,  2.15000000e-02
  104046, -2.20568510e-03,  1.17896326e-03,  2.15000000e-02
  104047, -2.31062272e-03,  9.57091277e-04,  2.15000000e-02
  104048, -2.39330779e-03,  7.26001986e-04,  2.15000000e-02
  104049, -2.45294399e-03,  4.87920900e-04,  2.15000000e-02
  104050, -2.48895700e-03,  2.45140870e-04,  2.15000000e-02
  104051, -2.50100000e-03,  2.22133423e-19,  2.15000000e-02
  104052, -2.48895700e-03, -2.45140870e-04,  2.15000000e-02
  104053, -2.45294399e-03, -4.87920900e-04,  2.15000000e-02
  104054, -2.39330779e-03, -7.26001986e-04,  2.15000000e-02
  104055, -2.31062272e-03, -9.57091277e-04,  2.15000000e-02
  104056, -2.20568510e-03, -1.17896326e-03,  2.15000000e-02
  104057, -2.07950553e-03, -1.38948118e-03,  2.15000000e-02
  104058, -1.93329918e-03, -1.58661764e-03,  2.15000000e-02
  104059, -1.76847411e-03, -1.76847411e-03,  2.15000000e-02
  104060, -1.93329918e-03,  1.58661764e-03,  2.20000000e-02
  104061, -2.07950553e-03,  1.38948118e-03,  2.20000000e-02
  104062, -2.20568510e-03,  1.17896326e-03,  2.20000000e-02
  104063, -2.31062272e-03,  9.57091277e-04,  2.20000000e-02
  104064, -2.39330779e-03,  7.26001986e-04,  2.20000000e-02
  104065, -2.45294399e-03,  4.87920900e-04,  2.20000000e-02
  104066, -2.48895700e-03,  2.45140870e-04,  2.20000000e-02
  104067, -2.50100000e-03,  2.22133423e-19,  2.20000000e-02
  104068, -2.48895700e-03, -2.45140870e-04,  2.20000000e-02
  104069, -2.45294399e-03, -4.87920900e-04,  2.20000000e-02
  104070, -2.39330779e-03, -7.26001986e-04,  2.20000000e-02
  104071, -2.31062272e-03, -9.57091277e-04,  2.20000000e-02
  104072, -2.20568510e-03, -1.17896326e-03,  2.20000000e-02
  104073, -2.07950553e-03, -1.38948118e-03,  2.20000000e-02
  104074, -1.93329918e-03, -1.58661764e-03,  2.20000000e-02
  104075, -1.76847411e-03, -1.76847411e-03,  2.20000000e-02
  104076, -1.93329918e-03,  1.58661764e-03,  2.25000000e-02
  104077, -2.07950553e-03,  1.38948118e-03,  2.25000000e-02
  104078, -2.20568510e-03,  1.17896326e-03,  2.25000000e-02
  104079, -2.31062272e-03,  9.57091277e-04,  2.25000000e-02
  104080, -2.39330779e-03,  7.26001986e-04,  2.25000000e-02
  104081, -2.45294399e-03,  4.87920900e-04,  2.25000000e-02
  104082, -2.48895700e-03,  2.45140870e-04,  2.25000000e-02
  104083, -2.50100000e-03,  2.22133423e-19,  2.25000000e-02
  104084, -2.48895700e-03, -2.45140870e-04,  2.25000000e-02
  104085, -2.45294399e-03, -4.87920900e-04,  2.25000000e-02
  104086, -2.39330779e-03, -7.26001986e-04,  2.25000000e-02
  104087, -2.31062272e-03, -9.57091277e-04,  2.25000000e-02
  104088, -2.20568510e-03, -1.17896326e-03,  2.25000000e-02
  104089, -2.07950553e-03, -1.38948118e-03,  2.25000000e-02
  104090, -1.93329918e-03, -1.58661764e-03,  2.25000000e-02
  104091, -1.76847411e-03, -1.76847411e-03,  2.25000000e-02
  104092, -1.93329918e-03,  1.58661764e-03,  2.30000000e-02
  104093, -2.07950553e-03,  1.38948118e-03,  2.30000000e-02
  104094, -2.20568510e-03,  1.17896326e-03,  2.30000000e-02
  104095, -2.31062272e-03,  9.57091277e-04,  2.30000000e-02
  104096, -2.39330779e-03,  7.26001986e-04,  2.30000000e-02
  104097, -2.45294399e-03,  4.87920900e-04,  2.30000000e-02
  104098, -2.48895700e-03,  2.45140870e-04,  2.30000000e-02
  104099, -2.50100000e-03,  2.22133423e-19,  2.30000000e-02
  104100, -2.48895700e-03, -2.45140870e-04,  2.30000000e-02
  104101, -2.45294399e-03, -4.87920900e-04,  2.30000000e-02
  104102, -2.39330779e-03, -7.26001986e-04,  2.30000000e-02
  104103, -2.31062272e-03, -9.57091277e-04,  2.30000000e-02
  104104, -2.20568510e-03, -1.17896326e-03,  2.30000000e-02
  104105, -2.07950553e-03, -1.38948118e-03,  2.30000000e-02
  104106, -1.93329918e-03, -1.58661764e-03,  2.30000000e-02
  104107, -1.76847411e-03, -1.76847411e-03,  2.30000000e-02
  104108, -1.93329918e-03,  1.58661764e-03,  2.35000000e-02
  104109, -2.07950553e-03,  1.38948118e-03,  2.35000000e-02
  104110, -2.20568510e-03,  1.17896326e-03,  2.35000000e-02
  104111, -2.31062272e-03,  9.57091277e-04,  2.35000000e-02
  104112, -2.39330779e-03,  7.26001986e-04,  2.35000000e-02
  104113, -2.45294399e-03,  4.87920900e-04,  2.35000000e-02
  104114, -2.48895700e-03,  2.45140870e-04,  2.35000000e-02
  104115, -2.50100000e-03,  2.22133423e-19,  2.35000000e-02
  104116, -2.48895700e-03, -2.45140870e-04,  2.35000000e-02
  104117, -2.45294399e-03, -4.87920900e-04,  2.35000000e-02
  104118, -2.39330779e-03, -7.26001986e-04,  2.35000000e-02
  104119, -2.31062272e-03, -9.57091277e-04,  2.35000000e-02
  104120, -2.20568510e-03, -1.17896326e-03,  2.35000000e-02
  104121, -2.07950553e-03, -1.38948118e-03,  2.35000000e-02
  104122, -1.93329918e-03, -1.58661764e-03,  2.35000000e-02
  104123, -1.76847411e-03, -1.76847411e-03,  2.35000000e-02
  104124, -1.93329918e-03,  1.58661764e-03,  2.40000000e-02
  104125, -2.07950553e-03,  1.38948118e-03,  2.40000000e-02
  104126, -2.20568510e-03,  1.17896326e-03,  2.40000000e-02
  104127, -2.31062272e-03,  9.57091277e-04,  2.40000000e-02
  104128, -2.39330779e-03,  7.26001986e-04,  2.40000000e-02
  104129, -2.45294399e-03,  4.87920900e-04,  2.40000000e-02
  104130, -2.48895700e-03,  2.45140870e-04,  2.40000000e-02
  104131, -2.50100000e-03,  2.22133423e-19,  2.40000000e-02
  104132, -2.48895700e-03, -2.45140870e-04,  2.40000000e-02
  104133, -2.45294399e-03, -4.87920900e-04,  2.40000000e-02
  104134, -2.39330779e-03, -7.26001986e-04,  2.40000000e-02
  104135, -2.31062272e-03, -9.57091277e-04,  2.40000000e-02
  104136, -2.20568510e-03, -1.17896326e-03,  2.40000000e-02
  104137, -2.07950553e-03, -1.38948118e-03,  2.40000000e-02
  104138, -1.93329918e-03, -1.58661764e-03,  2.40000000e-02
  104139, -1.76847411e-03, -1.76847411e-03,  2.40000000e-02
  104140, -1.93329918e-03,  1.58661764e-03,  2.45000000e-02
  104141, -2.07950553e-03,  1.38948118e-03,  2.45000000e-02
  104142, -2.20568510e-03,  1.17896326e-03,  2.45000000e-02
  104143, -2.31062272e-03,  9.57091277e-04,  2.45000000e-02
  104144, -2.39330779e-03,  7.26001986e-04,  2.45000000e-02
  104145, -2.45294399e-03,  4.87920900e-04,  2.45000000e-02
  104146, -2.48895700e-03,  2.45140870e-04,  2.45000000e-02
  104147, -2.50100000e-03,  2.22133423e-19,  2.45000000e-02
  104148, -2.48895700e-03, -2.45140870e-04,  2.45000000e-02
  104149, -2.45294399e-03, -4.87920900e-04,  2.45000000e-02
  104150, -2.39330779e-03, -7.26001986e-04,  2.45000000e-02
  104151, -2.31062272e-03, -9.57091277e-04,  2.45000000e-02
  104152, -2.20568510e-03, -1.17896326e-03,  2.45000000e-02
  104153, -2.07950553e-03, -1.38948118e-03,  2.45000000e-02
  104154, -1.93329918e-03, -1.58661764e-03,  2.45000000e-02
  104155, -1.76847411e-03, -1.76847411e-03,  2.45000000e-02
  104156, -1.93329918e-03,  1.58661764e-03,  2.50000000e-02
  104157, -2.07950553e-03,  1.38948118e-03,  2.50000000e-02
  104158, -2.20568510e-03,  1.17896326e-03,  2.50000000e-02
  104159, -2.31062272e-03,  9.57091277e-04,  2.50000000e-02
  104160, -2.39330779e-03,  7.26001986e-04,  2.50000000e-02
  104161, -2.45294399e-03,  4.87920900e-04,  2.50000000e-02
  104162, -2.48895700e-03,  2.45140870e-04,  2.50000000e-02
  104163, -2.50100000e-03,  2.22133423e-19,  2.50000000e-02
  104164, -2.48895700e-03, -2.45140870e-04,  2.50000000e-02
  104165, -2.45294399e-03, -4.87920900e-04,  2.50000000e-02
  104166, -2.39330779e-03, -7.26001986e-04,  2.50000000e-02
  104167, -2.31062272e-03, -9.57091277e-04,  2.50000000e-02
  104168, -2.20568510e-03, -1.17896326e-03,  2.50000000e-02
  104169, -2.07950553e-03, -1.38948118e-03,  2.50000000e-02
  104170, -1.93329918e-03, -1.58661764e-03,  2.50000000e-02
  104171, -1.76847411e-03, -1.76847411e-03,  2.50000000e-02
  104172, -1.93329918e-03,  1.58661764e-03,  2.55000000e-02
  104173, -2.07950553e-03,  1.38948118e-03,  2.55000000e-02
  104174, -2.20568510e-03,  1.17896326e-03,  2.55000000e-02
  104175, -2.31062272e-03,  9.57091277e-04,  2.55000000e-02
  104176, -2.39330779e-03,  7.26001986e-04,  2.55000000e-02
  104177, -2.45294399e-03,  4.87920900e-04,  2.55000000e-02
  104178, -2.48895700e-03,  2.45140870e-04,  2.55000000e-02
  104179, -2.50100000e-03,  2.22133423e-19,  2.55000000e-02
  104180, -2.48895700e-03, -2.45140870e-04,  2.55000000e-02
  104181, -2.45294399e-03, -4.87920900e-04,  2.55000000e-02
  104182, -2.39330779e-03, -7.26001986e-04,  2.55000000e-02
  104183, -2.31062272e-03, -9.57091277e-04,  2.55000000e-02
  104184, -2.20568510e-03, -1.17896326e-03,  2.55000000e-02
  104185, -2.07950553e-03, -1.38948118e-03,  2.55000000e-02
  104186, -1.93329918e-03, -1.58661764e-03,  2.55000000e-02
  104187, -1.76847411e-03, -1.76847411e-03,  2.55000000e-02
  104188, -1.93329918e-03,  1.58661764e-03,  2.60000000e-02
  104189, -2.07950553e-03,  1.38948118e-03,  2.60000000e-02
  104190, -2.20568510e-03,  1.17896326e-03,  2.60000000e-02
  104191, -2.31062272e-03,  9.57091277e-04,  2.60000000e-02
  104192, -2.39330779e-03,  7.26001986e-04,  2.60000000e-02
  104193, -2.45294399e-03,  4.87920900e-04,  2.60000000e-02
  104194, -2.48895700e-03,  2.45140870e-04,  2.60000000e-02
  104195, -2.50100000e-03,  2.22133423e-19,  2.60000000e-02
  104196, -2.48895700e-03, -2.45140870e-04,  2.60000000e-02
  104197, -2.45294399e-03, -4.87920900e-04,  2.60000000e-02
  104198, -2.39330779e-03, -7.26001986e-04,  2.60000000e-02
  104199, -2.31062272e-03, -9.57091277e-04,  2.60000000e-02
  104200, -2.20568510e-03, -1.17896326e-03,  2.60000000e-02
  104201, -2.07950553e-03, -1.38948118e-03,  2.60000000e-02
  104202, -1.93329918e-03, -1.58661764e-03,  2.60000000e-02
  104203, -1.76847411e-03, -1.76847411e-03,  2.60000000e-02
  104204, -1.93329918e-03,  1.58661764e-03,  2.65000000e-02
  104205, -2.07950553e-03,  1.38948118e-03,  2.65000000e-02
  104206, -2.20568510e-03,  1.17896326e-03,  2.65000000e-02
  104207, -2.31062272e-03,  9.57091277e-04,  2.65000000e-02
  104208, -2.39330779e-03,  7.26001986e-04,  2.65000000e-02
  104209, -2.45294399e-03,  4.87920900e-04,  2.65000000e-02
  104210, -2.48895700e-03,  2.45140870e-04,  2.65000000e-02
  104211, -2.50100000e-03,  2.22133423e-19,  2.65000000e-02
  104212, -2.48895700e-03, -2.45140870e-04,  2.65000000e-02
  104213, -2.45294399e-03, -4.87920900e-04,  2.65000000e-02
  104214, -2.39330779e-03, -7.26001986e-04,  2.65000000e-02
  104215, -2.31062272e-03, -9.57091277e-04,  2.65000000e-02
  104216, -2.20568510e-03, -1.17896326e-03,  2.65000000e-02
  104217, -2.07950553e-03, -1.38948118e-03,  2.65000000e-02
  104218, -1.93329918e-03, -1.58661764e-03,  2.65000000e-02
  104219, -1.76847411e-03, -1.76847411e-03,  2.65000000e-02
  104220, -1.93329918e-03,  1.58661764e-03,  2.70000000e-02
  104221, -2.07950553e-03,  1.38948118e-03,  2.70000000e-02
  104222, -2.20568510e-03,  1.17896326e-03,  2.70000000e-02
  104223, -2.31062272e-03,  9.57091277e-04,  2.70000000e-02
  104224, -2.39330779e-03,  7.26001986e-04,  2.70000000e-02
  104225, -2.45294399e-03,  4.87920900e-04,  2.70000000e-02
  104226, -2.48895700e-03,  2.45140870e-04,  2.70000000e-02
  104227, -2.50100000e-03,  2.22133423e-19,  2.70000000e-02
  104228, -2.48895700e-03, -2.45140870e-04,  2.70000000e-02
  104229, -2.45294399e-03, -4.87920900e-04,  2.70000000e-02
  104230, -2.39330779e-03, -7.26001986e-04,  2.70000000e-02
  104231, -2.31062272e-03, -9.57091277e-04,  2.70000000e-02
  104232, -2.20568510e-03, -1.17896326e-03,  2.70000000e-02
  104233, -2.07950553e-03, -1.38948118e-03,  2.70000000e-02
  104234, -1.93329918e-03, -1.58661764e-03,  2.70000000e-02
  104235, -1.76847411e-03, -1.76847411e-03,  2.70000000e-02
  104236, -1.93329918e-03,  1.58661764e-03,  2.75000000e-02
  104237, -2.07950553e-03,  1.38948118e-03,  2.75000000e-02
  104238, -2.20568510e-03,  1.17896326e-03,  2.75000000e-02
  104239, -2.31062272e-03,  9.57091277e-04,  2.75000000e-02
  104240, -2.39330779e-03,  7.26001986e-04,  2.75000000e-02
  104241, -2.45294399e-03,  4.87920900e-04,  2.75000000e-02
  104242, -2.48895700e-03,  2.45140870e-04,  2.75000000e-02
  104243, -2.50100000e-03,  2.22133423e-19,  2.75000000e-02
  104244, -2.48895700e-03, -2.45140870e-04,  2.75000000e-02
  104245, -2.45294399e-03, -4.87920900e-04,  2.75000000e-02
  104246, -2.39330779e-03, -7.26001986e-04,  2.75000000e-02
  104247, -2.31062272e-03, -9.57091277e-04,  2.75000000e-02
  104248, -2.20568510e-03, -1.17896326e-03,  2.75000000e-02
  104249, -2.07950553e-03, -1.38948118e-03,  2.75000000e-02
  104250, -1.93329918e-03, -1.58661764e-03,  2.75000000e-02
  104251, -1.76847411e-03, -1.76847411e-03,  2.75000000e-02
  104252, -1.93329918e-03,  1.58661764e-03,  2.80000000e-02
  104253, -2.07950553e-03,  1.38948118e-03,  2.80000000e-02
  104254, -2.20568510e-03,  1.17896326e-03,  2.80000000e-02
  104255, -2.31062272e-03,  9.57091277e-04,  2.80000000e-02
  104256, -2.39330779e-03,  7.26001986e-04,  2.80000000e-02
  104257, -2.45294399e-03,  4.87920900e-04,  2.80000000e-02
  104258, -2.48895700e-03,  2.45140870e-04,  2.80000000e-02
  104259, -2.50100000e-03,  2.22133423e-19,  2.80000000e-02
  104260, -2.48895700e-03, -2.45140870e-04,  2.80000000e-02
  104261, -2.45294399e-03, -4.87920900e-04,  2.80000000e-02
  104262, -2.39330779e-03, -7.26001986e-04,  2.80000000e-02
  104263, -2.31062272e-03, -9.57091277e-04,  2.80000000e-02
  104264, -2.20568510e-03, -1.17896326e-03,  2.80000000e-02
  104265, -2.07950553e-03, -1.38948118e-03,  2.80000000e-02
  104266, -1.93329918e-03, -1.58661764e-03,  2.80000000e-02
  104267, -1.76847411e-03, -1.76847411e-03,  2.80000000e-02
  104268, -1.93329918e-03,  1.58661764e-03,  2.85000000e-02
  104269, -2.07950553e-03,  1.38948118e-03,  2.85000000e-02
  104270, -2.20568510e-03,  1.17896326e-03,  2.85000000e-02
  104271, -2.31062272e-03,  9.57091277e-04,  2.85000000e-02
  104272, -2.39330779e-03,  7.26001986e-04,  2.85000000e-02
  104273, -2.45294399e-03,  4.87920900e-04,  2.85000000e-02
  104274, -2.48895700e-03,  2.45140870e-04,  2.85000000e-02
  104275, -2.50100000e-03,  2.22133423e-19,  2.85000000e-02
  104276, -2.48895700e-03, -2.45140870e-04,  2.85000000e-02
  104277, -2.45294399e-03, -4.87920900e-04,  2.85000000e-02
  104278, -2.39330779e-03, -7.26001986e-04,  2.85000000e-02
  104279, -2.31062272e-03, -9.57091277e-04,  2.85000000e-02
  104280, -2.20568510e-03, -1.17896326e-03,  2.85000000e-02
  104281, -2.07950553e-03, -1.38948118e-03,  2.85000000e-02
  104282, -1.93329918e-03, -1.58661764e-03,  2.85000000e-02
  104283, -1.76847411e-03, -1.76847411e-03,  2.85000000e-02
  104284, -1.93329918e-03,  1.58661764e-03,  2.90000000e-02
  104285, -2.07950553e-03,  1.38948118e-03,  2.90000000e-02
  104286, -2.20568510e-03,  1.17896326e-03,  2.90000000e-02
  104287, -2.31062272e-03,  9.57091277e-04,  2.90000000e-02
  104288, -2.39330779e-03,  7.26001986e-04,  2.90000000e-02
  104289, -2.45294399e-03,  4.87920900e-04,  2.90000000e-02
  104290, -2.48895700e-03,  2.45140870e-04,  2.90000000e-02
  104291, -2.50100000e-03,  2.22133423e-19,  2.90000000e-02
  104292, -2.48895700e-03, -2.45140870e-04,  2.90000000e-02
  104293, -2.45294399e-03, -4.87920900e-04,  2.90000000e-02
  104294, -2.39330779e-03, -7.26001986e-04,  2.90000000e-02
  104295, -2.31062272e-03, -9.57091277e-04,  2.90000000e-02
  104296, -2.20568510e-03, -1.17896326e-03,  2.90000000e-02
  104297, -2.07950553e-03, -1.38948118e-03,  2.90000000e-02
  104298, -1.93329918e-03, -1.58661764e-03,  2.90000000e-02
  104299, -1.76847411e-03, -1.76847411e-03,  2.90000000e-02
  104300, -1.93329918e-03,  1.58661764e-03,  2.95000000e-02
  104301, -2.07950553e-03,  1.38948118e-03,  2.95000000e-02
  104302, -2.20568510e-03,  1.17896326e-03,  2.95000000e-02
  104303, -2.31062272e-03,  9.57091277e-04,  2.95000000e-02
  104304, -2.39330779e-03,  7.26001986e-04,  2.95000000e-02
  104305, -2.45294399e-03,  4.87920900e-04,  2.95000000e-02
  104306, -2.48895700e-03,  2.45140870e-04,  2.95000000e-02
  104307, -2.50100000e-03,  2.22133423e-19,  2.95000000e-02
  104308, -2.48895700e-03, -2.45140870e-04,  2.95000000e-02
  104309, -2.45294399e-03, -4.87920900e-04,  2.95000000e-02
  104310, -2.39330779e-03, -7.26001986e-04,  2.95000000e-02
  104311, -2.31062272e-03, -9.57091277e-04,  2.95000000e-02
  104312, -2.20568510e-03, -1.17896326e-03,  2.95000000e-02
  104313, -2.07950553e-03, -1.38948118e-03,  2.95000000e-02
  104314, -1.93329918e-03, -1.58661764e-03,  2.95000000e-02
  104315, -1.76847411e-03, -1.76847411e-03,  2.95000000e-02
  104316, -1.93329918e-03,  1.58661764e-03,  3.00000000e-02
  104317, -2.07950553e-03,  1.38948118e-03,  3.00000000e-02
  104318, -2.20568510e-03,  1.17896326e-03,  3.00000000e-02
  104319, -2.31062272e-03,  9.57091277e-04,  3.00000000e-02
  104320, -2.39330779e-03,  7.26001986e-04,  3.00000000e-02
  104321, -2.45294399e-03,  4.87920900e-04,  3.00000000e-02
  104322, -2.48895700e-03,  2.45140870e-04,  3.00000000e-02
  104323, -2.50100000e-03,  2.22133423e-19,  3.00000000e-02
  104324, -2.48895700e-03, -2.45140870e-04,  3.00000000e-02
  104325, -2.45294399e-03, -4.87920900e-04,  3.00000000e-02
  104326, -2.39330779e-03, -7.26001986e-04,  3.00000000e-02
  104327, -2.31062272e-03, -9.57091277e-04,  3.00000000e-02
  104328, -2.20568510e-03, -1.17896326e-03,  3.00000000e-02
  104329, -2.07950553e-03, -1.38948118e-03,  3.00000000e-02
  104330, -1.93329918e-03, -1.58661764e-03,  3.00000000e-02
  104331, -1.76847411e-03, -1.76847411e-03,  3.00000000e-02
  104332, -1.58661764e-03, -1.93329918e-03,  0.00000000e+00
  104333, -1.38948118e-03, -2.07950553e-03,  0.00000000e+00
  104334, -1.17896326e-03, -2.20568510e-03,  0.00000000e+00
  104335, -9.57091277e-04, -2.31062272e-03,  0.00000000e+00
  104336, -7.26001986e-04, -2.39330779e-03,  0.00000000e+00
  104337, -4.87920900e-04, -2.45294399e-03,  0.00000000e+00
  104338, -2.45140870e-04, -2.48895700e-03,  0.00000000e+00
  104339, -2.22133423e-19, -2.50100000e-03,  0.00000000e+00
  104340,  2.45140870e-04, -2.48895700e-03,  0.00000000e+00
  104341,  4.87920900e-04, -2.45294399e-03,  0.00000000e+00
  104342,  7.26001986e-04, -2.39330779e-03,  0.00000000e+00
  104343,  9.57091277e-04, -2.31062272e-03,  0.00000000e+00
  104344,  1.17896326e-03, -2.20568510e-03,  0.00000000e+00
  104345,  1.38948118e-03, -2.07950553e-03,  0.00000000e+00
  104346,  1.58661764e-03, -1.93329918e-03,  0.00000000e+00
  104347, -1.58661764e-03, -1.93329918e-03,  5.00000000e-04
  104348, -1.38948118e-03, -2.07950553e-03,  5.00000000e-04
  104349, -1.17896326e-03, -2.20568510e-03,  5.00000000e-04
  104350, -9.57091277e-04, -2.31062272e-03,  5.00000000e-04
  104351, -7.26001986e-04, -2.39330779e-03,  5.00000000e-04
  104352, -4.87920900e-04, -2.45294399e-03,  5.00000000e-04
  104353, -2.45140870e-04, -2.48895700e-03,  5.00000000e-04
  104354, -2.22133423e-19, -2.50100000e-03,  5.00000000e-04
  104355,  2.45140870e-04, -2.48895700e-03,  5.00000000e-04
  104356,  4.87920900e-04, -2.45294399e-03,  5.00000000e-04
  104357,  7.26001986e-04, -2.39330779e-03,  5.00000000e-04
  104358,  9.57091277e-04, -2.31062272e-03,  5.00000000e-04
  104359,  1.17896326e-03, -2.20568510e-03,  5.00000000e-04
  104360,  1.38948118e-03, -2.07950553e-03,  5.00000000e-04
  104361,  1.58661764e-03, -1.93329918e-03,  5.00000000e-04
  104362, -1.58661764e-03, -1.93329918e-03,  1.00000000e-03
  104363, -1.38948118e-03, -2.07950553e-03,  1.00000000e-03
  104364, -1.17896326e-03, -2.20568510e-03,  1.00000000e-03
  104365, -9.57091277e-04, -2.31062272e-03,  1.00000000e-03
  104366, -7.26001986e-04, -2.39330779e-03,  1.00000000e-03
  104367, -4.87920900e-04, -2.45294399e-03,  1.00000000e-03
  104368, -2.45140870e-04, -2.48895700e-03,  1.00000000e-03
  104369, -2.22133423e-19, -2.50100000e-03,  1.00000000e-03
  104370,  2.45140870e-04, -2.48895700e-03,  1.00000000e-03
  104371,  4.87920900e-04, -2.45294399e-03,  1.00000000e-03
  104372,  7.26001986e-04, -2.39330779e-03,  1.00000000e-03
  104373,  9.57091277e-04, -2.31062272e-03,  1.00000000e-03
  104374,  1.17896326e-03, -2.20568510e-03,  1.00000000e-03
  104375,  1.38948118e-03, -2.07950553e-03,  1.00000000e-03
  104376,  1.58661764e-03, -1.93329918e-03,  1.00000000e-03
  104377, -1.58661764e-03, -1.93329918e-03,  1.50000000e-03
  104378, -1.38948118e-03, -2.07950553e-03,  1.50000000e-03
  104379, -1.17896326e-03, -2.20568510e-03,  1.50000000e-03
  104380, -9.57091277e-04, -2.31062272e-03,  1.50000000e-03
  104381, -7.26001986e-04, -2.39330779e-03,  1.50000000e-03
  104382, -4.87920900e-04, -2.45294399e-03,  1.50000000e-03
  104383, -2.45140870e-04, -2.48895700e-03,  1.50000000e-03
  104384, -2.22133423e-19, -2.50100000e-03,  1.50000000e-03
  104385,  2.45140870e-04, -2.48895700e-03,  1.50000000e-03
  104386,  4.87920900e-04, -2.45294399e-03,  1.50000000e-03
  104387,  7.26001986e-04, -2.39330779e-03,  1.50000000e-03
  104388,  9.57091277e-04, -2.31062272e-03,  1.50000000e-03
  104389,  1.17896326e-03, -2.20568510e-03,  1.50000000e-03
  104390,  1.38948118e-03, -2.07950553e-03,  1.50000000e-03
  104391,  1.58661764e-03, -1.93329918e-03,  1.50000000e-03
  104392, -1.58661764e-03, -1.93329918e-03,  2.00000000e-03
  104393, -1.38948118e-03, -2.07950553e-03,  2.00000000e-03
  104394, -1.17896326e-03, -2.20568510e-03,  2.00000000e-03
  104395, -9.57091277e-04, -2.31062272e-03,  2.00000000e-03
  104396, -7.26001986e-04, -2.39330779e-03,  2.00000000e-03
  104397, -4.87920900e-04, -2.45294399e-03,  2.00000000e-03
  104398, -2.45140870e-04, -2.48895700e-03,  2.00000000e-03
  104399, -2.22133423e-19, -2.50100000e-03,  2.00000000e-03
  104400,  2.45140870e-04, -2.48895700e-03,  2.00000000e-03
  104401,  4.87920900e-04, -2.45294399e-03,  2.00000000e-03
  104402,  7.26001986e-04, -2.39330779e-03,  2.00000000e-03
  104403,  9.57091277e-04, -2.31062272e-03,  2.00000000e-03
  104404,  1.17896326e-03, -2.20568510e-03,  2.00000000e-03
  104405,  1.38948118e-03, -2.07950553e-03,  2.00000000e-03
  104406,  1.58661764e-03, -1.93329918e-03,  2.00000000e-03
  104407, -1.58661764e-03, -1.93329918e-03,  2.50000000e-03
  104408, -1.38948118e-03, -2.07950553e-03,  2.50000000e-03
  104409, -1.17896326e-03, -2.20568510e-03,  2.50000000e-03
  104410, -9.57091277e-04, -2.31062272e-03,  2.50000000e-03
  104411, -7.26001986e-04, -2.39330779e-03,  2.50000000e-03
  104412, -4.87920900e-04, -2.45294399e-03,  2.50000000e-03
  104413, -2.45140870e-04, -2.48895700e-03,  2.50000000e-03
  104414, -2.22133423e-19, -2.50100000e-03,  2.50000000e-03
  104415,  2.45140870e-04, -2.48895700e-03,  2.50000000e-03
  104416,  4.87920900e-04, -2.45294399e-03,  2.50000000e-03
  104417,  7.26001986e-04, -2.39330779e-03,  2.50000000e-03
  104418,  9.57091277e-04, -2.31062272e-03,  2.50000000e-03
  104419,  1.17896326e-03, -2.20568510e-03,  2.50000000e-03
  104420,  1.38948118e-03, -2.07950553e-03,  2.50000000e-03
  104421,  1.58661764e-03, -1.93329918e-03,  2.50000000e-03
  104422, -1.58661764e-03, -1.93329918e-03,  3.00000000e-03
  104423, -1.38948118e-03, -2.07950553e-03,  3.00000000e-03
  104424, -1.17896326e-03, -2.20568510e-03,  3.00000000e-03
  104425, -9.57091277e-04, -2.31062272e-03,  3.00000000e-03
  104426, -7.26001986e-04, -2.39330779e-03,  3.00000000e-03
  104427, -4.87920900e-04, -2.45294399e-03,  3.00000000e-03
  104428, -2.45140870e-04, -2.48895700e-03,  3.00000000e-03
  104429, -2.22133423e-19, -2.50100000e-03,  3.00000000e-03
  104430,  2.45140870e-04, -2.48895700e-03,  3.00000000e-03
  104431,  4.87920900e-04, -2.45294399e-03,  3.00000000e-03
  104432,  7.26001986e-04, -2.39330779e-03,  3.00000000e-03
  104433,  9.57091277e-04, -2.31062272e-03,  3.00000000e-03
  104434,  1.17896326e-03, -2.20568510e-03,  3.00000000e-03
  104435,  1.38948118e-03, -2.07950553e-03,  3.00000000e-03
  104436,  1.58661764e-03, -1.93329918e-03,  3.00000000e-03
  104437, -1.58661764e-03, -1.93329918e-03,  3.50000000e-03
  104438, -1.38948118e-03, -2.07950553e-03,  3.50000000e-03
  104439, -1.17896326e-03, -2.20568510e-03,  3.50000000e-03
  104440, -9.57091277e-04, -2.31062272e-03,  3.50000000e-03
  104441, -7.26001986e-04, -2.39330779e-03,  3.50000000e-03
  104442, -4.87920900e-04, -2.45294399e-03,  3.50000000e-03
  104443, -2.45140870e-04, -2.48895700e-03,  3.50000000e-03
  104444, -2.22133423e-19, -2.50100000e-03,  3.50000000e-03
  104445,  2.45140870e-04, -2.48895700e-03,  3.50000000e-03
  104446,  4.87920900e-04, -2.45294399e-03,  3.50000000e-03
  104447,  7.26001986e-04, -2.39330779e-03,  3.50000000e-03
  104448,  9.57091277e-04, -2.31062272e-03,  3.50000000e-03
  104449,  1.17896326e-03, -2.20568510e-03,  3.50000000e-03
  104450,  1.38948118e-03, -2.07950553e-03,  3.50000000e-03
  104451,  1.58661764e-03, -1.93329918e-03,  3.50000000e-03
  104452, -1.58661764e-03, -1.93329918e-03,  4.00000000e-03
  104453, -1.38948118e-03, -2.07950553e-03,  4.00000000e-03
  104454, -1.17896326e-03, -2.20568510e-03,  4.00000000e-03
  104455, -9.57091277e-04, -2.31062272e-03,  4.00000000e-03
  104456, -7.26001986e-04, -2.39330779e-03,  4.00000000e-03
  104457, -4.87920900e-04, -2.45294399e-03,  4.00000000e-03
  104458, -2.45140870e-04, -2.48895700e-03,  4.00000000e-03
  104459, -2.22133423e-19, -2.50100000e-03,  4.00000000e-03
  104460,  2.45140870e-04, -2.48895700e-03,  4.00000000e-03
  104461,  4.87920900e-04, -2.45294399e-03,  4.00000000e-03
  104462,  7.26001986e-04, -2.39330779e-03,  4.00000000e-03
  104463,  9.57091277e-04, -2.31062272e-03,  4.00000000e-03
  104464,  1.17896326e-03, -2.20568510e-03,  4.00000000e-03
  104465,  1.38948118e-03, -2.07950553e-03,  4.00000000e-03
  104466,  1.58661764e-03, -1.93329918e-03,  4.00000000e-03
  104467, -1.58661764e-03, -1.93329918e-03,  4.50000000e-03
  104468, -1.38948118e-03, -2.07950553e-03,  4.50000000e-03
  104469, -1.17896326e-03, -2.20568510e-03,  4.50000000e-03
  104470, -9.57091277e-04, -2.31062272e-03,  4.50000000e-03
  104471, -7.26001986e-04, -2.39330779e-03,  4.50000000e-03
  104472, -4.87920900e-04, -2.45294399e-03,  4.50000000e-03
  104473, -2.45140870e-04, -2.48895700e-03,  4.50000000e-03
  104474, -2.22133423e-19, -2.50100000e-03,  4.50000000e-03
  104475,  2.45140870e-04, -2.48895700e-03,  4.50000000e-03
  104476,  4.87920900e-04, -2.45294399e-03,  4.50000000e-03
  104477,  7.26001986e-04, -2.39330779e-03,  4.50000000e-03
  104478,  9.57091277e-04, -2.31062272e-03,  4.50000000e-03
  104479,  1.17896326e-03, -2.20568510e-03,  4.50000000e-03
  104480,  1.38948118e-03, -2.07950553e-03,  4.50000000e-03
  104481,  1.58661764e-03, -1.93329918e-03,  4.50000000e-03
  104482, -1.58661764e-03, -1.93329918e-03,  5.00000000e-03
  104483, -1.38948118e-03, -2.07950553e-03,  5.00000000e-03
  104484, -1.17896326e-03, -2.20568510e-03,  5.00000000e-03
  104485, -9.57091277e-04, -2.31062272e-03,  5.00000000e-03
  104486, -7.26001986e-04, -2.39330779e-03,  5.00000000e-03
  104487, -4.87920900e-04, -2.45294399e-03,  5.00000000e-03
  104488, -2.45140870e-04, -2.48895700e-03,  5.00000000e-03
  104489, -2.22133423e-19, -2.50100000e-03,  5.00000000e-03
  104490,  2.45140870e-04, -2.48895700e-03,  5.00000000e-03
  104491,  4.87920900e-04, -2.45294399e-03,  5.00000000e-03
  104492,  7.26001986e-04, -2.39330779e-03,  5.00000000e-03
  104493,  9.57091277e-04, -2.31062272e-03,  5.00000000e-03
  104494,  1.17896326e-03, -2.20568510e-03,  5.00000000e-03
  104495,  1.38948118e-03, -2.07950553e-03,  5.00000000e-03
  104496,  1.58661764e-03, -1.93329918e-03,  5.00000000e-03
  104497, -1.58661764e-03, -1.93329918e-03,  5.50000000e-03
  104498, -1.38948118e-03, -2.07950553e-03,  5.50000000e-03
  104499, -1.17896326e-03, -2.20568510e-03,  5.50000000e-03
  104500, -9.57091277e-04, -2.31062272e-03,  5.50000000e-03
  104501, -7.26001986e-04, -2.39330779e-03,  5.50000000e-03
  104502, -4.87920900e-04, -2.45294399e-03,  5.50000000e-03
  104503, -2.45140870e-04, -2.48895700e-03,  5.50000000e-03
  104504, -2.22133423e-19, -2.50100000e-03,  5.50000000e-03
  104505,  2.45140870e-04, -2.48895700e-03,  5.50000000e-03
  104506,  4.87920900e-04, -2.45294399e-03,  5.50000000e-03
  104507,  7.26001986e-04, -2.39330779e-03,  5.50000000e-03
  104508,  9.57091277e-04, -2.31062272e-03,  5.50000000e-03
  104509,  1.17896326e-03, -2.20568510e-03,  5.50000000e-03
  104510,  1.38948118e-03, -2.07950553e-03,  5.50000000e-03
  104511,  1.58661764e-03, -1.93329918e-03,  5.50000000e-03
  104512, -1.58661764e-03, -1.93329918e-03,  6.00000000e-03
  104513, -1.38948118e-03, -2.07950553e-03,  6.00000000e-03
  104514, -1.17896326e-03, -2.20568510e-03,  6.00000000e-03
  104515, -9.57091277e-04, -2.31062272e-03,  6.00000000e-03
  104516, -7.26001986e-04, -2.39330779e-03,  6.00000000e-03
  104517, -4.87920900e-04, -2.45294399e-03,  6.00000000e-03
  104518, -2.45140870e-04, -2.48895700e-03,  6.00000000e-03
  104519, -2.22133423e-19, -2.50100000e-03,  6.00000000e-03
  104520,  2.45140870e-04, -2.48895700e-03,  6.00000000e-03
  104521,  4.87920900e-04, -2.45294399e-03,  6.00000000e-03
  104522,  7.26001986e-04, -2.39330779e-03,  6.00000000e-03
  104523,  9.57091277e-04, -2.31062272e-03,  6.00000000e-03
  104524,  1.17896326e-03, -2.20568510e-03,  6.00000000e-03
  104525,  1.38948118e-03, -2.07950553e-03,  6.00000000e-03
  104526,  1.58661764e-03, -1.93329918e-03,  6.00000000e-03
  104527, -1.58661764e-03, -1.93329918e-03,  6.50000000e-03
  104528, -1.38948118e-03, -2.07950553e-03,  6.50000000e-03
  104529, -1.17896326e-03, -2.20568510e-03,  6.50000000e-03
  104530, -9.57091277e-04, -2.31062272e-03,  6.50000000e-03
  104531, -7.26001986e-04, -2.39330779e-03,  6.50000000e-03
  104532, -4.87920900e-04, -2.45294399e-03,  6.50000000e-03
  104533, -2.45140870e-04, -2.48895700e-03,  6.50000000e-03
  104534, -2.22133423e-19, -2.50100000e-03,  6.50000000e-03
  104535,  2.45140870e-04, -2.48895700e-03,  6.50000000e-03
  104536,  4.87920900e-04, -2.45294399e-03,  6.50000000e-03
  104537,  7.26001986e-04, -2.39330779e-03,  6.50000000e-03
  104538,  9.57091277e-04, -2.31062272e-03,  6.50000000e-03
  104539,  1.17896326e-03, -2.20568510e-03,  6.50000000e-03
  104540,  1.38948118e-03, -2.07950553e-03,  6.50000000e-03
  104541,  1.58661764e-03, -1.93329918e-03,  6.50000000e-03
  104542, -1.58661764e-03, -1.93329918e-03,  7.00000000e-03
  104543, -1.38948118e-03, -2.07950553e-03,  7.00000000e-03
  104544, -1.17896326e-03, -2.20568510e-03,  7.00000000e-03
  104545, -9.57091277e-04, -2.31062272e-03,  7.00000000e-03
  104546, -7.26001986e-04, -2.39330779e-03,  7.00000000e-03
  104547, -4.87920900e-04, -2.45294399e-03,  7.00000000e-03
  104548, -2.45140870e-04, -2.48895700e-03,  7.00000000e-03
  104549, -2.22133423e-19, -2.50100000e-03,  7.00000000e-03
  104550,  2.45140870e-04, -2.48895700e-03,  7.00000000e-03
  104551,  4.87920900e-04, -2.45294399e-03,  7.00000000e-03
  104552,  7.26001986e-04, -2.39330779e-03,  7.00000000e-03
  104553,  9.57091277e-04, -2.31062272e-03,  7.00000000e-03
  104554,  1.17896326e-03, -2.20568510e-03,  7.00000000e-03
  104555,  1.38948118e-03, -2.07950553e-03,  7.00000000e-03
  104556,  1.58661764e-03, -1.93329918e-03,  7.00000000e-03
  104557, -1.58661764e-03, -1.93329918e-03,  7.50000000e-03
  104558, -1.38948118e-03, -2.07950553e-03,  7.50000000e-03
  104559, -1.17896326e-03, -2.20568510e-03,  7.50000000e-03
  104560, -9.57091277e-04, -2.31062272e-03,  7.50000000e-03
  104561, -7.26001986e-04, -2.39330779e-03,  7.50000000e-03
  104562, -4.87920900e-04, -2.45294399e-03,  7.50000000e-03
  104563, -2.45140870e-04, -2.48895700e-03,  7.50000000e-03
  104564, -2.22133423e-19, -2.50100000e-03,  7.50000000e-03
  104565,  2.45140870e-04, -2.48895700e-03,  7.50000000e-03
  104566,  4.87920900e-04, -2.45294399e-03,  7.50000000e-03
  104567,  7.26001986e-04, -2.39330779e-03,  7.50000000e-03
  104568,  9.57091277e-04, -2.31062272e-03,  7.50000000e-03
  104569,  1.17896326e-03, -2.20568510e-03,  7.50000000e-03
  104570,  1.38948118e-03, -2.07950553e-03,  7.50000000e-03
  104571,  1.58661764e-03, -1.93329918e-03,  7.50000000e-03
  104572, -1.58661764e-03, -1.93329918e-03,  8.00000000e-03
  104573, -1.38948118e-03, -2.07950553e-03,  8.00000000e-03
  104574, -1.17896326e-03, -2.20568510e-03,  8.00000000e-03
  104575, -9.57091277e-04, -2.31062272e-03,  8.00000000e-03
  104576, -7.26001986e-04, -2.39330779e-03,  8.00000000e-03
  104577, -4.87920900e-04, -2.45294399e-03,  8.00000000e-03
  104578, -2.45140870e-04, -2.48895700e-03,  8.00000000e-03
  104579, -2.22133423e-19, -2.50100000e-03,  8.00000000e-03
  104580,  2.45140870e-04, -2.48895700e-03,  8.00000000e-03
  104581,  4.87920900e-04, -2.45294399e-03,  8.00000000e-03
  104582,  7.26001986e-04, -2.39330779e-03,  8.00000000e-03
  104583,  9.57091277e-04, -2.31062272e-03,  8.00000000e-03
  104584,  1.17896326e-03, -2.20568510e-03,  8.00000000e-03
  104585,  1.38948118e-03, -2.07950553e-03,  8.00000000e-03
  104586,  1.58661764e-03, -1.93329918e-03,  8.00000000e-03
  104587, -1.58661764e-03, -1.93329918e-03,  8.50000000e-03
  104588, -1.38948118e-03, -2.07950553e-03,  8.50000000e-03
  104589, -1.17896326e-03, -2.20568510e-03,  8.50000000e-03
  104590, -9.57091277e-04, -2.31062272e-03,  8.50000000e-03
  104591, -7.26001986e-04, -2.39330779e-03,  8.50000000e-03
  104592, -4.87920900e-04, -2.45294399e-03,  8.50000000e-03
  104593, -2.45140870e-04, -2.48895700e-03,  8.50000000e-03
  104594, -2.22133423e-19, -2.50100000e-03,  8.50000000e-03
  104595,  2.45140870e-04, -2.48895700e-03,  8.50000000e-03
  104596,  4.87920900e-04, -2.45294399e-03,  8.50000000e-03
  104597,  7.26001986e-04, -2.39330779e-03,  8.50000000e-03
  104598,  9.57091277e-04, -2.31062272e-03,  8.50000000e-03
  104599,  1.17896326e-03, -2.20568510e-03,  8.50000000e-03
  104600,  1.38948118e-03, -2.07950553e-03,  8.50000000e-03
  104601,  1.58661764e-03, -1.93329918e-03,  8.50000000e-03
  104602, -1.58661764e-03, -1.93329918e-03,  9.00000000e-03
  104603, -1.38948118e-03, -2.07950553e-03,  9.00000000e-03
  104604, -1.17896326e-03, -2.20568510e-03,  9.00000000e-03
  104605, -9.57091277e-04, -2.31062272e-03,  9.00000000e-03
  104606, -7.26001986e-04, -2.39330779e-03,  9.00000000e-03
  104607, -4.87920900e-04, -2.45294399e-03,  9.00000000e-03
  104608, -2.45140870e-04, -2.48895700e-03,  9.00000000e-03
  104609, -2.22133423e-19, -2.50100000e-03,  9.00000000e-03
  104610,  2.45140870e-04, -2.48895700e-03,  9.00000000e-03
  104611,  4.87920900e-04, -2.45294399e-03,  9.00000000e-03
  104612,  7.26001986e-04, -2.39330779e-03,  9.00000000e-03
  104613,  9.57091277e-04, -2.31062272e-03,  9.00000000e-03
  104614,  1.17896326e-03, -2.20568510e-03,  9.00000000e-03
  104615,  1.38948118e-03, -2.07950553e-03,  9.00000000e-03
  104616,  1.58661764e-03, -1.93329918e-03,  9.00000000e-03
  104617, -1.58661764e-03, -1.93329918e-03,  9.50000000e-03
  104618, -1.38948118e-03, -2.07950553e-03,  9.50000000e-03
  104619, -1.17896326e-03, -2.20568510e-03,  9.50000000e-03
  104620, -9.57091277e-04, -2.31062272e-03,  9.50000000e-03
  104621, -7.26001986e-04, -2.39330779e-03,  9.50000000e-03
  104622, -4.87920900e-04, -2.45294399e-03,  9.50000000e-03
  104623, -2.45140870e-04, -2.48895700e-03,  9.50000000e-03
  104624, -2.22133423e-19, -2.50100000e-03,  9.50000000e-03
  104625,  2.45140870e-04, -2.48895700e-03,  9.50000000e-03
  104626,  4.87920900e-04, -2.45294399e-03,  9.50000000e-03
  104627,  7.26001986e-04, -2.39330779e-03,  9.50000000e-03
  104628,  9.57091277e-04, -2.31062272e-03,  9.50000000e-03
  104629,  1.17896326e-03, -2.20568510e-03,  9.50000000e-03
  104630,  1.38948118e-03, -2.07950553e-03,  9.50000000e-03
  104631,  1.58661764e-03, -1.93329918e-03,  9.50000000e-03
  104632, -1.58661764e-03, -1.93329918e-03,  1.00000000e-02
  104633, -1.38948118e-03, -2.07950553e-03,  1.00000000e-02
  104634, -1.17896326e-03, -2.20568510e-03,  1.00000000e-02
  104635, -9.57091277e-04, -2.31062272e-03,  1.00000000e-02
  104636, -7.26001986e-04, -2.39330779e-03,  1.00000000e-02
  104637, -4.87920900e-04, -2.45294399e-03,  1.00000000e-02
  104638, -2.45140870e-04, -2.48895700e-03,  1.00000000e-02
  104639, -2.22133423e-19, -2.50100000e-03,  1.00000000e-02
  104640,  2.45140870e-04, -2.48895700e-03,  1.00000000e-02
  104641,  4.87920900e-04, -2.45294399e-03,  1.00000000e-02
  104642,  7.26001986e-04, -2.39330779e-03,  1.00000000e-02
  104643,  9.57091277e-04, -2.31062272e-03,  1.00000000e-02
  104644,  1.17896326e-03, -2.20568510e-03,  1.00000000e-02
  104645,  1.38948118e-03, -2.07950553e-03,  1.00000000e-02
  104646,  1.58661764e-03, -1.93329918e-03,  1.00000000e-02
  104647, -1.58661764e-03, -1.93329918e-03,  1.05000000e-02
  104648, -1.38948118e-03, -2.07950553e-03,  1.05000000e-02
  104649, -1.17896326e-03, -2.20568510e-03,  1.05000000e-02
  104650, -9.57091277e-04, -2.31062272e-03,  1.05000000e-02
  104651, -7.26001986e-04, -2.39330779e-03,  1.05000000e-02
  104652, -4.87920900e-04, -2.45294399e-03,  1.05000000e-02
  104653, -2.45140870e-04, -2.48895700e-03,  1.05000000e-02
  104654, -2.22133423e-19, -2.50100000e-03,  1.05000000e-02
  104655,  2.45140870e-04, -2.48895700e-03,  1.05000000e-02
  104656,  4.87920900e-04, -2.45294399e-03,  1.05000000e-02
  104657,  7.26001986e-04, -2.39330779e-03,  1.05000000e-02
  104658,  9.57091277e-04, -2.31062272e-03,  1.05000000e-02
  104659,  1.17896326e-03, -2.20568510e-03,  1.05000000e-02
  104660,  1.38948118e-03, -2.07950553e-03,  1.05000000e-02
  104661,  1.58661764e-03, -1.93329918e-03,  1.05000000e-02
  104662, -1.58661764e-03, -1.93329918e-03,  1.10000000e-02
  104663, -1.38948118e-03, -2.07950553e-03,  1.10000000e-02
  104664, -1.17896326e-03, -2.20568510e-03,  1.10000000e-02
  104665, -9.57091277e-04, -2.31062272e-03,  1.10000000e-02
  104666, -7.26001986e-04, -2.39330779e-03,  1.10000000e-02
  104667, -4.87920900e-04, -2.45294399e-03,  1.10000000e-02
  104668, -2.45140870e-04, -2.48895700e-03,  1.10000000e-02
  104669, -2.22133423e-19, -2.50100000e-03,  1.10000000e-02
  104670,  2.45140870e-04, -2.48895700e-03,  1.10000000e-02
  104671,  4.87920900e-04, -2.45294399e-03,  1.10000000e-02
  104672,  7.26001986e-04, -2.39330779e-03,  1.10000000e-02
  104673,  9.57091277e-04, -2.31062272e-03,  1.10000000e-02
  104674,  1.17896326e-03, -2.20568510e-03,  1.10000000e-02
  104675,  1.38948118e-03, -2.07950553e-03,  1.10000000e-02
  104676,  1.58661764e-03, -1.93329918e-03,  1.10000000e-02
  104677, -1.58661764e-03, -1.93329918e-03,  1.15000000e-02
  104678, -1.38948118e-03, -2.07950553e-03,  1.15000000e-02
  104679, -1.17896326e-03, -2.20568510e-03,  1.15000000e-02
  104680, -9.57091277e-04, -2.31062272e-03,  1.15000000e-02
  104681, -7.26001986e-04, -2.39330779e-03,  1.15000000e-02
  104682, -4.87920900e-04, -2.45294399e-03,  1.15000000e-02
  104683, -2.45140870e-04, -2.48895700e-03,  1.15000000e-02
  104684, -2.22133423e-19, -2.50100000e-03,  1.15000000e-02
  104685,  2.45140870e-04, -2.48895700e-03,  1.15000000e-02
  104686,  4.87920900e-04, -2.45294399e-03,  1.15000000e-02
  104687,  7.26001986e-04, -2.39330779e-03,  1.15000000e-02
  104688,  9.57091277e-04, -2.31062272e-03,  1.15000000e-02
  104689,  1.17896326e-03, -2.20568510e-03,  1.15000000e-02
  104690,  1.38948118e-03, -2.07950553e-03,  1.15000000e-02
  104691,  1.58661764e-03, -1.93329918e-03,  1.15000000e-02
  104692, -1.58661764e-03, -1.93329918e-03,  1.20000000e-02
  104693, -1.38948118e-03, -2.07950553e-03,  1.20000000e-02
  104694, -1.17896326e-03, -2.20568510e-03,  1.20000000e-02
  104695, -9.57091277e-04, -2.31062272e-03,  1.20000000e-02
  104696, -7.26001986e-04, -2.39330779e-03,  1.20000000e-02
  104697, -4.87920900e-04, -2.45294399e-03,  1.20000000e-02
  104698, -2.45140870e-04, -2.48895700e-03,  1.20000000e-02
  104699, -2.22133423e-19, -2.50100000e-03,  1.20000000e-02
  104700,  2.45140870e-04, -2.48895700e-03,  1.20000000e-02
  104701,  4.87920900e-04, -2.45294399e-03,  1.20000000e-02
  104702,  7.26001986e-04, -2.39330779e-03,  1.20000000e-02
  104703,  9.57091277e-04, -2.31062272e-03,  1.20000000e-02
  104704,  1.17896326e-03, -2.20568510e-03,  1.20000000e-02
  104705,  1.38948118e-03, -2.07950553e-03,  1.20000000e-02
  104706,  1.58661764e-03, -1.93329918e-03,  1.20000000e-02
  104707, -1.58661764e-03, -1.93329918e-03,  1.25000000e-02
  104708, -1.38948118e-03, -2.07950553e-03,  1.25000000e-02
  104709, -1.17896326e-03, -2.20568510e-03,  1.25000000e-02
  104710, -9.57091277e-04, -2.31062272e-03,  1.25000000e-02
  104711, -7.26001986e-04, -2.39330779e-03,  1.25000000e-02
  104712, -4.87920900e-04, -2.45294399e-03,  1.25000000e-02
  104713, -2.45140870e-04, -2.48895700e-03,  1.25000000e-02
  104714, -2.22133423e-19, -2.50100000e-03,  1.25000000e-02
  104715,  2.45140870e-04, -2.48895700e-03,  1.25000000e-02
  104716,  4.87920900e-04, -2.45294399e-03,  1.25000000e-02
  104717,  7.26001986e-04, -2.39330779e-03,  1.25000000e-02
  104718,  9.57091277e-04, -2.31062272e-03,  1.25000000e-02
  104719,  1.17896326e-03, -2.20568510e-03,  1.25000000e-02
  104720,  1.38948118e-03, -2.07950553e-03,  1.25000000e-02
  104721,  1.58661764e-03, -1.93329918e-03,  1.25000000e-02
  104722, -1.58661764e-03, -1.93329918e-03,  1.30000000e-02
  104723, -1.38948118e-03, -2.07950553e-03,  1.30000000e-02
  104724, -1.17896326e-03, -2.20568510e-03,  1.30000000e-02
  104725, -9.57091277e-04, -2.31062272e-03,  1.30000000e-02
  104726, -7.26001986e-04, -2.39330779e-03,  1.30000000e-02
  104727, -4.87920900e-04, -2.45294399e-03,  1.30000000e-02
  104728, -2.45140870e-04, -2.48895700e-03,  1.30000000e-02
  104729, -2.22133423e-19, -2.50100000e-03,  1.30000000e-02
  104730,  2.45140870e-04, -2.48895700e-03,  1.30000000e-02
  104731,  4.87920900e-04, -2.45294399e-03,  1.30000000e-02
  104732,  7.26001986e-04, -2.39330779e-03,  1.30000000e-02
  104733,  9.57091277e-04, -2.31062272e-03,  1.30000000e-02
  104734,  1.17896326e-03, -2.20568510e-03,  1.30000000e-02
  104735,  1.38948118e-03, -2.07950553e-03,  1.30000000e-02
  104736,  1.58661764e-03, -1.93329918e-03,  1.30000000e-02
  104737, -1.58661764e-03, -1.93329918e-03,  1.35000000e-02
  104738, -1.38948118e-03, -2.07950553e-03,  1.35000000e-02
  104739, -1.17896326e-03, -2.20568510e-03,  1.35000000e-02
  104740, -9.57091277e-04, -2.31062272e-03,  1.35000000e-02
  104741, -7.26001986e-04, -2.39330779e-03,  1.35000000e-02
  104742, -4.87920900e-04, -2.45294399e-03,  1.35000000e-02
  104743, -2.45140870e-04, -2.48895700e-03,  1.35000000e-02
  104744, -2.22133423e-19, -2.50100000e-03,  1.35000000e-02
  104745,  2.45140870e-04, -2.48895700e-03,  1.35000000e-02
  104746,  4.87920900e-04, -2.45294399e-03,  1.35000000e-02
  104747,  7.26001986e-04, -2.39330779e-03,  1.35000000e-02
  104748,  9.57091277e-04, -2.31062272e-03,  1.35000000e-02
  104749,  1.17896326e-03, -2.20568510e-03,  1.35000000e-02
  104750,  1.38948118e-03, -2.07950553e-03,  1.35000000e-02
  104751,  1.58661764e-03, -1.93329918e-03,  1.35000000e-02
  104752, -1.58661764e-03, -1.93329918e-03,  1.40000000e-02
  104753, -1.38948118e-03, -2.07950553e-03,  1.40000000e-02
  104754, -1.17896326e-03, -2.20568510e-03,  1.40000000e-02
  104755, -9.57091277e-04, -2.31062272e-03,  1.40000000e-02
  104756, -7.26001986e-04, -2.39330779e-03,  1.40000000e-02
  104757, -4.87920900e-04, -2.45294399e-03,  1.40000000e-02
  104758, -2.45140870e-04, -2.48895700e-03,  1.40000000e-02
  104759, -2.22133423e-19, -2.50100000e-03,  1.40000000e-02
  104760,  2.45140870e-04, -2.48895700e-03,  1.40000000e-02
  104761,  4.87920900e-04, -2.45294399e-03,  1.40000000e-02
  104762,  7.26001986e-04, -2.39330779e-03,  1.40000000e-02
  104763,  9.57091277e-04, -2.31062272e-03,  1.40000000e-02
  104764,  1.17896326e-03, -2.20568510e-03,  1.40000000e-02
  104765,  1.38948118e-03, -2.07950553e-03,  1.40000000e-02
  104766,  1.58661764e-03, -1.93329918e-03,  1.40000000e-02
  104767, -1.58661764e-03, -1.93329918e-03,  1.45000000e-02
  104768, -1.38948118e-03, -2.07950553e-03,  1.45000000e-02
  104769, -1.17896326e-03, -2.20568510e-03,  1.45000000e-02
  104770, -9.57091277e-04, -2.31062272e-03,  1.45000000e-02
  104771, -7.26001986e-04, -2.39330779e-03,  1.45000000e-02
  104772, -4.87920900e-04, -2.45294399e-03,  1.45000000e-02
  104773, -2.45140870e-04, -2.48895700e-03,  1.45000000e-02
  104774, -2.22133423e-19, -2.50100000e-03,  1.45000000e-02
  104775,  2.45140870e-04, -2.48895700e-03,  1.45000000e-02
  104776,  4.87920900e-04, -2.45294399e-03,  1.45000000e-02
  104777,  7.26001986e-04, -2.39330779e-03,  1.45000000e-02
  104778,  9.57091277e-04, -2.31062272e-03,  1.45000000e-02
  104779,  1.17896326e-03, -2.20568510e-03,  1.45000000e-02
  104780,  1.38948118e-03, -2.07950553e-03,  1.45000000e-02
  104781,  1.58661764e-03, -1.93329918e-03,  1.45000000e-02
  104782, -1.58661764e-03, -1.93329918e-03,  1.50000000e-02
  104783, -1.38948118e-03, -2.07950553e-03,  1.50000000e-02
  104784, -1.17896326e-03, -2.20568510e-03,  1.50000000e-02
  104785, -9.57091277e-04, -2.31062272e-03,  1.50000000e-02
  104786, -7.26001986e-04, -2.39330779e-03,  1.50000000e-02
  104787, -4.87920900e-04, -2.45294399e-03,  1.50000000e-02
  104788, -2.45140870e-04, -2.48895700e-03,  1.50000000e-02
  104789, -2.22133423e-19, -2.50100000e-03,  1.50000000e-02
  104790,  2.45140870e-04, -2.48895700e-03,  1.50000000e-02
  104791,  4.87920900e-04, -2.45294399e-03,  1.50000000e-02
  104792,  7.26001986e-04, -2.39330779e-03,  1.50000000e-02
  104793,  9.57091277e-04, -2.31062272e-03,  1.50000000e-02
  104794,  1.17896326e-03, -2.20568510e-03,  1.50000000e-02
  104795,  1.38948118e-03, -2.07950553e-03,  1.50000000e-02
  104796,  1.58661764e-03, -1.93329918e-03,  1.50000000e-02
  104797, -1.58661764e-03, -1.93329918e-03,  1.55000000e-02
  104798, -1.38948118e-03, -2.07950553e-03,  1.55000000e-02
  104799, -1.17896326e-03, -2.20568510e-03,  1.55000000e-02
  104800, -9.57091277e-04, -2.31062272e-03,  1.55000000e-02
  104801, -7.26001986e-04, -2.39330779e-03,  1.55000000e-02
  104802, -4.87920900e-04, -2.45294399e-03,  1.55000000e-02
  104803, -2.45140870e-04, -2.48895700e-03,  1.55000000e-02
  104804, -2.22133423e-19, -2.50100000e-03,  1.55000000e-02
  104805,  2.45140870e-04, -2.48895700e-03,  1.55000000e-02
  104806,  4.87920900e-04, -2.45294399e-03,  1.55000000e-02
  104807,  7.26001986e-04, -2.39330779e-03,  1.55000000e-02
  104808,  9.57091277e-04, -2.31062272e-03,  1.55000000e-02
  104809,  1.17896326e-03, -2.20568510e-03,  1.55000000e-02
  104810,  1.38948118e-03, -2.07950553e-03,  1.55000000e-02
  104811,  1.58661764e-03, -1.93329918e-03,  1.55000000e-02
  104812, -1.58661764e-03, -1.93329918e-03,  1.60000000e-02
  104813, -1.38948118e-03, -2.07950553e-03,  1.60000000e-02
  104814, -1.17896326e-03, -2.20568510e-03,  1.60000000e-02
  104815, -9.57091277e-04, -2.31062272e-03,  1.60000000e-02
  104816, -7.26001986e-04, -2.39330779e-03,  1.60000000e-02
  104817, -4.87920900e-04, -2.45294399e-03,  1.60000000e-02
  104818, -2.45140870e-04, -2.48895700e-03,  1.60000000e-02
  104819, -2.22133423e-19, -2.50100000e-03,  1.60000000e-02
  104820,  2.45140870e-04, -2.48895700e-03,  1.60000000e-02
  104821,  4.87920900e-04, -2.45294399e-03,  1.60000000e-02
  104822,  7.26001986e-04, -2.39330779e-03,  1.60000000e-02
  104823,  9.57091277e-04, -2.31062272e-03,  1.60000000e-02
  104824,  1.17896326e-03, -2.20568510e-03,  1.60000000e-02
  104825,  1.38948118e-03, -2.07950553e-03,  1.60000000e-02
  104826,  1.58661764e-03, -1.93329918e-03,  1.60000000e-02
  104827, -1.58661764e-03, -1.93329918e-03,  1.65000000e-02
  104828, -1.38948118e-03, -2.07950553e-03,  1.65000000e-02
  104829, -1.17896326e-03, -2.20568510e-03,  1.65000000e-02
  104830, -9.57091277e-04, -2.31062272e-03,  1.65000000e-02
  104831, -7.26001986e-04, -2.39330779e-03,  1.65000000e-02
  104832, -4.87920900e-04, -2.45294399e-03,  1.65000000e-02
  104833, -2.45140870e-04, -2.48895700e-03,  1.65000000e-02
  104834, -2.22133423e-19, -2.50100000e-03,  1.65000000e-02
  104835,  2.45140870e-04, -2.48895700e-03,  1.65000000e-02
  104836,  4.87920900e-04, -2.45294399e-03,  1.65000000e-02
  104837,  7.26001986e-04, -2.39330779e-03,  1.65000000e-02
  104838,  9.57091277e-04, -2.31062272e-03,  1.65000000e-02
  104839,  1.17896326e-03, -2.20568510e-03,  1.65000000e-02
  104840,  1.38948118e-03, -2.07950553e-03,  1.65000000e-02
  104841,  1.58661764e-03, -1.93329918e-03,  1.65000000e-02
  104842, -1.58661764e-03, -1.93329918e-03,  1.70000000e-02
  104843, -1.38948118e-03, -2.07950553e-03,  1.70000000e-02
  104844, -1.17896326e-03, -2.20568510e-03,  1.70000000e-02
  104845, -9.57091277e-04, -2.31062272e-03,  1.70000000e-02
  104846, -7.26001986e-04, -2.39330779e-03,  1.70000000e-02
  104847, -4.87920900e-04, -2.45294399e-03,  1.70000000e-02
  104848, -2.45140870e-04, -2.48895700e-03,  1.70000000e-02
  104849, -2.22133423e-19, -2.50100000e-03,  1.70000000e-02
  104850,  2.45140870e-04, -2.48895700e-03,  1.70000000e-02
  104851,  4.87920900e-04, -2.45294399e-03,  1.70000000e-02
  104852,  7.26001986e-04, -2.39330779e-03,  1.70000000e-02
  104853,  9.57091277e-04, -2.31062272e-03,  1.70000000e-02
  104854,  1.17896326e-03, -2.20568510e-03,  1.70000000e-02
  104855,  1.38948118e-03, -2.07950553e-03,  1.70000000e-02
  104856,  1.58661764e-03, -1.93329918e-03,  1.70000000e-02
  104857, -1.58661764e-03, -1.93329918e-03,  1.75000000e-02
  104858, -1.38948118e-03, -2.07950553e-03,  1.75000000e-02
  104859, -1.17896326e-03, -2.20568510e-03,  1.75000000e-02
  104860, -9.57091277e-04, -2.31062272e-03,  1.75000000e-02
  104861, -7.26001986e-04, -2.39330779e-03,  1.75000000e-02
  104862, -4.87920900e-04, -2.45294399e-03,  1.75000000e-02
  104863, -2.45140870e-04, -2.48895700e-03,  1.75000000e-02
  104864, -2.22133423e-19, -2.50100000e-03,  1.75000000e-02
  104865,  2.45140870e-04, -2.48895700e-03,  1.75000000e-02
  104866,  4.87920900e-04, -2.45294399e-03,  1.75000000e-02
  104867,  7.26001986e-04, -2.39330779e-03,  1.75000000e-02
  104868,  9.57091277e-04, -2.31062272e-03,  1.75000000e-02
  104869,  1.17896326e-03, -2.20568510e-03,  1.75000000e-02
  104870,  1.38948118e-03, -2.07950553e-03,  1.75000000e-02
  104871,  1.58661764e-03, -1.93329918e-03,  1.75000000e-02
  104872, -1.58661764e-03, -1.93329918e-03,  1.80000000e-02
  104873, -1.38948118e-03, -2.07950553e-03,  1.80000000e-02
  104874, -1.17896326e-03, -2.20568510e-03,  1.80000000e-02
  104875, -9.57091277e-04, -2.31062272e-03,  1.80000000e-02
  104876, -7.26001986e-04, -2.39330779e-03,  1.80000000e-02
  104877, -4.87920900e-04, -2.45294399e-03,  1.80000000e-02
  104878, -2.45140870e-04, -2.48895700e-03,  1.80000000e-02
  104879, -2.22133423e-19, -2.50100000e-03,  1.80000000e-02
  104880,  2.45140870e-04, -2.48895700e-03,  1.80000000e-02
  104881,  4.87920900e-04, -2.45294399e-03,  1.80000000e-02
  104882,  7.26001986e-04, -2.39330779e-03,  1.80000000e-02
  104883,  9.57091277e-04, -2.31062272e-03,  1.80000000e-02
  104884,  1.17896326e-03, -2.20568510e-03,  1.80000000e-02
  104885,  1.38948118e-03, -2.07950553e-03,  1.80000000e-02
  104886,  1.58661764e-03, -1.93329918e-03,  1.80000000e-02
  104887, -1.58661764e-03, -1.93329918e-03,  1.85000000e-02
  104888, -1.38948118e-03, -2.07950553e-03,  1.85000000e-02
  104889, -1.17896326e-03, -2.20568510e-03,  1.85000000e-02
  104890, -9.57091277e-04, -2.31062272e-03,  1.85000000e-02
  104891, -7.26001986e-04, -2.39330779e-03,  1.85000000e-02
  104892, -4.87920900e-04, -2.45294399e-03,  1.85000000e-02
  104893, -2.45140870e-04, -2.48895700e-03,  1.85000000e-02
  104894, -2.22133423e-19, -2.50100000e-03,  1.85000000e-02
  104895,  2.45140870e-04, -2.48895700e-03,  1.85000000e-02
  104896,  4.87920900e-04, -2.45294399e-03,  1.85000000e-02
  104897,  7.26001986e-04, -2.39330779e-03,  1.85000000e-02
  104898,  9.57091277e-04, -2.31062272e-03,  1.85000000e-02
  104899,  1.17896326e-03, -2.20568510e-03,  1.85000000e-02
  104900,  1.38948118e-03, -2.07950553e-03,  1.85000000e-02
  104901,  1.58661764e-03, -1.93329918e-03,  1.85000000e-02
  104902, -1.58661764e-03, -1.93329918e-03,  1.90000000e-02
  104903, -1.38948118e-03, -2.07950553e-03,  1.90000000e-02
  104904, -1.17896326e-03, -2.20568510e-03,  1.90000000e-02
  104905, -9.57091277e-04, -2.31062272e-03,  1.90000000e-02
  104906, -7.26001986e-04, -2.39330779e-03,  1.90000000e-02
  104907, -4.87920900e-04, -2.45294399e-03,  1.90000000e-02
  104908, -2.45140870e-04, -2.48895700e-03,  1.90000000e-02
  104909, -2.22133423e-19, -2.50100000e-03,  1.90000000e-02
  104910,  2.45140870e-04, -2.48895700e-03,  1.90000000e-02
  104911,  4.87920900e-04, -2.45294399e-03,  1.90000000e-02
  104912,  7.26001986e-04, -2.39330779e-03,  1.90000000e-02
  104913,  9.57091277e-04, -2.31062272e-03,  1.90000000e-02
  104914,  1.17896326e-03, -2.20568510e-03,  1.90000000e-02
  104915,  1.38948118e-03, -2.07950553e-03,  1.90000000e-02
  104916,  1.58661764e-03, -1.93329918e-03,  1.90000000e-02
  104917, -1.58661764e-03, -1.93329918e-03,  1.95000000e-02
  104918, -1.38948118e-03, -2.07950553e-03,  1.95000000e-02
  104919, -1.17896326e-03, -2.20568510e-03,  1.95000000e-02
  104920, -9.57091277e-04, -2.31062272e-03,  1.95000000e-02
  104921, -7.26001986e-04, -2.39330779e-03,  1.95000000e-02
  104922, -4.87920900e-04, -2.45294399e-03,  1.95000000e-02
  104923, -2.45140870e-04, -2.48895700e-03,  1.95000000e-02
  104924, -2.22133423e-19, -2.50100000e-03,  1.95000000e-02
  104925,  2.45140870e-04, -2.48895700e-03,  1.95000000e-02
  104926,  4.87920900e-04, -2.45294399e-03,  1.95000000e-02
  104927,  7.26001986e-04, -2.39330779e-03,  1.95000000e-02
  104928,  9.57091277e-04, -2.31062272e-03,  1.95000000e-02
  104929,  1.17896326e-03, -2.20568510e-03,  1.95000000e-02
  104930,  1.38948118e-03, -2.07950553e-03,  1.95000000e-02
  104931,  1.58661764e-03, -1.93329918e-03,  1.95000000e-02
  104932, -1.58661764e-03, -1.93329918e-03,  2.00000000e-02
  104933, -1.38948118e-03, -2.07950553e-03,  2.00000000e-02
  104934, -1.17896326e-03, -2.20568510e-03,  2.00000000e-02
  104935, -9.57091277e-04, -2.31062272e-03,  2.00000000e-02
  104936, -7.26001986e-04, -2.39330779e-03,  2.00000000e-02
  104937, -4.87920900e-04, -2.45294399e-03,  2.00000000e-02
  104938, -2.45140870e-04, -2.48895700e-03,  2.00000000e-02
  104939, -2.22133423e-19, -2.50100000e-03,  2.00000000e-02
  104940,  2.45140870e-04, -2.48895700e-03,  2.00000000e-02
  104941,  4.87920900e-04, -2.45294399e-03,  2.00000000e-02
  104942,  7.26001986e-04, -2.39330779e-03,  2.00000000e-02
  104943,  9.57091277e-04, -2.31062272e-03,  2.00000000e-02
  104944,  1.17896326e-03, -2.20568510e-03,  2.00000000e-02
  104945,  1.38948118e-03, -2.07950553e-03,  2.00000000e-02
  104946,  1.58661764e-03, -1.93329918e-03,  2.00000000e-02
  104947, -1.58661764e-03, -1.93329918e-03,  2.05000000e-02
  104948, -1.38948118e-03, -2.07950553e-03,  2.05000000e-02
  104949, -1.17896326e-03, -2.20568510e-03,  2.05000000e-02
  104950, -9.57091277e-04, -2.31062272e-03,  2.05000000e-02
  104951, -7.26001986e-04, -2.39330779e-03,  2.05000000e-02
  104952, -4.87920900e-04, -2.45294399e-03,  2.05000000e-02
  104953, -2.45140870e-04, -2.48895700e-03,  2.05000000e-02
  104954, -2.22133423e-19, -2.50100000e-03,  2.05000000e-02
  104955,  2.45140870e-04, -2.48895700e-03,  2.05000000e-02
  104956,  4.87920900e-04, -2.45294399e-03,  2.05000000e-02
  104957,  7.26001986e-04, -2.39330779e-03,  2.05000000e-02
  104958,  9.57091277e-04, -2.31062272e-03,  2.05000000e-02
  104959,  1.17896326e-03, -2.20568510e-03,  2.05000000e-02
  104960,  1.38948118e-03, -2.07950553e-03,  2.05000000e-02
  104961,  1.58661764e-03, -1.93329918e-03,  2.05000000e-02
  104962, -1.58661764e-03, -1.93329918e-03,  2.10000000e-02
  104963, -1.38948118e-03, -2.07950553e-03,  2.10000000e-02
  104964, -1.17896326e-03, -2.20568510e-03,  2.10000000e-02
  104965, -9.57091277e-04, -2.31062272e-03,  2.10000000e-02
  104966, -7.26001986e-04, -2.39330779e-03,  2.10000000e-02
  104967, -4.87920900e-04, -2.45294399e-03,  2.10000000e-02
  104968, -2.45140870e-04, -2.48895700e-03,  2.10000000e-02
  104969, -2.22133423e-19, -2.50100000e-03,  2.10000000e-02
  104970,  2.45140870e-04, -2.48895700e-03,  2.10000000e-02
  104971,  4.87920900e-04, -2.45294399e-03,  2.10000000e-02
  104972,  7.26001986e-04, -2.39330779e-03,  2.10000000e-02
  104973,  9.57091277e-04, -2.31062272e-03,  2.10000000e-02
  104974,  1.17896326e-03, -2.20568510e-03,  2.10000000e-02
  104975,  1.38948118e-03, -2.07950553e-03,  2.10000000e-02
  104976,  1.58661764e-03, -1.93329918e-03,  2.10000000e-02
  104977, -1.58661764e-03, -1.93329918e-03,  2.15000000e-02
  104978, -1.38948118e-03, -2.07950553e-03,  2.15000000e-02
  104979, -1.17896326e-03, -2.20568510e-03,  2.15000000e-02
  104980, -9.57091277e-04, -2.31062272e-03,  2.15000000e-02
  104981, -7.26001986e-04, -2.39330779e-03,  2.15000000e-02
  104982, -4.87920900e-04, -2.45294399e-03,  2.15000000e-02
  104983, -2.45140870e-04, -2.48895700e-03,  2.15000000e-02
  104984, -2.22133423e-19, -2.50100000e-03,  2.15000000e-02
  104985,  2.45140870e-04, -2.48895700e-03,  2.15000000e-02
  104986,  4.87920900e-04, -2.45294399e-03,  2.15000000e-02
  104987,  7.26001986e-04, -2.39330779e-03,  2.15000000e-02
  104988,  9.57091277e-04, -2.31062272e-03,  2.15000000e-02
  104989,  1.17896326e-03, -2.20568510e-03,  2.15000000e-02
  104990,  1.38948118e-03, -2.07950553e-03,  2.15000000e-02
  104991,  1.58661764e-03, -1.93329918e-03,  2.15000000e-02
  104992, -1.58661764e-03, -1.93329918e-03,  2.20000000e-02
  104993, -1.38948118e-03, -2.07950553e-03,  2.20000000e-02
  104994, -1.17896326e-03, -2.20568510e-03,  2.20000000e-02
  104995, -9.57091277e-04, -2.31062272e-03,  2.20000000e-02
  104996, -7.26001986e-04, -2.39330779e-03,  2.20000000e-02
  104997, -4.87920900e-04, -2.45294399e-03,  2.20000000e-02
  104998, -2.45140870e-04, -2.48895700e-03,  2.20000000e-02
  104999, -2.22133423e-19, -2.50100000e-03,  2.20000000e-02
  105000,  2.45140870e-04, -2.48895700e-03,  2.20000000e-02
  105001,  4.87920900e-04, -2.45294399e-03,  2.20000000e-02
  105002,  7.26001986e-04, -2.39330779e-03,  2.20000000e-02
  105003,  9.57091277e-04, -2.31062272e-03,  2.20000000e-02
  105004,  1.17896326e-03, -2.20568510e-03,  2.20000000e-02
  105005,  1.38948118e-03, -2.07950553e-03,  2.20000000e-02
  105006,  1.58661764e-03, -1.93329918e-03,  2.20000000e-02
  105007, -1.58661764e-03, -1.93329918e-03,  2.25000000e-02
  105008, -1.38948118e-03, -2.07950553e-03,  2.25000000e-02
  105009, -1.17896326e-03, -2.20568510e-03,  2.25000000e-02
  105010, -9.57091277e-04, -2.31062272e-03,  2.25000000e-02
  105011, -7.26001986e-04, -2.39330779e-03,  2.25000000e-02
  105012, -4.87920900e-04, -2.45294399e-03,  2.25000000e-02
  105013, -2.45140870e-04, -2.48895700e-03,  2.25000000e-02
  105014, -2.22133423e-19, -2.50100000e-03,  2.25000000e-02
  105015,  2.45140870e-04, -2.48895700e-03,  2.25000000e-02
  105016,  4.87920900e-04, -2.45294399e-03,  2.25000000e-02
  105017,  7.26001986e-04, -2.39330779e-03,  2.25000000e-02
  105018,  9.57091277e-04, -2.31062272e-03,  2.25000000e-02
  105019,  1.17896326e-03, -2.20568510e-03,  2.25000000e-02
  105020,  1.38948118e-03, -2.07950553e-03,  2.25000000e-02
  105021,  1.58661764e-03, -1.93329918e-03,  2.25000000e-02
  105022, -1.58661764e-03, -1.93329918e-03,  2.30000000e-02
  105023, -1.38948118e-03, -2.07950553e-03,  2.30000000e-02
  105024, -1.17896326e-03, -2.20568510e-03,  2.30000000e-02
  105025, -9.57091277e-04, -2.31062272e-03,  2.30000000e-02
  105026, -7.26001986e-04, -2.39330779e-03,  2.30000000e-02
  105027, -4.87920900e-04, -2.45294399e-03,  2.30000000e-02
  105028, -2.45140870e-04, -2.48895700e-03,  2.30000000e-02
  105029, -2.22133423e-19, -2.50100000e-03,  2.30000000e-02
  105030,  2.45140870e-04, -2.48895700e-03,  2.30000000e-02
  105031,  4.87920900e-04, -2.45294399e-03,  2.30000000e-02
  105032,  7.26001986e-04, -2.39330779e-03,  2.30000000e-02
  105033,  9.57091277e-04, -2.31062272e-03,  2.30000000e-02
  105034,  1.17896326e-03, -2.20568510e-03,  2.30000000e-02
  105035,  1.38948118e-03, -2.07950553e-03,  2.30000000e-02
  105036,  1.58661764e-03, -1.93329918e-03,  2.30000000e-02
  105037, -1.58661764e-03, -1.93329918e-03,  2.35000000e-02
  105038, -1.38948118e-03, -2.07950553e-03,  2.35000000e-02
  105039, -1.17896326e-03, -2.20568510e-03,  2.35000000e-02
  105040, -9.57091277e-04, -2.31062272e-03,  2.35000000e-02
  105041, -7.26001986e-04, -2.39330779e-03,  2.35000000e-02
  105042, -4.87920900e-04, -2.45294399e-03,  2.35000000e-02
  105043, -2.45140870e-04, -2.48895700e-03,  2.35000000e-02
  105044, -2.22133423e-19, -2.50100000e-03,  2.35000000e-02
  105045,  2.45140870e-04, -2.48895700e-03,  2.35000000e-02
  105046,  4.87920900e-04, -2.45294399e-03,  2.35000000e-02
  105047,  7.26001986e-04, -2.39330779e-03,  2.35000000e-02
  105048,  9.57091277e-04, -2.31062272e-03,  2.35000000e-02
  105049,  1.17896326e-03, -2.20568510e-03,  2.35000000e-02
  105050,  1.38948118e-03, -2.07950553e-03,  2.35000000e-02
  105051,  1.58661764e-03, -1.93329918e-03,  2.35000000e-02
  105052, -1.58661764e-03, -1.93329918e-03,  2.40000000e-02
  105053, -1.38948118e-03, -2.07950553e-03,  2.40000000e-02
  105054, -1.17896326e-03, -2.20568510e-03,  2.40000000e-02
  105055, -9.57091277e-04, -2.31062272e-03,  2.40000000e-02
  105056, -7.26001986e-04, -2.39330779e-03,  2.40000000e-02
  105057, -4.87920900e-04, -2.45294399e-03,  2.40000000e-02
  105058, -2.45140870e-04, -2.48895700e-03,  2.40000000e-02
  105059, -2.22133423e-19, -2.50100000e-03,  2.40000000e-02
  105060,  2.45140870e-04, -2.48895700e-03,  2.40000000e-02
  105061,  4.87920900e-04, -2.45294399e-03,  2.40000000e-02
  105062,  7.26001986e-04, -2.39330779e-03,  2.40000000e-02
  105063,  9.57091277e-04, -2.31062272e-03,  2.40000000e-02
  105064,  1.17896326e-03, -2.20568510e-03,  2.40000000e-02
  105065,  1.38948118e-03, -2.07950553e-03,  2.40000000e-02
  105066,  1.58661764e-03, -1.93329918e-03,  2.40000000e-02
  105067, -1.58661764e-03, -1.93329918e-03,  2.45000000e-02
  105068, -1.38948118e-03, -2.07950553e-03,  2.45000000e-02
  105069, -1.17896326e-03, -2.20568510e-03,  2.45000000e-02
  105070, -9.57091277e-04, -2.31062272e-03,  2.45000000e-02
  105071, -7.26001986e-04, -2.39330779e-03,  2.45000000e-02
  105072, -4.87920900e-04, -2.45294399e-03,  2.45000000e-02
  105073, -2.45140870e-04, -2.48895700e-03,  2.45000000e-02
  105074, -2.22133423e-19, -2.50100000e-03,  2.45000000e-02
  105075,  2.45140870e-04, -2.48895700e-03,  2.45000000e-02
  105076,  4.87920900e-04, -2.45294399e-03,  2.45000000e-02
  105077,  7.26001986e-04, -2.39330779e-03,  2.45000000e-02
  105078,  9.57091277e-04, -2.31062272e-03,  2.45000000e-02
  105079,  1.17896326e-03, -2.20568510e-03,  2.45000000e-02
  105080,  1.38948118e-03, -2.07950553e-03,  2.45000000e-02
  105081,  1.58661764e-03, -1.93329918e-03,  2.45000000e-02
  105082, -1.58661764e-03, -1.93329918e-03,  2.50000000e-02
  105083, -1.38948118e-03, -2.07950553e-03,  2.50000000e-02
  105084, -1.17896326e-03, -2.20568510e-03,  2.50000000e-02
  105085, -9.57091277e-04, -2.31062272e-03,  2.50000000e-02
  105086, -7.26001986e-04, -2.39330779e-03,  2.50000000e-02
  105087, -4.87920900e-04, -2.45294399e-03,  2.50000000e-02
  105088, -2.45140870e-04, -2.48895700e-03,  2.50000000e-02
  105089, -2.22133423e-19, -2.50100000e-03,  2.50000000e-02
  105090,  2.45140870e-04, -2.48895700e-03,  2.50000000e-02
  105091,  4.87920900e-04, -2.45294399e-03,  2.50000000e-02
  105092,  7.26001986e-04, -2.39330779e-03,  2.50000000e-02
  105093,  9.57091277e-04, -2.31062272e-03,  2.50000000e-02
  105094,  1.17896326e-03, -2.20568510e-03,  2.50000000e-02
  105095,  1.38948118e-03, -2.07950553e-03,  2.50000000e-02
  105096,  1.58661764e-03, -1.93329918e-03,  2.50000000e-02
  105097, -1.58661764e-03, -1.93329918e-03,  2.55000000e-02
  105098, -1.38948118e-03, -2.07950553e-03,  2.55000000e-02
  105099, -1.17896326e-03, -2.20568510e-03,  2.55000000e-02
  105100, -9.57091277e-04, -2.31062272e-03,  2.55000000e-02
  105101, -7.26001986e-04, -2.39330779e-03,  2.55000000e-02
  105102, -4.87920900e-04, -2.45294399e-03,  2.55000000e-02
  105103, -2.45140870e-04, -2.48895700e-03,  2.55000000e-02
  105104, -2.22133423e-19, -2.50100000e-03,  2.55000000e-02
  105105,  2.45140870e-04, -2.48895700e-03,  2.55000000e-02
  105106,  4.87920900e-04, -2.45294399e-03,  2.55000000e-02
  105107,  7.26001986e-04, -2.39330779e-03,  2.55000000e-02
  105108,  9.57091277e-04, -2.31062272e-03,  2.55000000e-02
  105109,  1.17896326e-03, -2.20568510e-03,  2.55000000e-02
  105110,  1.38948118e-03, -2.07950553e-03,  2.55000000e-02
  105111,  1.58661764e-03, -1.93329918e-03,  2.55000000e-02
  105112, -1.58661764e-03, -1.93329918e-03,  2.60000000e-02
  105113, -1.38948118e-03, -2.07950553e-03,  2.60000000e-02
  105114, -1.17896326e-03, -2.20568510e-03,  2.60000000e-02
  105115, -9.57091277e-04, -2.31062272e-03,  2.60000000e-02
  105116, -7.26001986e-04, -2.39330779e-03,  2.60000000e-02
  105117, -4.87920900e-04, -2.45294399e-03,  2.60000000e-02
  105118, -2.45140870e-04, -2.48895700e-03,  2.60000000e-02
  105119, -2.22133423e-19, -2.50100000e-03,  2.60000000e-02
  105120,  2.45140870e-04, -2.48895700e-03,  2.60000000e-02
  105121,  4.87920900e-04, -2.45294399e-03,  2.60000000e-02
  105122,  7.26001986e-04, -2.39330779e-03,  2.60000000e-02
  105123,  9.57091277e-04, -2.31062272e-03,  2.60000000e-02
  105124,  1.17896326e-03, -2.20568510e-03,  2.60000000e-02
  105125,  1.38948118e-03, -2.07950553e-03,  2.60000000e-02
  105126,  1.58661764e-03, -1.93329918e-03,  2.60000000e-02
  105127, -1.58661764e-03, -1.93329918e-03,  2.65000000e-02
  105128, -1.38948118e-03, -2.07950553e-03,  2.65000000e-02
  105129, -1.17896326e-03, -2.20568510e-03,  2.65000000e-02
  105130, -9.57091277e-04, -2.31062272e-03,  2.65000000e-02
  105131, -7.26001986e-04, -2.39330779e-03,  2.65000000e-02
  105132, -4.87920900e-04, -2.45294399e-03,  2.65000000e-02
  105133, -2.45140870e-04, -2.48895700e-03,  2.65000000e-02
  105134, -2.22133423e-19, -2.50100000e-03,  2.65000000e-02
  105135,  2.45140870e-04, -2.48895700e-03,  2.65000000e-02
  105136,  4.87920900e-04, -2.45294399e-03,  2.65000000e-02
  105137,  7.26001986e-04, -2.39330779e-03,  2.65000000e-02
  105138,  9.57091277e-04, -2.31062272e-03,  2.65000000e-02
  105139,  1.17896326e-03, -2.20568510e-03,  2.65000000e-02
  105140,  1.38948118e-03, -2.07950553e-03,  2.65000000e-02
  105141,  1.58661764e-03, -1.93329918e-03,  2.65000000e-02
  105142, -1.58661764e-03, -1.93329918e-03,  2.70000000e-02
  105143, -1.38948118e-03, -2.07950553e-03,  2.70000000e-02
  105144, -1.17896326e-03, -2.20568510e-03,  2.70000000e-02
  105145, -9.57091277e-04, -2.31062272e-03,  2.70000000e-02
  105146, -7.26001986e-04, -2.39330779e-03,  2.70000000e-02
  105147, -4.87920900e-04, -2.45294399e-03,  2.70000000e-02
  105148, -2.45140870e-04, -2.48895700e-03,  2.70000000e-02
  105149, -2.22133423e-19, -2.50100000e-03,  2.70000000e-02
  105150,  2.45140870e-04, -2.48895700e-03,  2.70000000e-02
  105151,  4.87920900e-04, -2.45294399e-03,  2.70000000e-02
  105152,  7.26001986e-04, -2.39330779e-03,  2.70000000e-02
  105153,  9.57091277e-04, -2.31062272e-03,  2.70000000e-02
  105154,  1.17896326e-03, -2.20568510e-03,  2.70000000e-02
  105155,  1.38948118e-03, -2.07950553e-03,  2.70000000e-02
  105156,  1.58661764e-03, -1.93329918e-03,  2.70000000e-02
  105157, -1.58661764e-03, -1.93329918e-03,  2.75000000e-02
  105158, -1.38948118e-03, -2.07950553e-03,  2.75000000e-02
  105159, -1.17896326e-03, -2.20568510e-03,  2.75000000e-02
  105160, -9.57091277e-04, -2.31062272e-03,  2.75000000e-02
  105161, -7.26001986e-04, -2.39330779e-03,  2.75000000e-02
  105162, -4.87920900e-04, -2.45294399e-03,  2.75000000e-02
  105163, -2.45140870e-04, -2.48895700e-03,  2.75000000e-02
  105164, -2.22133423e-19, -2.50100000e-03,  2.75000000e-02
  105165,  2.45140870e-04, -2.48895700e-03,  2.75000000e-02
  105166,  4.87920900e-04, -2.45294399e-03,  2.75000000e-02
  105167,  7.26001986e-04, -2.39330779e-03,  2.75000000e-02
  105168,  9.57091277e-04, -2.31062272e-03,  2.75000000e-02
  105169,  1.17896326e-03, -2.20568510e-03,  2.75000000e-02
  105170,  1.38948118e-03, -2.07950553e-03,  2.75000000e-02
  105171,  1.58661764e-03, -1.93329918e-03,  2.75000000e-02
  105172, -1.58661764e-03, -1.93329918e-03,  2.80000000e-02
  105173, -1.38948118e-03, -2.07950553e-03,  2.80000000e-02
  105174, -1.17896326e-03, -2.20568510e-03,  2.80000000e-02
  105175, -9.57091277e-04, -2.31062272e-03,  2.80000000e-02
  105176, -7.26001986e-04, -2.39330779e-03,  2.80000000e-02
  105177, -4.87920900e-04, -2.45294399e-03,  2.80000000e-02
  105178, -2.45140870e-04, -2.48895700e-03,  2.80000000e-02
  105179, -2.22133423e-19, -2.50100000e-03,  2.80000000e-02
  105180,  2.45140870e-04, -2.48895700e-03,  2.80000000e-02
  105181,  4.87920900e-04, -2.45294399e-03,  2.80000000e-02
  105182,  7.26001986e-04, -2.39330779e-03,  2.80000000e-02
  105183,  9.57091277e-04, -2.31062272e-03,  2.80000000e-02
  105184,  1.17896326e-03, -2.20568510e-03,  2.80000000e-02
  105185,  1.38948118e-03, -2.07950553e-03,  2.80000000e-02
  105186,  1.58661764e-03, -1.93329918e-03,  2.80000000e-02
  105187, -1.58661764e-03, -1.93329918e-03,  2.85000000e-02
  105188, -1.38948118e-03, -2.07950553e-03,  2.85000000e-02
  105189, -1.17896326e-03, -2.20568510e-03,  2.85000000e-02
  105190, -9.57091277e-04, -2.31062272e-03,  2.85000000e-02
  105191, -7.26001986e-04, -2.39330779e-03,  2.85000000e-02
  105192, -4.87920900e-04, -2.45294399e-03,  2.85000000e-02
  105193, -2.45140870e-04, -2.48895700e-03,  2.85000000e-02
  105194, -2.22133423e-19, -2.50100000e-03,  2.85000000e-02
  105195,  2.45140870e-04, -2.48895700e-03,  2.85000000e-02
  105196,  4.87920900e-04, -2.45294399e-03,  2.85000000e-02
  105197,  7.26001986e-04, -2.39330779e-03,  2.85000000e-02
  105198,  9.57091277e-04, -2.31062272e-03,  2.85000000e-02
  105199,  1.17896326e-03, -2.20568510e-03,  2.85000000e-02
  105200,  1.38948118e-03, -2.07950553e-03,  2.85000000e-02
  105201,  1.58661764e-03, -1.93329918e-03,  2.85000000e-02
  105202, -1.58661764e-03, -1.93329918e-03,  2.90000000e-02
  105203, -1.38948118e-03, -2.07950553e-03,  2.90000000e-02
  105204, -1.17896326e-03, -2.20568510e-03,  2.90000000e-02
  105205, -9.57091277e-04, -2.31062272e-03,  2.90000000e-02
  105206, -7.26001986e-04, -2.39330779e-03,  2.90000000e-02
  105207, -4.87920900e-04, -2.45294399e-03,  2.90000000e-02
  105208, -2.45140870e-04, -2.48895700e-03,  2.90000000e-02
  105209, -2.22133423e-19, -2.50100000e-03,  2.90000000e-02
  105210,  2.45140870e-04, -2.48895700e-03,  2.90000000e-02
  105211,  4.87920900e-04, -2.45294399e-03,  2.90000000e-02
  105212,  7.26001986e-04, -2.39330779e-03,  2.90000000e-02
  105213,  9.57091277e-04, -2.31062272e-03,  2.90000000e-02
  105214,  1.17896326e-03, -2.20568510e-03,  2.90000000e-02
  105215,  1.38948118e-03, -2.07950553e-03,  2.90000000e-02
  105216,  1.58661764e-03, -1.93329918e-03,  2.90000000e-02
  105217, -1.58661764e-03, -1.93329918e-03,  2.95000000e-02
  105218, -1.38948118e-03, -2.07950553e-03,  2.95000000e-02
  105219, -1.17896326e-03, -2.20568510e-03,  2.95000000e-02
  105220, -9.57091277e-04, -2.31062272e-03,  2.95000000e-02
  105221, -7.26001986e-04, -2.39330779e-03,  2.95000000e-02
  105222, -4.87920900e-04, -2.45294399e-03,  2.95000000e-02
  105223, -2.45140870e-04, -2.48895700e-03,  2.95000000e-02
  105224, -2.22133423e-19, -2.50100000e-03,  2.95000000e-02
  105225,  2.45140870e-04, -2.48895700e-03,  2.95000000e-02
  105226,  4.87920900e-04, -2.45294399e-03,  2.95000000e-02
  105227,  7.26001986e-04, -2.39330779e-03,  2.95000000e-02
  105228,  9.57091277e-04, -2.31062272e-03,  2.95000000e-02
  105229,  1.17896326e-03, -2.20568510e-03,  2.95000000e-02
  105230,  1.38948118e-03, -2.07950553e-03,  2.95000000e-02
  105231,  1.58661764e-03, -1.93329918e-03,  2.95000000e-02
  105232, -1.58661764e-03, -1.93329918e-03,  3.00000000e-02
  105233, -1.38948118e-03, -2.07950553e-03,  3.00000000e-02
  105234, -1.17896326e-03, -2.20568510e-03,  3.00000000e-02
  105235, -9.57091277e-04, -2.31062272e-03,  3.00000000e-02
  105236, -7.26001986e-04, -2.39330779e-03,  3.00000000e-02
  105237, -4.87920900e-04, -2.45294399e-03,  3.00000000e-02
  105238, -2.45140870e-04, -2.48895700e-03,  3.00000000e-02
  105239, -2.22133423e-19, -2.50100000e-03,  3.00000000e-02
  105240,  2.45140870e-04, -2.48895700e-03,  3.00000000e-02
  105241,  4.87920900e-04, -2.45294399e-03,  3.00000000e-02
  105242,  7.26001986e-04, -2.39330779e-03,  3.00000000e-02
  105243,  9.57091277e-04, -2.31062272e-03,  3.00000000e-02
  105244,  1.17896326e-03, -2.20568510e-03,  3.00000000e-02
  105245,  1.38948118e-03, -2.07950553e-03,  3.00000000e-02
  105246,  1.58661764e-03, -1.93329918e-03,  3.00000000e-02
*ELEMENT, TYPE=SPRINGA, ELSET=WK_0
   93185,    72290,   101346
*SPRING, ELSET=WK_0

1.226692e-02
*ELEMENT, TYPE=SPRINGA, ELSET=WK_1
   93186,    72295,   101347
*SPRING, ELSET=WK_1

1.226692e-02
*ELEMENT, TYPE=SPRINGA, ELSET=WK_2
   93187,    72300,   101348
*SPRING, ELSET=WK_2

1.226692e-02
*ELEMENT, TYPE=SPRINGA, ELSET=WK_3
   93188,    72305,   101349
*SPRING, ELSET=WK_3

1.226692e-02
*ELEMENT, TYPE=SPRINGA, ELSET=WK_4
   93189,    72310,   101350
*SPRING, ELSET=WK_4

1.226692e-02
*ELEMENT, TYPE=SPRINGA, ELSET=WK_5
   93190,    72315,   101351
*SPRING, ELSET=WK_5

1.226692e-02
*ELEMENT, TYPE=SPRINGA, ELSET=WK_6
   93191,    72320,   101352
*SPRING, ELSET=WK_6

1.226692e-02
*ELEMENT, TYPE=SPRINGA, ELSET=WK_7
   93192,    72325,   101353
*SPRING, ELSET=WK_7

1.226692e-02
*ELEMENT, TYPE=SPRINGA, ELSET=WK_8
   93193,    72330,   101354
*SPRING, ELSET=WK_8

1.226692e-02
*ELEMENT, TYPE=SPRINGA, ELSET=WK_9
   93194,    72335,   101355
*SPRING, ELSET=WK_9

1.226692e-02
*ELEMENT, TYPE=SPRINGA, ELSET=WK_10
   93195,    72340,   101356
*SPRING, ELSET=WK_10

1.226692e-02
*ELEMENT, TYPE=SPRINGA, ELSET=WK_11
   93196,    72345,   101357
*SPRING, ELSET=WK_11

1.226692e-02
*ELEMENT, TYPE=SPRINGA, ELSET=WK_12
   93197,    72350,   101358
*SPRING, ELSET=WK_12

1.226692e-02
*ELEMENT, TYPE=SPRINGA, ELSET=WK_13
   93198,    72355,   101359
*SPRING, ELSET=WK_13

1.226692e-02
*ELEMENT, TYPE=SPRINGA, ELSET=WK_14
   93199,    72360,   101360
*SPRING, ELSET=WK_14

1.226692e-02
*ELEMENT, TYPE=SPRINGA, ELSET=WK_15
   93200,    72365,   101361
*SPRING, ELSET=WK_15

1.226692e-02
*ELEMENT, TYPE=SPRINGA, ELSET=WK_16
   93201,    72370,   101362
*SPRING, ELSET=WK_16

1.226692e-02
*ELEMENT, TYPE=SPRINGA, ELSET=WK_17
   93202,    72375,   101363
*SPRING, ELSET=WK_17

2.453384e-02
*ELEMENT, TYPE=SPRINGA, ELSET=WK_18
   93203,    72380,   101364
*SPRING, ELSET=WK_18

2.453384e-02
*ELEMENT, TYPE=SPRINGA, ELSET=WK_19
   93204,    72385,   101365
*SPRING, ELSET=WK_19

2.453384e-02
*ELEMENT, TYPE=SPRINGA, ELSET=WK_20
   93205,    72390,   101366
*SPRING, ELSET=WK_20

2.453384e-02
*ELEMENT, TYPE=SPRINGA, ELSET=WK_21
   93206,    72395,   101367
*SPRING, ELSET=WK_21

2.453384e-02
*ELEMENT, TYPE=SPRINGA, ELSET=WK_22
   93207,    72400,   101368
*SPRING, ELSET=WK_22

2.453384e-02
*ELEMENT, TYPE=SPRINGA, ELSET=WK_23
   93208,    72405,   101369
*SPRING, ELSET=WK_23

2.453384e-02
*ELEMENT, TYPE=SPRINGA, ELSET=WK_24
   93209,    72410,   101370
*SPRING, ELSET=WK_24

2.453384e-02
*ELEMENT, TYPE=SPRINGA, ELSET=WK_25
   93210,    72415,   101371
*SPRING, ELSET=WK_25

2.453384e-02
*ELEMENT, TYPE=SPRINGA, ELSET=WK_26
   93211,    72420,   101372
*SPRING, ELSET=WK_26

2.453384e-02
*ELEMENT, TYPE=SPRINGA, ELSET=WK_27
   93212,    72425,   101373
*SPRING, ELSET=WK_27

2.453384e-02
*ELEMENT, TYPE=SPRINGA, ELSET=WK_28
   93213,    72430,   101374
*SPRING, ELSET=WK_28

2.453384e-02
*ELEMENT, TYPE=SPRINGA, ELSET=WK_29
   93214,    72435,   101375
*SPRING, ELSET=WK_29

2.453384e-02
*ELEMENT, TYPE=SPRINGA, ELSET=WK_30
   93215,    72440,   101376
*SPRING, ELSET=WK_30

2.453384e-02
*ELEMENT, TYPE=SPRINGA, ELSET=WK_31
   93216,    72445,   101377
*SPRING, ELSET=WK_31

2.453384e-02
*ELEMENT, TYPE=SPRINGA, ELSET=WK_32
   93217,    72450,   101378
*SPRING, ELSET=WK_32

2.453384e-02
*ELEMENT, TYPE=SPRINGA, ELSET=WK_33
   93218,    72455,   101379
*SPRING, ELSET=WK_33

2.453384e-02
*ELEMENT, TYPE=SPRINGA, ELSET=WK_34
   93219,    72460,   101380
*SPRING, ELSET=WK_34

2.453384e-02
*ELEMENT, TYPE=SPRINGA, ELSET=WK_35
   93220,    72465,   101381
*SPRING, ELSET=WK_35

2.453384e-02
*ELEMENT, TYPE=SPRINGA, ELSET=WK_36
   93221,    72470,   101382
*SPRING, ELSET=WK_36

2.453384e-02
*ELEMENT, TYPE=SPRINGA, ELSET=WK_37
   93222,    72475,   101383
*SPRING, ELSET=WK_37

2.453384e-02
*ELEMENT, TYPE=SPRINGA, ELSET=WK_38
   93223,    72480,   101384
*SPRING, ELSET=WK_38

2.453384e-02
*ELEMENT, TYPE=SPRINGA, ELSET=WK_39
   93224,    72485,   101385
*SPRING, ELSET=WK_39

2.453384e-02
*ELEMENT, TYPE=SPRINGA, ELSET=WK_40
   93225,    72490,   101386
*SPRING, ELSET=WK_40

2.453384e-02
*ELEMENT, TYPE=SPRINGA, ELSET=WK_41
   93226,    72495,   101387
*SPRING, ELSET=WK_41

2.453384e-02
*ELEMENT, TYPE=SPRINGA, ELSET=WK_42
   93227,    72500,   101388
*SPRING, ELSET=WK_42

2.453384e-02
*ELEMENT, TYPE=SPRINGA, ELSET=WK_43
   93228,    72505,   101389
*SPRING, ELSET=WK_43

2.453384e-02
*ELEMENT, TYPE=SPRINGA, ELSET=WK_44
   93229,    72510,   101390
*SPRING, ELSET=WK_44

2.453384e-02
*ELEMENT, TYPE=SPRINGA, ELSET=WK_45
   93230,    72515,   101391
*SPRING, ELSET=WK_45

2.453384e-02
*ELEMENT, TYPE=SPRINGA, ELSET=WK_46
   93231,    72520,   101392
*SPRING, ELSET=WK_46

2.453384e-02
*ELEMENT, TYPE=SPRINGA, ELSET=WK_47
   93232,    72525,   101393
*SPRING, ELSET=WK_47

2.453384e-02
*ELEMENT, TYPE=SPRINGA, ELSET=WK_48
   93233,    72530,   101394
*SPRING, ELSET=WK_48

2.453384e-02
*ELEMENT, TYPE=SPRINGA, ELSET=WK_49
   93234,    72535,   101395
*SPRING, ELSET=WK_49

2.453384e-02
*ELEMENT, TYPE=SPRINGA, ELSET=WK_50
   93235,    72540,   101396
*SPRING, ELSET=WK_50

2.453384e-02
*ELEMENT, TYPE=SPRINGA, ELSET=WK_51
   93236,    72545,   101397
*SPRING, ELSET=WK_51

2.453384e-02
*ELEMENT, TYPE=SPRINGA, ELSET=WK_52
   93237,    72550,   101398
*SPRING, ELSET=WK_52

2.453384e-02
*ELEMENT, TYPE=SPRINGA, ELSET=WK_53
   93238,    72555,   101399
*SPRING, ELSET=WK_53

2.453384e-02
*ELEMENT, TYPE=SPRINGA, ELSET=WK_54
   93239,    72560,   101400
*SPRING, ELSET=WK_54

2.453384e-02
*ELEMENT, TYPE=SPRINGA, ELSET=WK_55
   93240,    72565,   101401
*SPRING, ELSET=WK_55

2.453384e-02
*ELEMENT, TYPE=SPRINGA, ELSET=WK_56
   93241,    72570,   101402
*SPRING, ELSET=WK_56

2.453384e-02
*ELEMENT, TYPE=SPRINGA, ELSET=WK_57
   93242,    72575,   101403
*SPRING, ELSET=WK_57

2.453384e-02
*ELEMENT, TYPE=SPRINGA, ELSET=WK_58
   93243,    72580,   101404
*SPRING, ELSET=WK_58

2.453384e-02
*ELEMENT, TYPE=SPRINGA, ELSET=WK_59
   93244,    72585,   101405
*SPRING, ELSET=WK_59

2.453384e-02
*ELEMENT, TYPE=SPRINGA, ELSET=WK_60
   93245,    72590,   101406
*SPRING, ELSET=WK_60

2.453384e-02
*ELEMENT, TYPE=SPRINGA, ELSET=WK_61
   93246,    72595,   101407
*SPRING, ELSET=WK_61

2.453384e-02
*ELEMENT, TYPE=SPRINGA, ELSET=WK_62
   93247,    72600,   101408
*SPRING, ELSET=WK_62

2.453384e-02
*ELEMENT, TYPE=SPRINGA, ELSET=WK_63
   93248,    72605,   101409
*SPRING, ELSET=WK_63

2.453384e-02
*ELEMENT, TYPE=SPRINGA, ELSET=WK_64
   93249,    72610,   101410
*SPRING, ELSET=WK_64

2.453384e-02
*ELEMENT, TYPE=SPRINGA, ELSET=WK_65
   93250,    72615,   101411
*SPRING, ELSET=WK_65

2.453384e-02
*ELEMENT, TYPE=SPRINGA, ELSET=WK_66
   93251,    72620,   101412
*SPRING, ELSET=WK_66

2.453384e-02
*ELEMENT, TYPE=SPRINGA, ELSET=WK_67
   93252,    72625,   101413
*SPRING, ELSET=WK_67

2.453384e-02
*ELEMENT, TYPE=SPRINGA, ELSET=WK_68
   93253,    72630,   101414
*SPRING, ELSET=WK_68

2.453384e-02
*ELEMENT, TYPE=SPRINGA, ELSET=WK_69
   93254,    72635,   101415
*SPRING, ELSET=WK_69

2.453384e-02
*ELEMENT, TYPE=SPRINGA, ELSET=WK_70
   93255,    72640,   101416
*SPRING, ELSET=WK_70

2.453384e-02
*ELEMENT, TYPE=SPRINGA, ELSET=WK_71
   93256,    72645,   101417
*SPRING, ELSET=WK_71

2.453384e-02
*ELEMENT, TYPE=SPRINGA, ELSET=WK_72
   93257,    72650,   101418
*SPRING, ELSET=WK_72

2.453384e-02
*ELEMENT, TYPE=SPRINGA, ELSET=WK_73
   93258,    72655,   101419
*SPRING, ELSET=WK_73

2.453384e-02
*ELEMENT, TYPE=SPRINGA, ELSET=WK_74
   93259,    72660,   101420
*SPRING, ELSET=WK_74

2.453384e-02
*ELEMENT, TYPE=SPRINGA, ELSET=WK_75
   93260,    72665,   101421
*SPRING, ELSET=WK_75

2.453384e-02
*ELEMENT, TYPE=SPRINGA, ELSET=WK_76
   93261,    72670,   101422
*SPRING, ELSET=WK_76

2.453384e-02
*ELEMENT, TYPE=SPRINGA, ELSET=WK_77
   93262,    72675,   101423
*SPRING, ELSET=WK_77

2.453384e-02
*ELEMENT, TYPE=SPRINGA, ELSET=WK_78
   93263,    72680,   101424
*SPRING, ELSET=WK_78

2.453384e-02
*ELEMENT, TYPE=SPRINGA, ELSET=WK_79
   93264,    72685,   101425
*SPRING, ELSET=WK_79

2.453384e-02
*ELEMENT, TYPE=SPRINGA, ELSET=WK_80
   93265,    72690,   101426
*SPRING, ELSET=WK_80

2.453384e-02
*ELEMENT, TYPE=SPRINGA, ELSET=WK_81
   93266,    72695,   101427
*SPRING, ELSET=WK_81

2.453384e-02
*ELEMENT, TYPE=SPRINGA, ELSET=WK_82
   93267,    72700,   101428
*SPRING, ELSET=WK_82

2.453384e-02
*ELEMENT, TYPE=SPRINGA, ELSET=WK_83
   93268,    72705,   101429
*SPRING, ELSET=WK_83

2.453384e-02
*ELEMENT, TYPE=SPRINGA, ELSET=WK_84
   93269,    72710,   101430
*SPRING, ELSET=WK_84

2.453384e-02
*ELEMENT, TYPE=SPRINGA, ELSET=WK_85
   93270,    72715,   101431
*SPRING, ELSET=WK_85

2.453384e-02
*ELEMENT, TYPE=SPRINGA, ELSET=WK_86
   93271,    72720,   101432
*SPRING, ELSET=WK_86

2.453384e-02
*ELEMENT, TYPE=SPRINGA, ELSET=WK_87
   93272,    72725,   101433
*SPRING, ELSET=WK_87

2.453384e-02
*ELEMENT, TYPE=SPRINGA, ELSET=WK_88
   93273,    72730,   101434
*SPRING, ELSET=WK_88

2.453384e-02
*ELEMENT, TYPE=SPRINGA, ELSET=WK_89
   93274,    72735,   101435
*SPRING, ELSET=WK_89

2.453384e-02
*ELEMENT, TYPE=SPRINGA, ELSET=WK_90
   93275,    72740,   101436
*SPRING, ELSET=WK_90

2.453384e-02
*ELEMENT, TYPE=SPRINGA, ELSET=WK_91
   93276,    72745,   101437
*SPRING, ELSET=WK_91

2.453384e-02
*ELEMENT, TYPE=SPRINGA, ELSET=WK_92
   93277,    72750,   101438
*SPRING, ELSET=WK_92

2.453384e-02
*ELEMENT, TYPE=SPRINGA, ELSET=WK_93
   93278,    72755,   101439
*SPRING, ELSET=WK_93

2.453384e-02
*ELEMENT, TYPE=SPRINGA, ELSET=WK_94
   93279,    72760,   101440
*SPRING, ELSET=WK_94

2.453384e-02
*ELEMENT, TYPE=SPRINGA, ELSET=WK_95
   93280,    72765,   101441
*SPRING, ELSET=WK_95

2.453384e-02
*ELEMENT, TYPE=SPRINGA, ELSET=WK_96
   93281,    72770,   101442
*SPRING, ELSET=WK_96

2.453384e-02
*ELEMENT, TYPE=SPRINGA, ELSET=WK_97
   93282,    72775,   101443
*SPRING, ELSET=WK_97

2.453384e-02
*ELEMENT, TYPE=SPRINGA, ELSET=WK_98
   93283,    72780,   101444
*SPRING, ELSET=WK_98

2.453384e-02
*ELEMENT, TYPE=SPRINGA, ELSET=WK_99
   93284,    72785,   101445
*SPRING, ELSET=WK_99

2.453384e-02
*ELEMENT, TYPE=SPRINGA, ELSET=WK_100
   93285,    72790,   101446
*SPRING, ELSET=WK_100

2.453384e-02
*ELEMENT, TYPE=SPRINGA, ELSET=WK_101
   93286,    72795,   101447
*SPRING, ELSET=WK_101

2.453384e-02
*ELEMENT, TYPE=SPRINGA, ELSET=WK_102
   93287,    72800,   101448
*SPRING, ELSET=WK_102

2.453384e-02
*ELEMENT, TYPE=SPRINGA, ELSET=WK_103
   93288,    72805,   101449
*SPRING, ELSET=WK_103

2.453384e-02
*ELEMENT, TYPE=SPRINGA, ELSET=WK_104
   93289,    72810,   101450
*SPRING, ELSET=WK_104

2.453384e-02
*ELEMENT, TYPE=SPRINGA, ELSET=WK_105
   93290,    72815,   101451
*SPRING, ELSET=WK_105

2.453384e-02
*ELEMENT, TYPE=SPRINGA, ELSET=WK_106
   93291,    72820,   101452
*SPRING, ELSET=WK_106

2.453384e-02
*ELEMENT, TYPE=SPRINGA, ELSET=WK_107
   93292,    72825,   101453
*SPRING, ELSET=WK_107

2.453384e-02
*ELEMENT, TYPE=SPRINGA, ELSET=WK_108
   93293,    72830,   101454
*SPRING, ELSET=WK_108

2.453384e-02
*ELEMENT, TYPE=SPRINGA, ELSET=WK_109
   93294,    72835,   101455
*SPRING, ELSET=WK_109

2.453384e-02
*ELEMENT, TYPE=SPRINGA, ELSET=WK_110
   93295,    72840,   101456
*SPRING, ELSET=WK_110

2.453384e-02
*ELEMENT, TYPE=SPRINGA, ELSET=WK_111
   93296,    72845,   101457
*SPRING, ELSET=WK_111

2.453384e-02
*ELEMENT, TYPE=SPRINGA, ELSET=WK_112
   93297,    72850,   101458
*SPRING, ELSET=WK_112

2.453384e-02
*ELEMENT, TYPE=SPRINGA, ELSET=WK_113
   93298,    72855,   101459
*SPRING, ELSET=WK_113

2.453384e-02
*ELEMENT, TYPE=SPRINGA, ELSET=WK_114
   93299,    72860,   101460
*SPRING, ELSET=WK_114

2.453384e-02
*ELEMENT, TYPE=SPRINGA, ELSET=WK_115
   93300,    72865,   101461
*SPRING, ELSET=WK_115

2.453384e-02
*ELEMENT, TYPE=SPRINGA, ELSET=WK_116
   93301,    72870,   101462
*SPRING, ELSET=WK_116

2.453384e-02
*ELEMENT, TYPE=SPRINGA, ELSET=WK_117
   93302,    72875,   101463
*SPRING, ELSET=WK_117

2.453384e-02
*ELEMENT, TYPE=SPRINGA, ELSET=WK_118
   93303,    72880,   101464
*SPRING, ELSET=WK_118

2.453384e-02
*ELEMENT, TYPE=SPRINGA, ELSET=WK_119
   93304,    72885,   101465
*SPRING, ELSET=WK_119

2.453384e-02
*ELEMENT, TYPE=SPRINGA, ELSET=WK_120
   93305,    72890,   101466
*SPRING, ELSET=WK_120

2.453384e-02
*ELEMENT, TYPE=SPRINGA, ELSET=WK_121
   93306,    72895,   101467
*SPRING, ELSET=WK_121

2.453384e-02
*ELEMENT, TYPE=SPRINGA, ELSET=WK_122
   93307,    72900,   101468
*SPRING, ELSET=WK_122

2.453384e-02
*ELEMENT, TYPE=SPRINGA, ELSET=WK_123
   93308,    72905,   101469
*SPRING, ELSET=WK_123

2.453384e-02
*ELEMENT, TYPE=SPRINGA, ELSET=WK_124
   93309,    72910,   101470
*SPRING, ELSET=WK_124

2.453384e-02
*ELEMENT, TYPE=SPRINGA, ELSET=WK_125
   93310,    72915,   101471
*SPRING, ELSET=WK_125

2.453384e-02
*ELEMENT, TYPE=SPRINGA, ELSET=WK_126
   93311,    72920,   101472
*SPRING, ELSET=WK_126

2.453384e-02
*ELEMENT, TYPE=SPRINGA, ELSET=WK_127
   93312,    72925,   101473
*SPRING, ELSET=WK_127

2.453384e-02
*ELEMENT, TYPE=SPRINGA, ELSET=WK_128
   93313,    72930,   101474
*SPRING, ELSET=WK_128

2.453384e-02
*ELEMENT, TYPE=SPRINGA, ELSET=WK_129
   93314,    72935,   101475
*SPRING, ELSET=WK_129

2.453384e-02
*ELEMENT, TYPE=SPRINGA, ELSET=WK_130
   93315,    72940,   101476
*SPRING, ELSET=WK_130

2.453384e-02
*ELEMENT, TYPE=SPRINGA, ELSET=WK_131
   93316,    72945,   101477
*SPRING, ELSET=WK_131

2.453384e-02
*ELEMENT, TYPE=SPRINGA, ELSET=WK_132
   93317,    72950,   101478
*SPRING, ELSET=WK_132

2.453384e-02
*ELEMENT, TYPE=SPRINGA, ELSET=WK_133
   93318,    72955,   101479
*SPRING, ELSET=WK_133

2.453384e-02
*ELEMENT, TYPE=SPRINGA, ELSET=WK_134
   93319,    72960,   101480
*SPRING, ELSET=WK_134

2.453384e-02
*ELEMENT, TYPE=SPRINGA, ELSET=WK_135
   93320,    72965,   101481
*SPRING, ELSET=WK_135

2.453384e-02
*ELEMENT, TYPE=SPRINGA, ELSET=WK_136
   93321,    72970,   101482
*SPRING, ELSET=WK_136

2.453384e-02
*ELEMENT, TYPE=SPRINGA, ELSET=WK_137
   93322,    72975,   101483
*SPRING, ELSET=WK_137

2.453384e-02
*ELEMENT, TYPE=SPRINGA, ELSET=WK_138
   93323,    72980,   101484
*SPRING, ELSET=WK_138

2.453384e-02
*ELEMENT, TYPE=SPRINGA, ELSET=WK_139
   93324,    72985,   101485
*SPRING, ELSET=WK_139

2.453384e-02
*ELEMENT, TYPE=SPRINGA, ELSET=WK_140
   93325,    72990,   101486
*SPRING, ELSET=WK_140

2.453384e-02
*ELEMENT, TYPE=SPRINGA, ELSET=WK_141
   93326,    72995,   101487
*SPRING, ELSET=WK_141

2.453384e-02
*ELEMENT, TYPE=SPRINGA, ELSET=WK_142
   93327,    73000,   101488
*SPRING, ELSET=WK_142

2.453384e-02
*ELEMENT, TYPE=SPRINGA, ELSET=WK_143
   93328,    73005,   101489
*SPRING, ELSET=WK_143

2.453384e-02
*ELEMENT, TYPE=SPRINGA, ELSET=WK_144
   93329,    73010,   101490
*SPRING, ELSET=WK_144

2.453384e-02
*ELEMENT, TYPE=SPRINGA, ELSET=WK_145
   93330,    73015,   101491
*SPRING, ELSET=WK_145

2.453384e-02
*ELEMENT, TYPE=SPRINGA, ELSET=WK_146
   93331,    73020,   101492
*SPRING, ELSET=WK_146

2.453384e-02
*ELEMENT, TYPE=SPRINGA, ELSET=WK_147
   93332,    73025,   101493
*SPRING, ELSET=WK_147

2.453384e-02
*ELEMENT, TYPE=SPRINGA, ELSET=WK_148
   93333,    73030,   101494
*SPRING, ELSET=WK_148

2.453384e-02
*ELEMENT, TYPE=SPRINGA, ELSET=WK_149
   93334,    73035,   101495
*SPRING, ELSET=WK_149

2.453384e-02
*ELEMENT, TYPE=SPRINGA, ELSET=WK_150
   93335,    73040,   101496
*SPRING, ELSET=WK_150

2.453384e-02
*ELEMENT, TYPE=SPRINGA, ELSET=WK_151
   93336,    73045,   101497
*SPRING, ELSET=WK_151

2.453384e-02
*ELEMENT, TYPE=SPRINGA, ELSET=WK_152
   93337,    73050,   101498
*SPRING, ELSET=WK_152

2.453384e-02
*ELEMENT, TYPE=SPRINGA, ELSET=WK_153
   93338,    73055,   101499
*SPRING, ELSET=WK_153

2.453384e-02
*ELEMENT, TYPE=SPRINGA, ELSET=WK_154
   93339,    73060,   101500
*SPRING, ELSET=WK_154

2.453384e-02
*ELEMENT, TYPE=SPRINGA, ELSET=WK_155
   93340,    73065,   101501
*SPRING, ELSET=WK_155

2.453384e-02
*ELEMENT, TYPE=SPRINGA, ELSET=WK_156
   93341,    73070,   101502
*SPRING, ELSET=WK_156

2.453384e-02
*ELEMENT, TYPE=SPRINGA, ELSET=WK_157
   93342,    73075,   101503
*SPRING, ELSET=WK_157

2.453384e-02
*ELEMENT, TYPE=SPRINGA, ELSET=WK_158
   93343,    73080,   101504
*SPRING, ELSET=WK_158

2.453384e-02
*ELEMENT, TYPE=SPRINGA, ELSET=WK_159
   93344,    73085,   101505
*SPRING, ELSET=WK_159

2.453384e-02
*ELEMENT, TYPE=SPRINGA, ELSET=WK_160
   93345,    73090,   101506
*SPRING, ELSET=WK_160

2.453384e-02
*ELEMENT, TYPE=SPRINGA, ELSET=WK_161
   93346,    73095,   101507
*SPRING, ELSET=WK_161

2.453384e-02
*ELEMENT, TYPE=SPRINGA, ELSET=WK_162
   93347,    73100,   101508
*SPRING, ELSET=WK_162

2.453384e-02
*ELEMENT, TYPE=SPRINGA, ELSET=WK_163
   93348,    73105,   101509
*SPRING, ELSET=WK_163

2.453384e-02
*ELEMENT, TYPE=SPRINGA, ELSET=WK_164
   93349,    73110,   101510
*SPRING, ELSET=WK_164

2.453384e-02
*ELEMENT, TYPE=SPRINGA, ELSET=WK_165
   93350,    73115,   101511
*SPRING, ELSET=WK_165

2.453384e-02
*ELEMENT, TYPE=SPRINGA, ELSET=WK_166
   93351,    73120,   101512
*SPRING, ELSET=WK_166

2.453384e-02
*ELEMENT, TYPE=SPRINGA, ELSET=WK_167
   93352,    73125,   101513
*SPRING, ELSET=WK_167

2.453384e-02
*ELEMENT, TYPE=SPRINGA, ELSET=WK_168
   93353,    73130,   101514
*SPRING, ELSET=WK_168

2.453384e-02
*ELEMENT, TYPE=SPRINGA, ELSET=WK_169
   93354,    73135,   101515
*SPRING, ELSET=WK_169

2.453384e-02
*ELEMENT, TYPE=SPRINGA, ELSET=WK_170
   93355,    73140,   101516
*SPRING, ELSET=WK_170

2.453384e-02
*ELEMENT, TYPE=SPRINGA, ELSET=WK_171
   93356,    73145,   101517
*SPRING, ELSET=WK_171

2.453384e-02
*ELEMENT, TYPE=SPRINGA, ELSET=WK_172
   93357,    73150,   101518
*SPRING, ELSET=WK_172

2.453384e-02
*ELEMENT, TYPE=SPRINGA, ELSET=WK_173
   93358,    73155,   101519
*SPRING, ELSET=WK_173

2.453384e-02
*ELEMENT, TYPE=SPRINGA, ELSET=WK_174
   93359,    73160,   101520
*SPRING, ELSET=WK_174

2.453384e-02
*ELEMENT, TYPE=SPRINGA, ELSET=WK_175
   93360,    73165,   101521
*SPRING, ELSET=WK_175

2.453384e-02
*ELEMENT, TYPE=SPRINGA, ELSET=WK_176
   93361,    73170,   101522
*SPRING, ELSET=WK_176

2.453384e-02
*ELEMENT, TYPE=SPRINGA, ELSET=WK_177
   93362,    73175,   101523
*SPRING, ELSET=WK_177

2.453384e-02
*ELEMENT, TYPE=SPRINGA, ELSET=WK_178
   93363,    73180,   101524
*SPRING, ELSET=WK_178

2.453384e-02
*ELEMENT, TYPE=SPRINGA, ELSET=WK_179
   93364,    73185,   101525
*SPRING, ELSET=WK_179

2.453384e-02
*ELEMENT, TYPE=SPRINGA, ELSET=WK_180
   93365,    73190,   101526
*SPRING, ELSET=WK_180

2.453384e-02
*ELEMENT, TYPE=SPRINGA, ELSET=WK_181
   93366,    73195,   101527
*SPRING, ELSET=WK_181

2.453384e-02
*ELEMENT, TYPE=SPRINGA, ELSET=WK_182
   93367,    73200,   101528
*SPRING, ELSET=WK_182

2.453384e-02
*ELEMENT, TYPE=SPRINGA, ELSET=WK_183
   93368,    73205,   101529
*SPRING, ELSET=WK_183

2.453384e-02
*ELEMENT, TYPE=SPRINGA, ELSET=WK_184
   93369,    73210,   101530
*SPRING, ELSET=WK_184

2.453384e-02
*ELEMENT, TYPE=SPRINGA, ELSET=WK_185
   93370,    73215,   101531
*SPRING, ELSET=WK_185

2.453384e-02
*ELEMENT, TYPE=SPRINGA, ELSET=WK_186
   93371,    73220,   101532
*SPRING, ELSET=WK_186

2.453384e-02
*ELEMENT, TYPE=SPRINGA, ELSET=WK_187
   93372,    73225,   101533
*SPRING, ELSET=WK_187

2.453384e-02
*ELEMENT, TYPE=SPRINGA, ELSET=WK_188
   93373,    73230,   101534
*SPRING, ELSET=WK_188

2.453384e-02
*ELEMENT, TYPE=SPRINGA, ELSET=WK_189
   93374,    73235,   101535
*SPRING, ELSET=WK_189

2.453384e-02
*ELEMENT, TYPE=SPRINGA, ELSET=WK_190
   93375,    73240,   101536
*SPRING, ELSET=WK_190

2.453384e-02
*ELEMENT, TYPE=SPRINGA, ELSET=WK_191
   93376,    73245,   101537
*SPRING, ELSET=WK_191

2.453384e-02
*ELEMENT, TYPE=SPRINGA, ELSET=WK_192
   93377,    73250,   101538
*SPRING, ELSET=WK_192

2.453384e-02
*ELEMENT, TYPE=SPRINGA, ELSET=WK_193
   93378,    73255,   101539
*SPRING, ELSET=WK_193

2.453384e-02
*ELEMENT, TYPE=SPRINGA, ELSET=WK_194
   93379,    73260,   101540
*SPRING, ELSET=WK_194

2.453384e-02
*ELEMENT, TYPE=SPRINGA, ELSET=WK_195
   93380,    73265,   101541
*SPRING, ELSET=WK_195

2.453384e-02
*ELEMENT, TYPE=SPRINGA, ELSET=WK_196
   93381,    73270,   101542
*SPRING, ELSET=WK_196

2.453384e-02
*ELEMENT, TYPE=SPRINGA, ELSET=WK_197
   93382,    73275,   101543
*SPRING, ELSET=WK_197

2.453384e-02
*ELEMENT, TYPE=SPRINGA, ELSET=WK_198
   93383,    73280,   101544
*SPRING, ELSET=WK_198

2.453384e-02
*ELEMENT, TYPE=SPRINGA, ELSET=WK_199
   93384,    73285,   101545
*SPRING, ELSET=WK_199

2.453384e-02
*ELEMENT, TYPE=SPRINGA, ELSET=WK_200
   93385,    73290,   101546
*SPRING, ELSET=WK_200

2.453384e-02
*ELEMENT, TYPE=SPRINGA, ELSET=WK_201
   93386,    73295,   101547
*SPRING, ELSET=WK_201

2.453384e-02
*ELEMENT, TYPE=SPRINGA, ELSET=WK_202
   93387,    73300,   101548
*SPRING, ELSET=WK_202

2.453384e-02
*ELEMENT, TYPE=SPRINGA, ELSET=WK_203
   93388,    73305,   101549
*SPRING, ELSET=WK_203

2.453384e-02
*ELEMENT, TYPE=SPRINGA, ELSET=WK_204
   93389,    73310,   101550
*SPRING, ELSET=WK_204

2.453384e-02
*ELEMENT, TYPE=SPRINGA, ELSET=WK_205
   93390,    73315,   101551
*SPRING, ELSET=WK_205

2.453384e-02
*ELEMENT, TYPE=SPRINGA, ELSET=WK_206
   93391,    73320,   101552
*SPRING, ELSET=WK_206

2.453384e-02
*ELEMENT, TYPE=SPRINGA, ELSET=WK_207
   93392,    73325,   101553
*SPRING, ELSET=WK_207

2.453384e-02
*ELEMENT, TYPE=SPRINGA, ELSET=WK_208
   93393,    73330,   101554
*SPRING, ELSET=WK_208

2.453384e-02
*ELEMENT, TYPE=SPRINGA, ELSET=WK_209
   93394,    73335,   101555
*SPRING, ELSET=WK_209

2.453384e-02
*ELEMENT, TYPE=SPRINGA, ELSET=WK_210
   93395,    73340,   101556
*SPRING, ELSET=WK_210

2.453384e-02
*ELEMENT, TYPE=SPRINGA, ELSET=WK_211
   93396,    73345,   101557
*SPRING, ELSET=WK_211

2.453384e-02
*ELEMENT, TYPE=SPRINGA, ELSET=WK_212
   93397,    73350,   101558
*SPRING, ELSET=WK_212

2.453384e-02
*ELEMENT, TYPE=SPRINGA, ELSET=WK_213
   93398,    73355,   101559
*SPRING, ELSET=WK_213

2.453384e-02
*ELEMENT, TYPE=SPRINGA, ELSET=WK_214
   93399,    73360,   101560
*SPRING, ELSET=WK_214

2.453384e-02
*ELEMENT, TYPE=SPRINGA, ELSET=WK_215
   93400,    73365,   101561
*SPRING, ELSET=WK_215

2.453384e-02
*ELEMENT, TYPE=SPRINGA, ELSET=WK_216
   93401,    73370,   101562
*SPRING, ELSET=WK_216

2.453384e-02
*ELEMENT, TYPE=SPRINGA, ELSET=WK_217
   93402,    73375,   101563
*SPRING, ELSET=WK_217

2.453384e-02
*ELEMENT, TYPE=SPRINGA, ELSET=WK_218
   93403,    73380,   101564
*SPRING, ELSET=WK_218

2.453384e-02
*ELEMENT, TYPE=SPRINGA, ELSET=WK_219
   93404,    73385,   101565
*SPRING, ELSET=WK_219

2.453384e-02
*ELEMENT, TYPE=SPRINGA, ELSET=WK_220
   93405,    73390,   101566
*SPRING, ELSET=WK_220

2.453384e-02
*ELEMENT, TYPE=SPRINGA, ELSET=WK_221
   93406,    73395,   101567
*SPRING, ELSET=WK_221

2.453384e-02
*ELEMENT, TYPE=SPRINGA, ELSET=WK_222
   93407,    73400,   101568
*SPRING, ELSET=WK_222

2.453384e-02
*ELEMENT, TYPE=SPRINGA, ELSET=WK_223
   93408,    73405,   101569
*SPRING, ELSET=WK_223

2.453384e-02
*ELEMENT, TYPE=SPRINGA, ELSET=WK_224
   93409,    73410,   101570
*SPRING, ELSET=WK_224

2.453384e-02
*ELEMENT, TYPE=SPRINGA, ELSET=WK_225
   93410,    73415,   101571
*SPRING, ELSET=WK_225

2.453384e-02
*ELEMENT, TYPE=SPRINGA, ELSET=WK_226
   93411,    73420,   101572
*SPRING, ELSET=WK_226

2.453384e-02
*ELEMENT, TYPE=SPRINGA, ELSET=WK_227
   93412,    73425,   101573
*SPRING, ELSET=WK_227

2.453384e-02
*ELEMENT, TYPE=SPRINGA, ELSET=WK_228
   93413,    73430,   101574
*SPRING, ELSET=WK_228

2.453384e-02
*ELEMENT, TYPE=SPRINGA, ELSET=WK_229
   93414,    73435,   101575
*SPRING, ELSET=WK_229

2.453384e-02
*ELEMENT, TYPE=SPRINGA, ELSET=WK_230
   93415,    73440,   101576
*SPRING, ELSET=WK_230

2.453384e-02
*ELEMENT, TYPE=SPRINGA, ELSET=WK_231
   93416,    73445,   101577
*SPRING, ELSET=WK_231

2.453384e-02
*ELEMENT, TYPE=SPRINGA, ELSET=WK_232
   93417,    73450,   101578
*SPRING, ELSET=WK_232

2.453384e-02
*ELEMENT, TYPE=SPRINGA, ELSET=WK_233
   93418,    73455,   101579
*SPRING, ELSET=WK_233

2.453384e-02
*ELEMENT, TYPE=SPRINGA, ELSET=WK_234
   93419,    73460,   101580
*SPRING, ELSET=WK_234

2.453384e-02
*ELEMENT, TYPE=SPRINGA, ELSET=WK_235
   93420,    73465,   101581
*SPRING, ELSET=WK_235

2.453384e-02
*ELEMENT, TYPE=SPRINGA, ELSET=WK_236
   93421,    73470,   101582
*SPRING, ELSET=WK_236

2.453384e-02
*ELEMENT, TYPE=SPRINGA, ELSET=WK_237
   93422,    73475,   101583
*SPRING, ELSET=WK_237

2.453384e-02
*ELEMENT, TYPE=SPRINGA, ELSET=WK_238
   93423,    73480,   101584
*SPRING, ELSET=WK_238

2.453384e-02
*ELEMENT, TYPE=SPRINGA, ELSET=WK_239
   93424,    73485,   101585
*SPRING, ELSET=WK_239

2.453384e-02
*ELEMENT, TYPE=SPRINGA, ELSET=WK_240
   93425,    73490,   101586
*SPRING, ELSET=WK_240

2.453384e-02
*ELEMENT, TYPE=SPRINGA, ELSET=WK_241
   93426,    73495,   101587
*SPRING, ELSET=WK_241

2.453384e-02
*ELEMENT, TYPE=SPRINGA, ELSET=WK_242
   93427,    73500,   101588
*SPRING, ELSET=WK_242

2.453384e-02
*ELEMENT, TYPE=SPRINGA, ELSET=WK_243
   93428,    73505,   101589
*SPRING, ELSET=WK_243

2.453384e-02
*ELEMENT, TYPE=SPRINGA, ELSET=WK_244
   93429,    73510,   101590
*SPRING, ELSET=WK_244

2.453384e-02
*ELEMENT, TYPE=SPRINGA, ELSET=WK_245
   93430,    73515,   101591
*SPRING, ELSET=WK_245

2.453384e-02
*ELEMENT, TYPE=SPRINGA, ELSET=WK_246
   93431,    73520,   101592
*SPRING, ELSET=WK_246

2.453384e-02
*ELEMENT, TYPE=SPRINGA, ELSET=WK_247
   93432,    73525,   101593
*SPRING, ELSET=WK_247

2.453384e-02
*ELEMENT, TYPE=SPRINGA, ELSET=WK_248
   93433,    73530,   101594
*SPRING, ELSET=WK_248

2.453384e-02
*ELEMENT, TYPE=SPRINGA, ELSET=WK_249
   93434,    73535,   101595
*SPRING, ELSET=WK_249

2.453384e-02
*ELEMENT, TYPE=SPRINGA, ELSET=WK_250
   93435,    73540,   101596
*SPRING, ELSET=WK_250

2.453384e-02
*ELEMENT, TYPE=SPRINGA, ELSET=WK_251
   93436,    73545,   101597
*SPRING, ELSET=WK_251

2.453384e-02
*ELEMENT, TYPE=SPRINGA, ELSET=WK_252
   93437,    73550,   101598
*SPRING, ELSET=WK_252

2.453384e-02
*ELEMENT, TYPE=SPRINGA, ELSET=WK_253
   93438,    73555,   101599
*SPRING, ELSET=WK_253

2.453384e-02
*ELEMENT, TYPE=SPRINGA, ELSET=WK_254
   93439,    73560,   101600
*SPRING, ELSET=WK_254

2.453384e-02
*ELEMENT, TYPE=SPRINGA, ELSET=WK_255
   93440,    73565,   101601
*SPRING, ELSET=WK_255

2.453384e-02
*ELEMENT, TYPE=SPRINGA, ELSET=WK_256
   93441,    73570,   101602
*SPRING, ELSET=WK_256

2.453384e-02
*ELEMENT, TYPE=SPRINGA, ELSET=WK_257
   93442,    73575,   101603
*SPRING, ELSET=WK_257

2.453384e-02
*ELEMENT, TYPE=SPRINGA, ELSET=WK_258
   93443,    73580,   101604
*SPRING, ELSET=WK_258

2.453384e-02
*ELEMENT, TYPE=SPRINGA, ELSET=WK_259
   93444,    73585,   101605
*SPRING, ELSET=WK_259

2.453384e-02
*ELEMENT, TYPE=SPRINGA, ELSET=WK_260
   93445,    73590,   101606
*SPRING, ELSET=WK_260

2.453384e-02
*ELEMENT, TYPE=SPRINGA, ELSET=WK_261
   93446,    73595,   101607
*SPRING, ELSET=WK_261

2.453384e-02
*ELEMENT, TYPE=SPRINGA, ELSET=WK_262
   93447,    73600,   101608
*SPRING, ELSET=WK_262

2.453384e-02
*ELEMENT, TYPE=SPRINGA, ELSET=WK_263
   93448,    73605,   101609
*SPRING, ELSET=WK_263

2.453384e-02
*ELEMENT, TYPE=SPRINGA, ELSET=WK_264
   93449,    73610,   101610
*SPRING, ELSET=WK_264

2.453384e-02
*ELEMENT, TYPE=SPRINGA, ELSET=WK_265
   93450,    73615,   101611
*SPRING, ELSET=WK_265

2.453384e-02
*ELEMENT, TYPE=SPRINGA, ELSET=WK_266
   93451,    73620,   101612
*SPRING, ELSET=WK_266

2.453384e-02
*ELEMENT, TYPE=SPRINGA, ELSET=WK_267
   93452,    73625,   101613
*SPRING, ELSET=WK_267

2.453384e-02
*ELEMENT, TYPE=SPRINGA, ELSET=WK_268
   93453,    73630,   101614
*SPRING, ELSET=WK_268

2.453384e-02
*ELEMENT, TYPE=SPRINGA, ELSET=WK_269
   93454,    73635,   101615
*SPRING, ELSET=WK_269

2.453384e-02
*ELEMENT, TYPE=SPRINGA, ELSET=WK_270
   93455,    73640,   101616
*SPRING, ELSET=WK_270

2.453384e-02
*ELEMENT, TYPE=SPRINGA, ELSET=WK_271
   93456,    73645,   101617
*SPRING, ELSET=WK_271

2.453384e-02
*ELEMENT, TYPE=SPRINGA, ELSET=WK_272
   93457,    73650,   101618
*SPRING, ELSET=WK_272

2.453384e-02
*ELEMENT, TYPE=SPRINGA, ELSET=WK_273
   93458,    73655,   101619
*SPRING, ELSET=WK_273

2.453384e-02
*ELEMENT, TYPE=SPRINGA, ELSET=WK_274
   93459,    73660,   101620
*SPRING, ELSET=WK_274

2.453384e-02
*ELEMENT, TYPE=SPRINGA, ELSET=WK_275
   93460,    73665,   101621
*SPRING, ELSET=WK_275

2.453384e-02
*ELEMENT, TYPE=SPRINGA, ELSET=WK_276
   93461,    73670,   101622
*SPRING, ELSET=WK_276

2.453384e-02
*ELEMENT, TYPE=SPRINGA, ELSET=WK_277
   93462,    73675,   101623
*SPRING, ELSET=WK_277

2.453384e-02
*ELEMENT, TYPE=SPRINGA, ELSET=WK_278
   93463,    73680,   101624
*SPRING, ELSET=WK_278

2.453384e-02
*ELEMENT, TYPE=SPRINGA, ELSET=WK_279
   93464,    73685,   101625
*SPRING, ELSET=WK_279

2.453384e-02
*ELEMENT, TYPE=SPRINGA, ELSET=WK_280
   93465,    73690,   101626
*SPRING, ELSET=WK_280

2.453384e-02
*ELEMENT, TYPE=SPRINGA, ELSET=WK_281
   93466,    73695,   101627
*SPRING, ELSET=WK_281

2.453384e-02
*ELEMENT, TYPE=SPRINGA, ELSET=WK_282
   93467,    73700,   101628
*SPRING, ELSET=WK_282

2.453384e-02
*ELEMENT, TYPE=SPRINGA, ELSET=WK_283
   93468,    73705,   101629
*SPRING, ELSET=WK_283

2.453384e-02
*ELEMENT, TYPE=SPRINGA, ELSET=WK_284
   93469,    73710,   101630
*SPRING, ELSET=WK_284

2.453384e-02
*ELEMENT, TYPE=SPRINGA, ELSET=WK_285
   93470,    73715,   101631
*SPRING, ELSET=WK_285

2.453384e-02
*ELEMENT, TYPE=SPRINGA, ELSET=WK_286
   93471,    73720,   101632
*SPRING, ELSET=WK_286

2.453384e-02
*ELEMENT, TYPE=SPRINGA, ELSET=WK_287
   93472,    73725,   101633
*SPRING, ELSET=WK_287

2.453384e-02
*ELEMENT, TYPE=SPRINGA, ELSET=WK_288
   93473,    73730,   101634
*SPRING, ELSET=WK_288

2.453384e-02
*ELEMENT, TYPE=SPRINGA, ELSET=WK_289
   93474,    73735,   101635
*SPRING, ELSET=WK_289

2.453384e-02
*ELEMENT, TYPE=SPRINGA, ELSET=WK_290
   93475,    73740,   101636
*SPRING, ELSET=WK_290

2.453384e-02
*ELEMENT, TYPE=SPRINGA, ELSET=WK_291
   93476,    73745,   101637
*SPRING, ELSET=WK_291

2.453384e-02
*ELEMENT, TYPE=SPRINGA, ELSET=WK_292
   93477,    73750,   101638
*SPRING, ELSET=WK_292

2.453384e-02
*ELEMENT, TYPE=SPRINGA, ELSET=WK_293
   93478,    73755,   101639
*SPRING, ELSET=WK_293

2.453384e-02
*ELEMENT, TYPE=SPRINGA, ELSET=WK_294
   93479,    73760,   101640
*SPRING, ELSET=WK_294

2.453384e-02
*ELEMENT, TYPE=SPRINGA, ELSET=WK_295
   93480,    73765,   101641
*SPRING, ELSET=WK_295

2.453384e-02
*ELEMENT, TYPE=SPRINGA, ELSET=WK_296
   93481,    73770,   101642
*SPRING, ELSET=WK_296

2.453384e-02
*ELEMENT, TYPE=SPRINGA, ELSET=WK_297
   93482,    73775,   101643
*SPRING, ELSET=WK_297

2.453384e-02
*ELEMENT, TYPE=SPRINGA, ELSET=WK_298
   93483,    73780,   101644
*SPRING, ELSET=WK_298

2.453384e-02
*ELEMENT, TYPE=SPRINGA, ELSET=WK_299
   93484,    73785,   101645
*SPRING, ELSET=WK_299

2.453384e-02
*ELEMENT, TYPE=SPRINGA, ELSET=WK_300
   93485,    73790,   101646
*SPRING, ELSET=WK_300

2.453384e-02
*ELEMENT, TYPE=SPRINGA, ELSET=WK_301
   93486,    73795,   101647
*SPRING, ELSET=WK_301

2.453384e-02
*ELEMENT, TYPE=SPRINGA, ELSET=WK_302
   93487,    73800,   101648
*SPRING, ELSET=WK_302

2.453384e-02
*ELEMENT, TYPE=SPRINGA, ELSET=WK_303
   93488,    73805,   101649
*SPRING, ELSET=WK_303

2.453384e-02
*ELEMENT, TYPE=SPRINGA, ELSET=WK_304
   93489,    73810,   101650
*SPRING, ELSET=WK_304

2.453384e-02
*ELEMENT, TYPE=SPRINGA, ELSET=WK_305
   93490,    73815,   101651
*SPRING, ELSET=WK_305

2.453384e-02
*ELEMENT, TYPE=SPRINGA, ELSET=WK_306
   93491,    73820,   101652
*SPRING, ELSET=WK_306

2.453384e-02
*ELEMENT, TYPE=SPRINGA, ELSET=WK_307
   93492,    73825,   101653
*SPRING, ELSET=WK_307

2.453384e-02
*ELEMENT, TYPE=SPRINGA, ELSET=WK_308
   93493,    73830,   101654
*SPRING, ELSET=WK_308

2.453384e-02
*ELEMENT, TYPE=SPRINGA, ELSET=WK_309
   93494,    73835,   101655
*SPRING, ELSET=WK_309

2.453384e-02
*ELEMENT, TYPE=SPRINGA, ELSET=WK_310
   93495,    73840,   101656
*SPRING, ELSET=WK_310

2.453384e-02
*ELEMENT, TYPE=SPRINGA, ELSET=WK_311
   93496,    73845,   101657
*SPRING, ELSET=WK_311

2.453384e-02
*ELEMENT, TYPE=SPRINGA, ELSET=WK_312
   93497,    73850,   101658
*SPRING, ELSET=WK_312

2.453384e-02
*ELEMENT, TYPE=SPRINGA, ELSET=WK_313
   93498,    73855,   101659
*SPRING, ELSET=WK_313

2.453384e-02
*ELEMENT, TYPE=SPRINGA, ELSET=WK_314
   93499,    73860,   101660
*SPRING, ELSET=WK_314

2.453384e-02
*ELEMENT, TYPE=SPRINGA, ELSET=WK_315
   93500,    73865,   101661
*SPRING, ELSET=WK_315

2.453384e-02
*ELEMENT, TYPE=SPRINGA, ELSET=WK_316
   93501,    73870,   101662
*SPRING, ELSET=WK_316

2.453384e-02
*ELEMENT, TYPE=SPRINGA, ELSET=WK_317
   93502,    73875,   101663
*SPRING, ELSET=WK_317

2.453384e-02
*ELEMENT, TYPE=SPRINGA, ELSET=WK_318
   93503,    73880,   101664
*SPRING, ELSET=WK_318

2.453384e-02
*ELEMENT, TYPE=SPRINGA, ELSET=WK_319
   93504,    73885,   101665
*SPRING, ELSET=WK_319

2.453384e-02
*ELEMENT, TYPE=SPRINGA, ELSET=WK_320
   93505,    73890,   101666
*SPRING, ELSET=WK_320

2.453384e-02
*ELEMENT, TYPE=SPRINGA, ELSET=WK_321
   93506,    73895,   101667
*SPRING, ELSET=WK_321

2.453384e-02
*ELEMENT, TYPE=SPRINGA, ELSET=WK_322
   93507,    73900,   101668
*SPRING, ELSET=WK_322

2.453384e-02
*ELEMENT, TYPE=SPRINGA, ELSET=WK_323
   93508,    73905,   101669
*SPRING, ELSET=WK_323

2.453384e-02
*ELEMENT, TYPE=SPRINGA, ELSET=WK_324
   93509,    73910,   101670
*SPRING, ELSET=WK_324

2.453384e-02
*ELEMENT, TYPE=SPRINGA, ELSET=WK_325
   93510,    73915,   101671
*SPRING, ELSET=WK_325

2.453384e-02
*ELEMENT, TYPE=SPRINGA, ELSET=WK_326
   93511,    73920,   101672
*SPRING, ELSET=WK_326

2.453384e-02
*ELEMENT, TYPE=SPRINGA, ELSET=WK_327
   93512,    73925,   101673
*SPRING, ELSET=WK_327

2.453384e-02
*ELEMENT, TYPE=SPRINGA, ELSET=WK_328
   93513,    73930,   101674
*SPRING, ELSET=WK_328

2.453384e-02
*ELEMENT, TYPE=SPRINGA, ELSET=WK_329
   93514,    73935,   101675
*SPRING, ELSET=WK_329

2.453384e-02
*ELEMENT, TYPE=SPRINGA, ELSET=WK_330
   93515,    73940,   101676
*SPRING, ELSET=WK_330

2.453384e-02
*ELEMENT, TYPE=SPRINGA, ELSET=WK_331
   93516,    73945,   101677
*SPRING, ELSET=WK_331

2.453384e-02
*ELEMENT, TYPE=SPRINGA, ELSET=WK_332
   93517,    73950,   101678
*SPRING, ELSET=WK_332

2.453384e-02
*ELEMENT, TYPE=SPRINGA, ELSET=WK_333
   93518,    73955,   101679
*SPRING, ELSET=WK_333

2.453384e-02
*ELEMENT, TYPE=SPRINGA, ELSET=WK_334
   93519,    73960,   101680
*SPRING, ELSET=WK_334

2.453384e-02
*ELEMENT, TYPE=SPRINGA, ELSET=WK_335
   93520,    73965,   101681
*SPRING, ELSET=WK_335

2.453384e-02
*ELEMENT, TYPE=SPRINGA, ELSET=WK_336
   93521,    73970,   101682
*SPRING, ELSET=WK_336

2.453384e-02
*ELEMENT, TYPE=SPRINGA, ELSET=WK_337
   93522,    73975,   101683
*SPRING, ELSET=WK_337

2.453384e-02
*ELEMENT, TYPE=SPRINGA, ELSET=WK_338
   93523,    73980,   101684
*SPRING, ELSET=WK_338

2.453384e-02
*ELEMENT, TYPE=SPRINGA, ELSET=WK_339
   93524,    73985,   101685
*SPRING, ELSET=WK_339

2.453384e-02
*ELEMENT, TYPE=SPRINGA, ELSET=WK_340
   93525,    73990,   101686
*SPRING, ELSET=WK_340

2.453384e-02
*ELEMENT, TYPE=SPRINGA, ELSET=WK_341
   93526,    73995,   101687
*SPRING, ELSET=WK_341

2.453384e-02
*ELEMENT, TYPE=SPRINGA, ELSET=WK_342
   93527,    74000,   101688
*SPRING, ELSET=WK_342

2.453384e-02
*ELEMENT, TYPE=SPRINGA, ELSET=WK_343
   93528,    74005,   101689
*SPRING, ELSET=WK_343

2.453384e-02
*ELEMENT, TYPE=SPRINGA, ELSET=WK_344
   93529,    74010,   101690
*SPRING, ELSET=WK_344

2.453384e-02
*ELEMENT, TYPE=SPRINGA, ELSET=WK_345
   93530,    74015,   101691
*SPRING, ELSET=WK_345

2.453384e-02
*ELEMENT, TYPE=SPRINGA, ELSET=WK_346
   93531,    74020,   101692
*SPRING, ELSET=WK_346

2.453384e-02
*ELEMENT, TYPE=SPRINGA, ELSET=WK_347
   93532,    74025,   101693
*SPRING, ELSET=WK_347

2.453384e-02
*ELEMENT, TYPE=SPRINGA, ELSET=WK_348
   93533,    74030,   101694
*SPRING, ELSET=WK_348

2.453384e-02
*ELEMENT, TYPE=SPRINGA, ELSET=WK_349
   93534,    74035,   101695
*SPRING, ELSET=WK_349

2.453384e-02
*ELEMENT, TYPE=SPRINGA, ELSET=WK_350
   93535,    74040,   101696
*SPRING, ELSET=WK_350

2.453384e-02
*ELEMENT, TYPE=SPRINGA, ELSET=WK_351
   93536,    74045,   101697
*SPRING, ELSET=WK_351

2.453384e-02
*ELEMENT, TYPE=SPRINGA, ELSET=WK_352
   93537,    74050,   101698
*SPRING, ELSET=WK_352

2.453384e-02
*ELEMENT, TYPE=SPRINGA, ELSET=WK_353
   93538,    74055,   101699
*SPRING, ELSET=WK_353

2.453384e-02
*ELEMENT, TYPE=SPRINGA, ELSET=WK_354
   93539,    74060,   101700
*SPRING, ELSET=WK_354

2.453384e-02
*ELEMENT, TYPE=SPRINGA, ELSET=WK_355
   93540,    74065,   101701
*SPRING, ELSET=WK_355

2.453384e-02
*ELEMENT, TYPE=SPRINGA, ELSET=WK_356
   93541,    74070,   101702
*SPRING, ELSET=WK_356

2.453384e-02
*ELEMENT, TYPE=SPRINGA, ELSET=WK_357
   93542,    74075,   101703
*SPRING, ELSET=WK_357

2.453384e-02
*ELEMENT, TYPE=SPRINGA, ELSET=WK_358
   93543,    74080,   101704
*SPRING, ELSET=WK_358

2.453384e-02
*ELEMENT, TYPE=SPRINGA, ELSET=WK_359
   93544,    74085,   101705
*SPRING, ELSET=WK_359

2.453384e-02
*ELEMENT, TYPE=SPRINGA, ELSET=WK_360
   93545,    74090,   101706
*SPRING, ELSET=WK_360

2.453384e-02
*ELEMENT, TYPE=SPRINGA, ELSET=WK_361
   93546,    74095,   101707
*SPRING, ELSET=WK_361

2.453384e-02
*ELEMENT, TYPE=SPRINGA, ELSET=WK_362
   93547,    74100,   101708
*SPRING, ELSET=WK_362

2.453384e-02
*ELEMENT, TYPE=SPRINGA, ELSET=WK_363
   93548,    74105,   101709
*SPRING, ELSET=WK_363

2.453384e-02
*ELEMENT, TYPE=SPRINGA, ELSET=WK_364
   93549,    74110,   101710
*SPRING, ELSET=WK_364

2.453384e-02
*ELEMENT, TYPE=SPRINGA, ELSET=WK_365
   93550,    74115,   101711
*SPRING, ELSET=WK_365

2.453384e-02
*ELEMENT, TYPE=SPRINGA, ELSET=WK_366
   93551,    74120,   101712
*SPRING, ELSET=WK_366

2.453384e-02
*ELEMENT, TYPE=SPRINGA, ELSET=WK_367
   93552,    74125,   101713
*SPRING, ELSET=WK_367

2.453384e-02
*ELEMENT, TYPE=SPRINGA, ELSET=WK_368
   93553,    74130,   101714
*SPRING, ELSET=WK_368

2.453384e-02
*ELEMENT, TYPE=SPRINGA, ELSET=WK_369
   93554,    74135,   101715
*SPRING, ELSET=WK_369

2.453384e-02
*ELEMENT, TYPE=SPRINGA, ELSET=WK_370
   93555,    74140,   101716
*SPRING, ELSET=WK_370

2.453384e-02
*ELEMENT, TYPE=SPRINGA, ELSET=WK_371
   93556,    74145,   101717
*SPRING, ELSET=WK_371

2.453384e-02
*ELEMENT, TYPE=SPRINGA, ELSET=WK_372
   93557,    74150,   101718
*SPRING, ELSET=WK_372

2.453384e-02
*ELEMENT, TYPE=SPRINGA, ELSET=WK_373
   93558,    74155,   101719
*SPRING, ELSET=WK_373

2.453384e-02
*ELEMENT, TYPE=SPRINGA, ELSET=WK_374
   93559,    74160,   101720
*SPRING, ELSET=WK_374

2.453384e-02
*ELEMENT, TYPE=SPRINGA, ELSET=WK_375
   93560,    74165,   101721
*SPRING, ELSET=WK_375

2.453384e-02
*ELEMENT, TYPE=SPRINGA, ELSET=WK_376
   93561,    74170,   101722
*SPRING, ELSET=WK_376

2.453384e-02
*ELEMENT, TYPE=SPRINGA, ELSET=WK_377
   93562,    74175,   101723
*SPRING, ELSET=WK_377

2.453384e-02
*ELEMENT, TYPE=SPRINGA, ELSET=WK_378
   93563,    74180,   101724
*SPRING, ELSET=WK_378

2.453384e-02
*ELEMENT, TYPE=SPRINGA, ELSET=WK_379
   93564,    74185,   101725
*SPRING, ELSET=WK_379

2.453384e-02
*ELEMENT, TYPE=SPRINGA, ELSET=WK_380
   93565,    74190,   101726
*SPRING, ELSET=WK_380

2.453384e-02
*ELEMENT, TYPE=SPRINGA, ELSET=WK_381
   93566,    74195,   101727
*SPRING, ELSET=WK_381

2.453384e-02
*ELEMENT, TYPE=SPRINGA, ELSET=WK_382
   93567,    74200,   101728
*SPRING, ELSET=WK_382

2.453384e-02
*ELEMENT, TYPE=SPRINGA, ELSET=WK_383
   93568,    74205,   101729
*SPRING, ELSET=WK_383

2.453384e-02
*ELEMENT, TYPE=SPRINGA, ELSET=WK_384
   93569,    74210,   101730
*SPRING, ELSET=WK_384

2.453384e-02
*ELEMENT, TYPE=SPRINGA, ELSET=WK_385
   93570,    74215,   101731
*SPRING, ELSET=WK_385

2.453384e-02
*ELEMENT, TYPE=SPRINGA, ELSET=WK_386
   93571,    74220,   101732
*SPRING, ELSET=WK_386

2.453384e-02
*ELEMENT, TYPE=SPRINGA, ELSET=WK_387
   93572,    74225,   101733
*SPRING, ELSET=WK_387

2.453384e-02
*ELEMENT, TYPE=SPRINGA, ELSET=WK_388
   93573,    74230,   101734
*SPRING, ELSET=WK_388

2.453384e-02
*ELEMENT, TYPE=SPRINGA, ELSET=WK_389
   93574,    74235,   101735
*SPRING, ELSET=WK_389

2.453384e-02
*ELEMENT, TYPE=SPRINGA, ELSET=WK_390
   93575,    74240,   101736
*SPRING, ELSET=WK_390

2.453384e-02
*ELEMENT, TYPE=SPRINGA, ELSET=WK_391
   93576,    74245,   101737
*SPRING, ELSET=WK_391

2.453384e-02
*ELEMENT, TYPE=SPRINGA, ELSET=WK_392
   93577,    74250,   101738
*SPRING, ELSET=WK_392

2.453384e-02
*ELEMENT, TYPE=SPRINGA, ELSET=WK_393
   93578,    74255,   101739
*SPRING, ELSET=WK_393

2.453384e-02
*ELEMENT, TYPE=SPRINGA, ELSET=WK_394
   93579,    74260,   101740
*SPRING, ELSET=WK_394

2.453384e-02
*ELEMENT, TYPE=SPRINGA, ELSET=WK_395
   93580,    74265,   101741
*SPRING, ELSET=WK_395

2.453384e-02
*ELEMENT, TYPE=SPRINGA, ELSET=WK_396
   93581,    74270,   101742
*SPRING, ELSET=WK_396

2.453384e-02
*ELEMENT, TYPE=SPRINGA, ELSET=WK_397
   93582,    74275,   101743
*SPRING, ELSET=WK_397

2.453384e-02
*ELEMENT, TYPE=SPRINGA, ELSET=WK_398
   93583,    74280,   101744
*SPRING, ELSET=WK_398

2.453384e-02
*ELEMENT, TYPE=SPRINGA, ELSET=WK_399
   93584,    74285,   101745
*SPRING, ELSET=WK_399

2.453384e-02
*ELEMENT, TYPE=SPRINGA, ELSET=WK_400
   93585,    74290,   101746
*SPRING, ELSET=WK_400

2.453384e-02
*ELEMENT, TYPE=SPRINGA, ELSET=WK_401
   93586,    74295,   101747
*SPRING, ELSET=WK_401

2.453384e-02
*ELEMENT, TYPE=SPRINGA, ELSET=WK_402
   93587,    74300,   101748
*SPRING, ELSET=WK_402

2.453384e-02
*ELEMENT, TYPE=SPRINGA, ELSET=WK_403
   93588,    74305,   101749
*SPRING, ELSET=WK_403

2.453384e-02
*ELEMENT, TYPE=SPRINGA, ELSET=WK_404
   93589,    74310,   101750
*SPRING, ELSET=WK_404

2.453384e-02
*ELEMENT, TYPE=SPRINGA, ELSET=WK_405
   93590,    74315,   101751
*SPRING, ELSET=WK_405

2.453384e-02
*ELEMENT, TYPE=SPRINGA, ELSET=WK_406
   93591,    74320,   101752
*SPRING, ELSET=WK_406

2.453384e-02
*ELEMENT, TYPE=SPRINGA, ELSET=WK_407
   93592,    74325,   101753
*SPRING, ELSET=WK_407

2.453384e-02
*ELEMENT, TYPE=SPRINGA, ELSET=WK_408
   93593,    74330,   101754
*SPRING, ELSET=WK_408

2.453384e-02
*ELEMENT, TYPE=SPRINGA, ELSET=WK_409
   93594,    74335,   101755
*SPRING, ELSET=WK_409

2.453384e-02
*ELEMENT, TYPE=SPRINGA, ELSET=WK_410
   93595,    74340,   101756
*SPRING, ELSET=WK_410

2.453384e-02
*ELEMENT, TYPE=SPRINGA, ELSET=WK_411
   93596,    74345,   101757
*SPRING, ELSET=WK_411

2.453384e-02
*ELEMENT, TYPE=SPRINGA, ELSET=WK_412
   93597,    74350,   101758
*SPRING, ELSET=WK_412

2.453384e-02
*ELEMENT, TYPE=SPRINGA, ELSET=WK_413
   93598,    74355,   101759
*SPRING, ELSET=WK_413

2.453384e-02
*ELEMENT, TYPE=SPRINGA, ELSET=WK_414
   93599,    74360,   101760
*SPRING, ELSET=WK_414

2.453384e-02
*ELEMENT, TYPE=SPRINGA, ELSET=WK_415
   93600,    74365,   101761
*SPRING, ELSET=WK_415

2.453384e-02
*ELEMENT, TYPE=SPRINGA, ELSET=WK_416
   93601,    74370,   101762
*SPRING, ELSET=WK_416

2.453384e-02
*ELEMENT, TYPE=SPRINGA, ELSET=WK_417
   93602,    74375,   101763
*SPRING, ELSET=WK_417

2.453384e-02
*ELEMENT, TYPE=SPRINGA, ELSET=WK_418
   93603,    74380,   101764
*SPRING, ELSET=WK_418

2.453384e-02
*ELEMENT, TYPE=SPRINGA, ELSET=WK_419
   93604,    74385,   101765
*SPRING, ELSET=WK_419

2.453384e-02
*ELEMENT, TYPE=SPRINGA, ELSET=WK_420
   93605,    74390,   101766
*SPRING, ELSET=WK_420

2.453384e-02
*ELEMENT, TYPE=SPRINGA, ELSET=WK_421
   93606,    74395,   101767
*SPRING, ELSET=WK_421

2.453384e-02
*ELEMENT, TYPE=SPRINGA, ELSET=WK_422
   93607,    74400,   101768
*SPRING, ELSET=WK_422

2.453384e-02
*ELEMENT, TYPE=SPRINGA, ELSET=WK_423
   93608,    74405,   101769
*SPRING, ELSET=WK_423

2.453384e-02
*ELEMENT, TYPE=SPRINGA, ELSET=WK_424
   93609,    74410,   101770
*SPRING, ELSET=WK_424

2.453384e-02
*ELEMENT, TYPE=SPRINGA, ELSET=WK_425
   93610,    74415,   101771
*SPRING, ELSET=WK_425

2.453384e-02
*ELEMENT, TYPE=SPRINGA, ELSET=WK_426
   93611,    74420,   101772
*SPRING, ELSET=WK_426

2.453384e-02
*ELEMENT, TYPE=SPRINGA, ELSET=WK_427
   93612,    74425,   101773
*SPRING, ELSET=WK_427

2.453384e-02
*ELEMENT, TYPE=SPRINGA, ELSET=WK_428
   93613,    74430,   101774
*SPRING, ELSET=WK_428

2.453384e-02
*ELEMENT, TYPE=SPRINGA, ELSET=WK_429
   93614,    74435,   101775
*SPRING, ELSET=WK_429

2.453384e-02
*ELEMENT, TYPE=SPRINGA, ELSET=WK_430
   93615,    74440,   101776
*SPRING, ELSET=WK_430

2.453384e-02
*ELEMENT, TYPE=SPRINGA, ELSET=WK_431
   93616,    74445,   101777
*SPRING, ELSET=WK_431

2.453384e-02
*ELEMENT, TYPE=SPRINGA, ELSET=WK_432
   93617,    74450,   101778
*SPRING, ELSET=WK_432

2.453384e-02
*ELEMENT, TYPE=SPRINGA, ELSET=WK_433
   93618,    74455,   101779
*SPRING, ELSET=WK_433

2.453384e-02
*ELEMENT, TYPE=SPRINGA, ELSET=WK_434
   93619,    74460,   101780
*SPRING, ELSET=WK_434

2.453384e-02
*ELEMENT, TYPE=SPRINGA, ELSET=WK_435
   93620,    74465,   101781
*SPRING, ELSET=WK_435

2.453384e-02
*ELEMENT, TYPE=SPRINGA, ELSET=WK_436
   93621,    74470,   101782
*SPRING, ELSET=WK_436

2.453384e-02
*ELEMENT, TYPE=SPRINGA, ELSET=WK_437
   93622,    74475,   101783
*SPRING, ELSET=WK_437

2.453384e-02
*ELEMENT, TYPE=SPRINGA, ELSET=WK_438
   93623,    74480,   101784
*SPRING, ELSET=WK_438

2.453384e-02
*ELEMENT, TYPE=SPRINGA, ELSET=WK_439
   93624,    74485,   101785
*SPRING, ELSET=WK_439

2.453384e-02
*ELEMENT, TYPE=SPRINGA, ELSET=WK_440
   93625,    74490,   101786
*SPRING, ELSET=WK_440

2.453384e-02
*ELEMENT, TYPE=SPRINGA, ELSET=WK_441
   93626,    74495,   101787
*SPRING, ELSET=WK_441

2.453384e-02
*ELEMENT, TYPE=SPRINGA, ELSET=WK_442
   93627,    74500,   101788
*SPRING, ELSET=WK_442

2.453384e-02
*ELEMENT, TYPE=SPRINGA, ELSET=WK_443
   93628,    74505,   101789
*SPRING, ELSET=WK_443

2.453384e-02
*ELEMENT, TYPE=SPRINGA, ELSET=WK_444
   93629,    74510,   101790
*SPRING, ELSET=WK_444

2.453384e-02
*ELEMENT, TYPE=SPRINGA, ELSET=WK_445
   93630,    74515,   101791
*SPRING, ELSET=WK_445

2.453384e-02
*ELEMENT, TYPE=SPRINGA, ELSET=WK_446
   93631,    74520,   101792
*SPRING, ELSET=WK_446

2.453384e-02
*ELEMENT, TYPE=SPRINGA, ELSET=WK_447
   93632,    74525,   101793
*SPRING, ELSET=WK_447

2.453384e-02
*ELEMENT, TYPE=SPRINGA, ELSET=WK_448
   93633,    74530,   101794
*SPRING, ELSET=WK_448

2.453384e-02
*ELEMENT, TYPE=SPRINGA, ELSET=WK_449
   93634,    74535,   101795
*SPRING, ELSET=WK_449

2.453384e-02
*ELEMENT, TYPE=SPRINGA, ELSET=WK_450
   93635,    74540,   101796
*SPRING, ELSET=WK_450

2.453384e-02
*ELEMENT, TYPE=SPRINGA, ELSET=WK_451
   93636,    74545,   101797
*SPRING, ELSET=WK_451

2.453384e-02
*ELEMENT, TYPE=SPRINGA, ELSET=WK_452
   93637,    74550,   101798
*SPRING, ELSET=WK_452

2.453384e-02
*ELEMENT, TYPE=SPRINGA, ELSET=WK_453
   93638,    74555,   101799
*SPRING, ELSET=WK_453

2.453384e-02
*ELEMENT, TYPE=SPRINGA, ELSET=WK_454
   93639,    74560,   101800
*SPRING, ELSET=WK_454

2.453384e-02
*ELEMENT, TYPE=SPRINGA, ELSET=WK_455
   93640,    74565,   101801
*SPRING, ELSET=WK_455

2.453384e-02
*ELEMENT, TYPE=SPRINGA, ELSET=WK_456
   93641,    74570,   101802
*SPRING, ELSET=WK_456

2.453384e-02
*ELEMENT, TYPE=SPRINGA, ELSET=WK_457
   93642,    74575,   101803
*SPRING, ELSET=WK_457

2.453384e-02
*ELEMENT, TYPE=SPRINGA, ELSET=WK_458
   93643,    74580,   101804
*SPRING, ELSET=WK_458

2.453384e-02
*ELEMENT, TYPE=SPRINGA, ELSET=WK_459
   93644,    74585,   101805
*SPRING, ELSET=WK_459

2.453384e-02
*ELEMENT, TYPE=SPRINGA, ELSET=WK_460
   93645,    74590,   101806
*SPRING, ELSET=WK_460

2.453384e-02
*ELEMENT, TYPE=SPRINGA, ELSET=WK_461
   93646,    74595,   101807
*SPRING, ELSET=WK_461

2.453384e-02
*ELEMENT, TYPE=SPRINGA, ELSET=WK_462
   93647,    74600,   101808
*SPRING, ELSET=WK_462

2.453384e-02
*ELEMENT, TYPE=SPRINGA, ELSET=WK_463
   93648,    74605,   101809
*SPRING, ELSET=WK_463

2.453384e-02
*ELEMENT, TYPE=SPRINGA, ELSET=WK_464
   93649,    74610,   101810
*SPRING, ELSET=WK_464

2.453384e-02
*ELEMENT, TYPE=SPRINGA, ELSET=WK_465
   93650,    74615,   101811
*SPRING, ELSET=WK_465

2.453384e-02
*ELEMENT, TYPE=SPRINGA, ELSET=WK_466
   93651,    74620,   101812
*SPRING, ELSET=WK_466

2.453384e-02
*ELEMENT, TYPE=SPRINGA, ELSET=WK_467
   93652,    74625,   101813
*SPRING, ELSET=WK_467

2.453384e-02
*ELEMENT, TYPE=SPRINGA, ELSET=WK_468
   93653,    74630,   101814
*SPRING, ELSET=WK_468

2.453384e-02
*ELEMENT, TYPE=SPRINGA, ELSET=WK_469
   93654,    74635,   101815
*SPRING, ELSET=WK_469

2.453384e-02
*ELEMENT, TYPE=SPRINGA, ELSET=WK_470
   93655,    74640,   101816
*SPRING, ELSET=WK_470

2.453384e-02
*ELEMENT, TYPE=SPRINGA, ELSET=WK_471
   93656,    74645,   101817
*SPRING, ELSET=WK_471

2.453384e-02
*ELEMENT, TYPE=SPRINGA, ELSET=WK_472
   93657,    74650,   101818
*SPRING, ELSET=WK_472

2.453384e-02
*ELEMENT, TYPE=SPRINGA, ELSET=WK_473
   93658,    74655,   101819
*SPRING, ELSET=WK_473

2.453384e-02
*ELEMENT, TYPE=SPRINGA, ELSET=WK_474
   93659,    74660,   101820
*SPRING, ELSET=WK_474

2.453384e-02
*ELEMENT, TYPE=SPRINGA, ELSET=WK_475
   93660,    74665,   101821
*SPRING, ELSET=WK_475

2.453384e-02
*ELEMENT, TYPE=SPRINGA, ELSET=WK_476
   93661,    74670,   101822
*SPRING, ELSET=WK_476

2.453384e-02
*ELEMENT, TYPE=SPRINGA, ELSET=WK_477
   93662,    74675,   101823
*SPRING, ELSET=WK_477

2.453384e-02
*ELEMENT, TYPE=SPRINGA, ELSET=WK_478
   93663,    74680,   101824
*SPRING, ELSET=WK_478

2.453384e-02
*ELEMENT, TYPE=SPRINGA, ELSET=WK_479
   93664,    74685,   101825
*SPRING, ELSET=WK_479

2.453384e-02
*ELEMENT, TYPE=SPRINGA, ELSET=WK_480
   93665,    74690,   101826
*SPRING, ELSET=WK_480

2.453384e-02
*ELEMENT, TYPE=SPRINGA, ELSET=WK_481
   93666,    74695,   101827
*SPRING, ELSET=WK_481

2.453384e-02
*ELEMENT, TYPE=SPRINGA, ELSET=WK_482
   93667,    74700,   101828
*SPRING, ELSET=WK_482

2.453384e-02
*ELEMENT, TYPE=SPRINGA, ELSET=WK_483
   93668,    74705,   101829
*SPRING, ELSET=WK_483

2.453384e-02
*ELEMENT, TYPE=SPRINGA, ELSET=WK_484
   93669,    74710,   101830
*SPRING, ELSET=WK_484

2.453384e-02
*ELEMENT, TYPE=SPRINGA, ELSET=WK_485
   93670,    74715,   101831
*SPRING, ELSET=WK_485

2.453384e-02
*ELEMENT, TYPE=SPRINGA, ELSET=WK_486
   93671,    74720,   101832
*SPRING, ELSET=WK_486

2.453384e-02
*ELEMENT, TYPE=SPRINGA, ELSET=WK_487
   93672,    74725,   101833
*SPRING, ELSET=WK_487

2.453384e-02
*ELEMENT, TYPE=SPRINGA, ELSET=WK_488
   93673,    74730,   101834
*SPRING, ELSET=WK_488

2.453384e-02
*ELEMENT, TYPE=SPRINGA, ELSET=WK_489
   93674,    74735,   101835
*SPRING, ELSET=WK_489

2.453384e-02
*ELEMENT, TYPE=SPRINGA, ELSET=WK_490
   93675,    74740,   101836
*SPRING, ELSET=WK_490

2.453384e-02
*ELEMENT, TYPE=SPRINGA, ELSET=WK_491
   93676,    74745,   101837
*SPRING, ELSET=WK_491

2.453384e-02
*ELEMENT, TYPE=SPRINGA, ELSET=WK_492
   93677,    74750,   101838
*SPRING, ELSET=WK_492

2.453384e-02
*ELEMENT, TYPE=SPRINGA, ELSET=WK_493
   93678,    74755,   101839
*SPRING, ELSET=WK_493

2.453384e-02
*ELEMENT, TYPE=SPRINGA, ELSET=WK_494
   93679,    74760,   101840
*SPRING, ELSET=WK_494

2.453384e-02
*ELEMENT, TYPE=SPRINGA, ELSET=WK_495
   93680,    74765,   101841
*SPRING, ELSET=WK_495

2.453384e-02
*ELEMENT, TYPE=SPRINGA, ELSET=WK_496
   93681,    74770,   101842
*SPRING, ELSET=WK_496

2.453384e-02
*ELEMENT, TYPE=SPRINGA, ELSET=WK_497
   93682,    74775,   101843
*SPRING, ELSET=WK_497

2.453384e-02
*ELEMENT, TYPE=SPRINGA, ELSET=WK_498
   93683,    74780,   101844
*SPRING, ELSET=WK_498

2.453384e-02
*ELEMENT, TYPE=SPRINGA, ELSET=WK_499
   93684,    74785,   101845
*SPRING, ELSET=WK_499

2.453384e-02
*ELEMENT, TYPE=SPRINGA, ELSET=WK_500
   93685,    74790,   101846
*SPRING, ELSET=WK_500

2.453384e-02
*ELEMENT, TYPE=SPRINGA, ELSET=WK_501
   93686,    74795,   101847
*SPRING, ELSET=WK_501

2.453384e-02
*ELEMENT, TYPE=SPRINGA, ELSET=WK_502
   93687,    74800,   101848
*SPRING, ELSET=WK_502

2.453384e-02
*ELEMENT, TYPE=SPRINGA, ELSET=WK_503
   93688,    74805,   101849
*SPRING, ELSET=WK_503

2.453384e-02
*ELEMENT, TYPE=SPRINGA, ELSET=WK_504
   93689,    74810,   101850
*SPRING, ELSET=WK_504

2.453384e-02
*ELEMENT, TYPE=SPRINGA, ELSET=WK_505
   93690,    74815,   101851
*SPRING, ELSET=WK_505

2.453384e-02
*ELEMENT, TYPE=SPRINGA, ELSET=WK_506
   93691,    74820,   101852
*SPRING, ELSET=WK_506

2.453384e-02
*ELEMENT, TYPE=SPRINGA, ELSET=WK_507
   93692,    74825,   101853
*SPRING, ELSET=WK_507

2.453384e-02
*ELEMENT, TYPE=SPRINGA, ELSET=WK_508
   93693,    74830,   101854
*SPRING, ELSET=WK_508

2.453384e-02
*ELEMENT, TYPE=SPRINGA, ELSET=WK_509
   93694,    74835,   101855
*SPRING, ELSET=WK_509

2.453384e-02
*ELEMENT, TYPE=SPRINGA, ELSET=WK_510
   93695,    74840,   101856
*SPRING, ELSET=WK_510

2.453384e-02
*ELEMENT, TYPE=SPRINGA, ELSET=WK_511
   93696,    74845,   101857
*SPRING, ELSET=WK_511

2.453384e-02
*ELEMENT, TYPE=SPRINGA, ELSET=WK_512
   93697,    74850,   101858
*SPRING, ELSET=WK_512

2.453384e-02
*ELEMENT, TYPE=SPRINGA, ELSET=WK_513
   93698,    74855,   101859
*SPRING, ELSET=WK_513

2.453384e-02
*ELEMENT, TYPE=SPRINGA, ELSET=WK_514
   93699,    74860,   101860
*SPRING, ELSET=WK_514

2.453384e-02
*ELEMENT, TYPE=SPRINGA, ELSET=WK_515
   93700,    74865,   101861
*SPRING, ELSET=WK_515

2.453384e-02
*ELEMENT, TYPE=SPRINGA, ELSET=WK_516
   93701,    74870,   101862
*SPRING, ELSET=WK_516

2.453384e-02
*ELEMENT, TYPE=SPRINGA, ELSET=WK_517
   93702,    74875,   101863
*SPRING, ELSET=WK_517

2.453384e-02
*ELEMENT, TYPE=SPRINGA, ELSET=WK_518
   93703,    74880,   101864
*SPRING, ELSET=WK_518

2.453384e-02
*ELEMENT, TYPE=SPRINGA, ELSET=WK_519
   93704,    74885,   101865
*SPRING, ELSET=WK_519

2.453384e-02
*ELEMENT, TYPE=SPRINGA, ELSET=WK_520
   93705,    74890,   101866
*SPRING, ELSET=WK_520

2.453384e-02
*ELEMENT, TYPE=SPRINGA, ELSET=WK_521
   93706,    74895,   101867
*SPRING, ELSET=WK_521

2.453384e-02
*ELEMENT, TYPE=SPRINGA, ELSET=WK_522
   93707,    74900,   101868
*SPRING, ELSET=WK_522

2.453384e-02
*ELEMENT, TYPE=SPRINGA, ELSET=WK_523
   93708,    74905,   101869
*SPRING, ELSET=WK_523

2.453384e-02
*ELEMENT, TYPE=SPRINGA, ELSET=WK_524
   93709,    74910,   101870
*SPRING, ELSET=WK_524

2.453384e-02
*ELEMENT, TYPE=SPRINGA, ELSET=WK_525
   93710,    74915,   101871
*SPRING, ELSET=WK_525

2.453384e-02
*ELEMENT, TYPE=SPRINGA, ELSET=WK_526
   93711,    74920,   101872
*SPRING, ELSET=WK_526

2.453384e-02
*ELEMENT, TYPE=SPRINGA, ELSET=WK_527
   93712,    74925,   101873
*SPRING, ELSET=WK_527

2.453384e-02
*ELEMENT, TYPE=SPRINGA, ELSET=WK_528
   93713,    74930,   101874
*SPRING, ELSET=WK_528

2.453384e-02
*ELEMENT, TYPE=SPRINGA, ELSET=WK_529
   93714,    74935,   101875
*SPRING, ELSET=WK_529

2.453384e-02
*ELEMENT, TYPE=SPRINGA, ELSET=WK_530
   93715,    74940,   101876
*SPRING, ELSET=WK_530

2.453384e-02
*ELEMENT, TYPE=SPRINGA, ELSET=WK_531
   93716,    74945,   101877
*SPRING, ELSET=WK_531

2.453384e-02
*ELEMENT, TYPE=SPRINGA, ELSET=WK_532
   93717,    74950,   101878
*SPRING, ELSET=WK_532

2.453384e-02
*ELEMENT, TYPE=SPRINGA, ELSET=WK_533
   93718,    74955,   101879
*SPRING, ELSET=WK_533

2.453384e-02
*ELEMENT, TYPE=SPRINGA, ELSET=WK_534
   93719,    74960,   101880
*SPRING, ELSET=WK_534

2.453384e-02
*ELEMENT, TYPE=SPRINGA, ELSET=WK_535
   93720,    74965,   101881
*SPRING, ELSET=WK_535

2.453384e-02
*ELEMENT, TYPE=SPRINGA, ELSET=WK_536
   93721,    74970,   101882
*SPRING, ELSET=WK_536

2.453384e-02
*ELEMENT, TYPE=SPRINGA, ELSET=WK_537
   93722,    74975,   101883
*SPRING, ELSET=WK_537

2.453384e-02
*ELEMENT, TYPE=SPRINGA, ELSET=WK_538
   93723,    74980,   101884
*SPRING, ELSET=WK_538

2.453384e-02
*ELEMENT, TYPE=SPRINGA, ELSET=WK_539
   93724,    74985,   101885
*SPRING, ELSET=WK_539

2.453384e-02
*ELEMENT, TYPE=SPRINGA, ELSET=WK_540
   93725,    74990,   101886
*SPRING, ELSET=WK_540

2.453384e-02
*ELEMENT, TYPE=SPRINGA, ELSET=WK_541
   93726,    74995,   101887
*SPRING, ELSET=WK_541

2.453384e-02
*ELEMENT, TYPE=SPRINGA, ELSET=WK_542
   93727,    75000,   101888
*SPRING, ELSET=WK_542

2.453384e-02
*ELEMENT, TYPE=SPRINGA, ELSET=WK_543
   93728,    75005,   101889
*SPRING, ELSET=WK_543

2.453384e-02
*ELEMENT, TYPE=SPRINGA, ELSET=WK_544
   93729,    75010,   101890
*SPRING, ELSET=WK_544

2.453384e-02
*ELEMENT, TYPE=SPRINGA, ELSET=WK_545
   93730,    75015,   101891
*SPRING, ELSET=WK_545

2.453384e-02
*ELEMENT, TYPE=SPRINGA, ELSET=WK_546
   93731,    75020,   101892
*SPRING, ELSET=WK_546

2.453384e-02
*ELEMENT, TYPE=SPRINGA, ELSET=WK_547
   93732,    75025,   101893
*SPRING, ELSET=WK_547

2.453384e-02
*ELEMENT, TYPE=SPRINGA, ELSET=WK_548
   93733,    75030,   101894
*SPRING, ELSET=WK_548

2.453384e-02
*ELEMENT, TYPE=SPRINGA, ELSET=WK_549
   93734,    75035,   101895
*SPRING, ELSET=WK_549

2.453384e-02
*ELEMENT, TYPE=SPRINGA, ELSET=WK_550
   93735,    75040,   101896
*SPRING, ELSET=WK_550

2.453384e-02
*ELEMENT, TYPE=SPRINGA, ELSET=WK_551
   93736,    75045,   101897
*SPRING, ELSET=WK_551

2.453384e-02
*ELEMENT, TYPE=SPRINGA, ELSET=WK_552
   93737,    75050,   101898
*SPRING, ELSET=WK_552

2.453384e-02
*ELEMENT, TYPE=SPRINGA, ELSET=WK_553
   93738,    75055,   101899
*SPRING, ELSET=WK_553

2.453384e-02
*ELEMENT, TYPE=SPRINGA, ELSET=WK_554
   93739,    75060,   101900
*SPRING, ELSET=WK_554

2.453384e-02
*ELEMENT, TYPE=SPRINGA, ELSET=WK_555
   93740,    75065,   101901
*SPRING, ELSET=WK_555

2.453384e-02
*ELEMENT, TYPE=SPRINGA, ELSET=WK_556
   93741,    75070,   101902
*SPRING, ELSET=WK_556

2.453384e-02
*ELEMENT, TYPE=SPRINGA, ELSET=WK_557
   93742,    75075,   101903
*SPRING, ELSET=WK_557

2.453384e-02
*ELEMENT, TYPE=SPRINGA, ELSET=WK_558
   93743,    75080,   101904
*SPRING, ELSET=WK_558

2.453384e-02
*ELEMENT, TYPE=SPRINGA, ELSET=WK_559
   93744,    75085,   101905
*SPRING, ELSET=WK_559

2.453384e-02
*ELEMENT, TYPE=SPRINGA, ELSET=WK_560
   93745,    75090,   101906
*SPRING, ELSET=WK_560

2.453384e-02
*ELEMENT, TYPE=SPRINGA, ELSET=WK_561
   93746,    75095,   101907
*SPRING, ELSET=WK_561

2.453384e-02
*ELEMENT, TYPE=SPRINGA, ELSET=WK_562
   93747,    75100,   101908
*SPRING, ELSET=WK_562

2.453384e-02
*ELEMENT, TYPE=SPRINGA, ELSET=WK_563
   93748,    75105,   101909
*SPRING, ELSET=WK_563

2.453384e-02
*ELEMENT, TYPE=SPRINGA, ELSET=WK_564
   93749,    75110,   101910
*SPRING, ELSET=WK_564

2.453384e-02
*ELEMENT, TYPE=SPRINGA, ELSET=WK_565
   93750,    75115,   101911
*SPRING, ELSET=WK_565

2.453384e-02
*ELEMENT, TYPE=SPRINGA, ELSET=WK_566
   93751,    75120,   101912
*SPRING, ELSET=WK_566

2.453384e-02
*ELEMENT, TYPE=SPRINGA, ELSET=WK_567
   93752,    75125,   101913
*SPRING, ELSET=WK_567

2.453384e-02
*ELEMENT, TYPE=SPRINGA, ELSET=WK_568
   93753,    75130,   101914
*SPRING, ELSET=WK_568

2.453384e-02
*ELEMENT, TYPE=SPRINGA, ELSET=WK_569
   93754,    75135,   101915
*SPRING, ELSET=WK_569

2.453384e-02
*ELEMENT, TYPE=SPRINGA, ELSET=WK_570
   93755,    75140,   101916
*SPRING, ELSET=WK_570

2.453384e-02
*ELEMENT, TYPE=SPRINGA, ELSET=WK_571
   93756,    75145,   101917
*SPRING, ELSET=WK_571

2.453384e-02
*ELEMENT, TYPE=SPRINGA, ELSET=WK_572
   93757,    75150,   101918
*SPRING, ELSET=WK_572

2.453384e-02
*ELEMENT, TYPE=SPRINGA, ELSET=WK_573
   93758,    75155,   101919
*SPRING, ELSET=WK_573

2.453384e-02
*ELEMENT, TYPE=SPRINGA, ELSET=WK_574
   93759,    75160,   101920
*SPRING, ELSET=WK_574

2.453384e-02
*ELEMENT, TYPE=SPRINGA, ELSET=WK_575
   93760,    75165,   101921
*SPRING, ELSET=WK_575

2.453384e-02
*ELEMENT, TYPE=SPRINGA, ELSET=WK_576
   93761,    75170,   101922
*SPRING, ELSET=WK_576

2.453384e-02
*ELEMENT, TYPE=SPRINGA, ELSET=WK_577
   93762,    75175,   101923
*SPRING, ELSET=WK_577

2.453384e-02
*ELEMENT, TYPE=SPRINGA, ELSET=WK_578
   93763,    75180,   101924
*SPRING, ELSET=WK_578

2.453384e-02
*ELEMENT, TYPE=SPRINGA, ELSET=WK_579
   93764,    75185,   101925
*SPRING, ELSET=WK_579

2.453384e-02
*ELEMENT, TYPE=SPRINGA, ELSET=WK_580
   93765,    75190,   101926
*SPRING, ELSET=WK_580

2.453384e-02
*ELEMENT, TYPE=SPRINGA, ELSET=WK_581
   93766,    75195,   101927
*SPRING, ELSET=WK_581

2.453384e-02
*ELEMENT, TYPE=SPRINGA, ELSET=WK_582
   93767,    75200,   101928
*SPRING, ELSET=WK_582

2.453384e-02
*ELEMENT, TYPE=SPRINGA, ELSET=WK_583
   93768,    75205,   101929
*SPRING, ELSET=WK_583

2.453384e-02
*ELEMENT, TYPE=SPRINGA, ELSET=WK_584
   93769,    75210,   101930
*SPRING, ELSET=WK_584

2.453384e-02
*ELEMENT, TYPE=SPRINGA, ELSET=WK_585
   93770,    75215,   101931
*SPRING, ELSET=WK_585

2.453384e-02
*ELEMENT, TYPE=SPRINGA, ELSET=WK_586
   93771,    75220,   101932
*SPRING, ELSET=WK_586

2.453384e-02
*ELEMENT, TYPE=SPRINGA, ELSET=WK_587
   93772,    75225,   101933
*SPRING, ELSET=WK_587

2.453384e-02
*ELEMENT, TYPE=SPRINGA, ELSET=WK_588
   93773,    75230,   101934
*SPRING, ELSET=WK_588

2.453384e-02
*ELEMENT, TYPE=SPRINGA, ELSET=WK_589
   93774,    75235,   101935
*SPRING, ELSET=WK_589

2.453384e-02
*ELEMENT, TYPE=SPRINGA, ELSET=WK_590
   93775,    75240,   101936
*SPRING, ELSET=WK_590

2.453384e-02
*ELEMENT, TYPE=SPRINGA, ELSET=WK_591
   93776,    75245,   101937
*SPRING, ELSET=WK_591

2.453384e-02
*ELEMENT, TYPE=SPRINGA, ELSET=WK_592
   93777,    75250,   101938
*SPRING, ELSET=WK_592

2.453384e-02
*ELEMENT, TYPE=SPRINGA, ELSET=WK_593
   93778,    75255,   101939
*SPRING, ELSET=WK_593

2.453384e-02
*ELEMENT, TYPE=SPRINGA, ELSET=WK_594
   93779,    75260,   101940
*SPRING, ELSET=WK_594

2.453384e-02
*ELEMENT, TYPE=SPRINGA, ELSET=WK_595
   93780,    75265,   101941
*SPRING, ELSET=WK_595

2.453384e-02
*ELEMENT, TYPE=SPRINGA, ELSET=WK_596
   93781,    75270,   101942
*SPRING, ELSET=WK_596

2.453384e-02
*ELEMENT, TYPE=SPRINGA, ELSET=WK_597
   93782,    75275,   101943
*SPRING, ELSET=WK_597

2.453384e-02
*ELEMENT, TYPE=SPRINGA, ELSET=WK_598
   93783,    75280,   101944
*SPRING, ELSET=WK_598

2.453384e-02
*ELEMENT, TYPE=SPRINGA, ELSET=WK_599
   93784,    75285,   101945
*SPRING, ELSET=WK_599

2.453384e-02
*ELEMENT, TYPE=SPRINGA, ELSET=WK_600
   93785,    75290,   101946
*SPRING, ELSET=WK_600

2.453384e-02
*ELEMENT, TYPE=SPRINGA, ELSET=WK_601
   93786,    75295,   101947
*SPRING, ELSET=WK_601

2.453384e-02
*ELEMENT, TYPE=SPRINGA, ELSET=WK_602
   93787,    75300,   101948
*SPRING, ELSET=WK_602

2.453384e-02
*ELEMENT, TYPE=SPRINGA, ELSET=WK_603
   93788,    75305,   101949
*SPRING, ELSET=WK_603

2.453384e-02
*ELEMENT, TYPE=SPRINGA, ELSET=WK_604
   93789,    75310,   101950
*SPRING, ELSET=WK_604

2.453384e-02
*ELEMENT, TYPE=SPRINGA, ELSET=WK_605
   93790,    75315,   101951
*SPRING, ELSET=WK_605

2.453384e-02
*ELEMENT, TYPE=SPRINGA, ELSET=WK_606
   93791,    75320,   101952
*SPRING, ELSET=WK_606

2.453384e-02
*ELEMENT, TYPE=SPRINGA, ELSET=WK_607
   93792,    75325,   101953
*SPRING, ELSET=WK_607

2.453384e-02
*ELEMENT, TYPE=SPRINGA, ELSET=WK_608
   93793,    75330,   101954
*SPRING, ELSET=WK_608

2.453384e-02
*ELEMENT, TYPE=SPRINGA, ELSET=WK_609
   93794,    75335,   101955
*SPRING, ELSET=WK_609

2.453384e-02
*ELEMENT, TYPE=SPRINGA, ELSET=WK_610
   93795,    75340,   101956
*SPRING, ELSET=WK_610

2.453384e-02
*ELEMENT, TYPE=SPRINGA, ELSET=WK_611
   93796,    75345,   101957
*SPRING, ELSET=WK_611

2.453384e-02
*ELEMENT, TYPE=SPRINGA, ELSET=WK_612
   93797,    75350,   101958
*SPRING, ELSET=WK_612

2.453384e-02
*ELEMENT, TYPE=SPRINGA, ELSET=WK_613
   93798,    75355,   101959
*SPRING, ELSET=WK_613

2.453384e-02
*ELEMENT, TYPE=SPRINGA, ELSET=WK_614
   93799,    75360,   101960
*SPRING, ELSET=WK_614

2.453384e-02
*ELEMENT, TYPE=SPRINGA, ELSET=WK_615
   93800,    75365,   101961
*SPRING, ELSET=WK_615

2.453384e-02
*ELEMENT, TYPE=SPRINGA, ELSET=WK_616
   93801,    75370,   101962
*SPRING, ELSET=WK_616

2.453384e-02
*ELEMENT, TYPE=SPRINGA, ELSET=WK_617
   93802,    75375,   101963
*SPRING, ELSET=WK_617

2.453384e-02
*ELEMENT, TYPE=SPRINGA, ELSET=WK_618
   93803,    75380,   101964
*SPRING, ELSET=WK_618

2.453384e-02
*ELEMENT, TYPE=SPRINGA, ELSET=WK_619
   93804,    75385,   101965
*SPRING, ELSET=WK_619

2.453384e-02
*ELEMENT, TYPE=SPRINGA, ELSET=WK_620
   93805,    75390,   101966
*SPRING, ELSET=WK_620

2.453384e-02
*ELEMENT, TYPE=SPRINGA, ELSET=WK_621
   93806,    75395,   101967
*SPRING, ELSET=WK_621

2.453384e-02
*ELEMENT, TYPE=SPRINGA, ELSET=WK_622
   93807,    75400,   101968
*SPRING, ELSET=WK_622

2.453384e-02
*ELEMENT, TYPE=SPRINGA, ELSET=WK_623
   93808,    75405,   101969
*SPRING, ELSET=WK_623

2.453384e-02
*ELEMENT, TYPE=SPRINGA, ELSET=WK_624
   93809,    75410,   101970
*SPRING, ELSET=WK_624

2.453384e-02
*ELEMENT, TYPE=SPRINGA, ELSET=WK_625
   93810,    75415,   101971
*SPRING, ELSET=WK_625

2.453384e-02
*ELEMENT, TYPE=SPRINGA, ELSET=WK_626
   93811,    75420,   101972
*SPRING, ELSET=WK_626

2.453384e-02
*ELEMENT, TYPE=SPRINGA, ELSET=WK_627
   93812,    75425,   101973
*SPRING, ELSET=WK_627

2.453384e-02
*ELEMENT, TYPE=SPRINGA, ELSET=WK_628
   93813,    75430,   101974
*SPRING, ELSET=WK_628

2.453384e-02
*ELEMENT, TYPE=SPRINGA, ELSET=WK_629
   93814,    75435,   101975
*SPRING, ELSET=WK_629

2.453384e-02
*ELEMENT, TYPE=SPRINGA, ELSET=WK_630
   93815,    75440,   101976
*SPRING, ELSET=WK_630

2.453384e-02
*ELEMENT, TYPE=SPRINGA, ELSET=WK_631
   93816,    75445,   101977
*SPRING, ELSET=WK_631

2.453384e-02
*ELEMENT, TYPE=SPRINGA, ELSET=WK_632
   93817,    75450,   101978
*SPRING, ELSET=WK_632

2.453384e-02
*ELEMENT, TYPE=SPRINGA, ELSET=WK_633
   93818,    75455,   101979
*SPRING, ELSET=WK_633

2.453384e-02
*ELEMENT, TYPE=SPRINGA, ELSET=WK_634
   93819,    75460,   101980
*SPRING, ELSET=WK_634

2.453384e-02
*ELEMENT, TYPE=SPRINGA, ELSET=WK_635
   93820,    75465,   101981
*SPRING, ELSET=WK_635

2.453384e-02
*ELEMENT, TYPE=SPRINGA, ELSET=WK_636
   93821,    75470,   101982
*SPRING, ELSET=WK_636

2.453384e-02
*ELEMENT, TYPE=SPRINGA, ELSET=WK_637
   93822,    75475,   101983
*SPRING, ELSET=WK_637

2.453384e-02
*ELEMENT, TYPE=SPRINGA, ELSET=WK_638
   93823,    75480,   101984
*SPRING, ELSET=WK_638

2.453384e-02
*ELEMENT, TYPE=SPRINGA, ELSET=WK_639
   93824,    75485,   101985
*SPRING, ELSET=WK_639

2.453384e-02
*ELEMENT, TYPE=SPRINGA, ELSET=WK_640
   93825,    75490,   101986
*SPRING, ELSET=WK_640

2.453384e-02
*ELEMENT, TYPE=SPRINGA, ELSET=WK_641
   93826,    75495,   101987
*SPRING, ELSET=WK_641

2.453384e-02
*ELEMENT, TYPE=SPRINGA, ELSET=WK_642
   93827,    75500,   101988
*SPRING, ELSET=WK_642

2.453384e-02
*ELEMENT, TYPE=SPRINGA, ELSET=WK_643
   93828,    75505,   101989
*SPRING, ELSET=WK_643

2.453384e-02
*ELEMENT, TYPE=SPRINGA, ELSET=WK_644
   93829,    75510,   101990
*SPRING, ELSET=WK_644

2.453384e-02
*ELEMENT, TYPE=SPRINGA, ELSET=WK_645
   93830,    75515,   101991
*SPRING, ELSET=WK_645

2.453384e-02
*ELEMENT, TYPE=SPRINGA, ELSET=WK_646
   93831,    75520,   101992
*SPRING, ELSET=WK_646

2.453384e-02
*ELEMENT, TYPE=SPRINGA, ELSET=WK_647
   93832,    75525,   101993
*SPRING, ELSET=WK_647

2.453384e-02
*ELEMENT, TYPE=SPRINGA, ELSET=WK_648
   93833,    75530,   101994
*SPRING, ELSET=WK_648

2.453384e-02
*ELEMENT, TYPE=SPRINGA, ELSET=WK_649
   93834,    75535,   101995
*SPRING, ELSET=WK_649

2.453384e-02
*ELEMENT, TYPE=SPRINGA, ELSET=WK_650
   93835,    75540,   101996
*SPRING, ELSET=WK_650

2.453384e-02
*ELEMENT, TYPE=SPRINGA, ELSET=WK_651
   93836,    75545,   101997
*SPRING, ELSET=WK_651

2.453384e-02
*ELEMENT, TYPE=SPRINGA, ELSET=WK_652
   93837,    75550,   101998
*SPRING, ELSET=WK_652

2.453384e-02
*ELEMENT, TYPE=SPRINGA, ELSET=WK_653
   93838,    75555,   101999
*SPRING, ELSET=WK_653

2.453384e-02
*ELEMENT, TYPE=SPRINGA, ELSET=WK_654
   93839,    75560,   102000
*SPRING, ELSET=WK_654

2.453384e-02
*ELEMENT, TYPE=SPRINGA, ELSET=WK_655
   93840,    75565,   102001
*SPRING, ELSET=WK_655

2.453384e-02
*ELEMENT, TYPE=SPRINGA, ELSET=WK_656
   93841,    75570,   102002
*SPRING, ELSET=WK_656

2.453384e-02
*ELEMENT, TYPE=SPRINGA, ELSET=WK_657
   93842,    75575,   102003
*SPRING, ELSET=WK_657

2.453384e-02
*ELEMENT, TYPE=SPRINGA, ELSET=WK_658
   93843,    75580,   102004
*SPRING, ELSET=WK_658

2.453384e-02
*ELEMENT, TYPE=SPRINGA, ELSET=WK_659
   93844,    75585,   102005
*SPRING, ELSET=WK_659

2.453384e-02
*ELEMENT, TYPE=SPRINGA, ELSET=WK_660
   93845,    75590,   102006
*SPRING, ELSET=WK_660

2.453384e-02
*ELEMENT, TYPE=SPRINGA, ELSET=WK_661
   93846,    75595,   102007
*SPRING, ELSET=WK_661

2.453384e-02
*ELEMENT, TYPE=SPRINGA, ELSET=WK_662
   93847,    75600,   102008
*SPRING, ELSET=WK_662

2.453384e-02
*ELEMENT, TYPE=SPRINGA, ELSET=WK_663
   93848,    75605,   102009
*SPRING, ELSET=WK_663

2.453384e-02
*ELEMENT, TYPE=SPRINGA, ELSET=WK_664
   93849,    75610,   102010
*SPRING, ELSET=WK_664

2.453384e-02
*ELEMENT, TYPE=SPRINGA, ELSET=WK_665
   93850,    75615,   102011
*SPRING, ELSET=WK_665

2.453384e-02
*ELEMENT, TYPE=SPRINGA, ELSET=WK_666
   93851,    75620,   102012
*SPRING, ELSET=WK_666

2.453384e-02
*ELEMENT, TYPE=SPRINGA, ELSET=WK_667
   93852,    75625,   102013
*SPRING, ELSET=WK_667

2.453384e-02
*ELEMENT, TYPE=SPRINGA, ELSET=WK_668
   93853,    75630,   102014
*SPRING, ELSET=WK_668

2.453384e-02
*ELEMENT, TYPE=SPRINGA, ELSET=WK_669
   93854,    75635,   102015
*SPRING, ELSET=WK_669

2.453384e-02
*ELEMENT, TYPE=SPRINGA, ELSET=WK_670
   93855,    75640,   102016
*SPRING, ELSET=WK_670

2.453384e-02
*ELEMENT, TYPE=SPRINGA, ELSET=WK_671
   93856,    75645,   102017
*SPRING, ELSET=WK_671

2.453384e-02
*ELEMENT, TYPE=SPRINGA, ELSET=WK_672
   93857,    75650,   102018
*SPRING, ELSET=WK_672

2.453384e-02
*ELEMENT, TYPE=SPRINGA, ELSET=WK_673
   93858,    75655,   102019
*SPRING, ELSET=WK_673

2.453384e-02
*ELEMENT, TYPE=SPRINGA, ELSET=WK_674
   93859,    75660,   102020
*SPRING, ELSET=WK_674

2.453384e-02
*ELEMENT, TYPE=SPRINGA, ELSET=WK_675
   93860,    75665,   102021
*SPRING, ELSET=WK_675

2.453384e-02
*ELEMENT, TYPE=SPRINGA, ELSET=WK_676
   93861,    75670,   102022
*SPRING, ELSET=WK_676

2.453384e-02
*ELEMENT, TYPE=SPRINGA, ELSET=WK_677
   93862,    75675,   102023
*SPRING, ELSET=WK_677

2.453384e-02
*ELEMENT, TYPE=SPRINGA, ELSET=WK_678
   93863,    75680,   102024
*SPRING, ELSET=WK_678

2.453384e-02
*ELEMENT, TYPE=SPRINGA, ELSET=WK_679
   93864,    75685,   102025
*SPRING, ELSET=WK_679

2.453384e-02
*ELEMENT, TYPE=SPRINGA, ELSET=WK_680
   93865,    75690,   102026
*SPRING, ELSET=WK_680

2.453384e-02
*ELEMENT, TYPE=SPRINGA, ELSET=WK_681
   93866,    75695,   102027
*SPRING, ELSET=WK_681

2.453384e-02
*ELEMENT, TYPE=SPRINGA, ELSET=WK_682
   93867,    75700,   102028
*SPRING, ELSET=WK_682

2.453384e-02
*ELEMENT, TYPE=SPRINGA, ELSET=WK_683
   93868,    75705,   102029
*SPRING, ELSET=WK_683

2.453384e-02
*ELEMENT, TYPE=SPRINGA, ELSET=WK_684
   93869,    75710,   102030
*SPRING, ELSET=WK_684

2.453384e-02
*ELEMENT, TYPE=SPRINGA, ELSET=WK_685
   93870,    75715,   102031
*SPRING, ELSET=WK_685

2.453384e-02
*ELEMENT, TYPE=SPRINGA, ELSET=WK_686
   93871,    75720,   102032
*SPRING, ELSET=WK_686

2.453384e-02
*ELEMENT, TYPE=SPRINGA, ELSET=WK_687
   93872,    75725,   102033
*SPRING, ELSET=WK_687

2.453384e-02
*ELEMENT, TYPE=SPRINGA, ELSET=WK_688
   93873,    75730,   102034
*SPRING, ELSET=WK_688

2.453384e-02
*ELEMENT, TYPE=SPRINGA, ELSET=WK_689
   93874,    75735,   102035
*SPRING, ELSET=WK_689

2.453384e-02
*ELEMENT, TYPE=SPRINGA, ELSET=WK_690
   93875,    75740,   102036
*SPRING, ELSET=WK_690

2.453384e-02
*ELEMENT, TYPE=SPRINGA, ELSET=WK_691
   93876,    75745,   102037
*SPRING, ELSET=WK_691

2.453384e-02
*ELEMENT, TYPE=SPRINGA, ELSET=WK_692
   93877,    75750,   102038
*SPRING, ELSET=WK_692

2.453384e-02
*ELEMENT, TYPE=SPRINGA, ELSET=WK_693
   93878,    75755,   102039
*SPRING, ELSET=WK_693

2.453384e-02
*ELEMENT, TYPE=SPRINGA, ELSET=WK_694
   93879,    75760,   102040
*SPRING, ELSET=WK_694

2.453384e-02
*ELEMENT, TYPE=SPRINGA, ELSET=WK_695
   93880,    75765,   102041
*SPRING, ELSET=WK_695

2.453384e-02
*ELEMENT, TYPE=SPRINGA, ELSET=WK_696
   93881,    75770,   102042
*SPRING, ELSET=WK_696

2.453384e-02
*ELEMENT, TYPE=SPRINGA, ELSET=WK_697
   93882,    75775,   102043
*SPRING, ELSET=WK_697

2.453384e-02
*ELEMENT, TYPE=SPRINGA, ELSET=WK_698
   93883,    75780,   102044
*SPRING, ELSET=WK_698

2.453384e-02
*ELEMENT, TYPE=SPRINGA, ELSET=WK_699
   93884,    75785,   102045
*SPRING, ELSET=WK_699

2.453384e-02
*ELEMENT, TYPE=SPRINGA, ELSET=WK_700
   93885,    75790,   102046
*SPRING, ELSET=WK_700

2.453384e-02
*ELEMENT, TYPE=SPRINGA, ELSET=WK_701
   93886,    75795,   102047
*SPRING, ELSET=WK_701

2.453384e-02
*ELEMENT, TYPE=SPRINGA, ELSET=WK_702
   93887,    75800,   102048
*SPRING, ELSET=WK_702

2.453384e-02
*ELEMENT, TYPE=SPRINGA, ELSET=WK_703
   93888,    75805,   102049
*SPRING, ELSET=WK_703

2.453384e-02
*ELEMENT, TYPE=SPRINGA, ELSET=WK_704
   93889,    75810,   102050
*SPRING, ELSET=WK_704

2.453384e-02
*ELEMENT, TYPE=SPRINGA, ELSET=WK_705
   93890,    75815,   102051
*SPRING, ELSET=WK_705

2.453384e-02
*ELEMENT, TYPE=SPRINGA, ELSET=WK_706
   93891,    75820,   102052
*SPRING, ELSET=WK_706

2.453384e-02
*ELEMENT, TYPE=SPRINGA, ELSET=WK_707
   93892,    75825,   102053
*SPRING, ELSET=WK_707

2.453384e-02
*ELEMENT, TYPE=SPRINGA, ELSET=WK_708
   93893,    75830,   102054
*SPRING, ELSET=WK_708

2.453384e-02
*ELEMENT, TYPE=SPRINGA, ELSET=WK_709
   93894,    75835,   102055
*SPRING, ELSET=WK_709

2.453384e-02
*ELEMENT, TYPE=SPRINGA, ELSET=WK_710
   93895,    75840,   102056
*SPRING, ELSET=WK_710

2.453384e-02
*ELEMENT, TYPE=SPRINGA, ELSET=WK_711
   93896,    75845,   102057
*SPRING, ELSET=WK_711

2.453384e-02
*ELEMENT, TYPE=SPRINGA, ELSET=WK_712
   93897,    75850,   102058
*SPRING, ELSET=WK_712

2.453384e-02
*ELEMENT, TYPE=SPRINGA, ELSET=WK_713
   93898,    75855,   102059
*SPRING, ELSET=WK_713

2.453384e-02
*ELEMENT, TYPE=SPRINGA, ELSET=WK_714
   93899,    75860,   102060
*SPRING, ELSET=WK_714

2.453384e-02
*ELEMENT, TYPE=SPRINGA, ELSET=WK_715
   93900,    75865,   102061
*SPRING, ELSET=WK_715

2.453384e-02
*ELEMENT, TYPE=SPRINGA, ELSET=WK_716
   93901,    75870,   102062
*SPRING, ELSET=WK_716

2.453384e-02
*ELEMENT, TYPE=SPRINGA, ELSET=WK_717
   93902,    75875,   102063
*SPRING, ELSET=WK_717

2.453384e-02
*ELEMENT, TYPE=SPRINGA, ELSET=WK_718
   93903,    75880,   102064
*SPRING, ELSET=WK_718

2.453384e-02
*ELEMENT, TYPE=SPRINGA, ELSET=WK_719
   93904,    75885,   102065
*SPRING, ELSET=WK_719

2.453384e-02
*ELEMENT, TYPE=SPRINGA, ELSET=WK_720
   93905,    75890,   102066
*SPRING, ELSET=WK_720

2.453384e-02
*ELEMENT, TYPE=SPRINGA, ELSET=WK_721
   93906,    75895,   102067
*SPRING, ELSET=WK_721

2.453384e-02
*ELEMENT, TYPE=SPRINGA, ELSET=WK_722
   93907,    75900,   102068
*SPRING, ELSET=WK_722

2.453384e-02
*ELEMENT, TYPE=SPRINGA, ELSET=WK_723
   93908,    75905,   102069
*SPRING, ELSET=WK_723

2.453384e-02
*ELEMENT, TYPE=SPRINGA, ELSET=WK_724
   93909,    75910,   102070
*SPRING, ELSET=WK_724

2.453384e-02
*ELEMENT, TYPE=SPRINGA, ELSET=WK_725
   93910,    75915,   102071
*SPRING, ELSET=WK_725

2.453384e-02
*ELEMENT, TYPE=SPRINGA, ELSET=WK_726
   93911,    75920,   102072
*SPRING, ELSET=WK_726

2.453384e-02
*ELEMENT, TYPE=SPRINGA, ELSET=WK_727
   93912,    75925,   102073
*SPRING, ELSET=WK_727

2.453384e-02
*ELEMENT, TYPE=SPRINGA, ELSET=WK_728
   93913,    75930,   102074
*SPRING, ELSET=WK_728

2.453384e-02
*ELEMENT, TYPE=SPRINGA, ELSET=WK_729
   93914,    75935,   102075
*SPRING, ELSET=WK_729

2.453384e-02
*ELEMENT, TYPE=SPRINGA, ELSET=WK_730
   93915,    75940,   102076
*SPRING, ELSET=WK_730

2.453384e-02
*ELEMENT, TYPE=SPRINGA, ELSET=WK_731
   93916,    75945,   102077
*SPRING, ELSET=WK_731

2.453384e-02
*ELEMENT, TYPE=SPRINGA, ELSET=WK_732
   93917,    75950,   102078
*SPRING, ELSET=WK_732

2.453384e-02
*ELEMENT, TYPE=SPRINGA, ELSET=WK_733
   93918,    75955,   102079
*SPRING, ELSET=WK_733

2.453384e-02
*ELEMENT, TYPE=SPRINGA, ELSET=WK_734
   93919,    75960,   102080
*SPRING, ELSET=WK_734

2.453384e-02
*ELEMENT, TYPE=SPRINGA, ELSET=WK_735
   93920,    75965,   102081
*SPRING, ELSET=WK_735

2.453384e-02
*ELEMENT, TYPE=SPRINGA, ELSET=WK_736
   93921,    75970,   102082
*SPRING, ELSET=WK_736

2.453384e-02
*ELEMENT, TYPE=SPRINGA, ELSET=WK_737
   93922,    75975,   102083
*SPRING, ELSET=WK_737

2.453384e-02
*ELEMENT, TYPE=SPRINGA, ELSET=WK_738
   93923,    75980,   102084
*SPRING, ELSET=WK_738

2.453384e-02
*ELEMENT, TYPE=SPRINGA, ELSET=WK_739
   93924,    75985,   102085
*SPRING, ELSET=WK_739

2.453384e-02
*ELEMENT, TYPE=SPRINGA, ELSET=WK_740
   93925,    75990,   102086
*SPRING, ELSET=WK_740

2.453384e-02
*ELEMENT, TYPE=SPRINGA, ELSET=WK_741
   93926,    75995,   102087
*SPRING, ELSET=WK_741

2.453384e-02
*ELEMENT, TYPE=SPRINGA, ELSET=WK_742
   93927,    76000,   102088
*SPRING, ELSET=WK_742

2.453384e-02
*ELEMENT, TYPE=SPRINGA, ELSET=WK_743
   93928,    76005,   102089
*SPRING, ELSET=WK_743

2.453384e-02
*ELEMENT, TYPE=SPRINGA, ELSET=WK_744
   93929,    76010,   102090
*SPRING, ELSET=WK_744

2.453384e-02
*ELEMENT, TYPE=SPRINGA, ELSET=WK_745
   93930,    76015,   102091
*SPRING, ELSET=WK_745

2.453384e-02
*ELEMENT, TYPE=SPRINGA, ELSET=WK_746
   93931,    76020,   102092
*SPRING, ELSET=WK_746

2.453384e-02
*ELEMENT, TYPE=SPRINGA, ELSET=WK_747
   93932,    76025,   102093
*SPRING, ELSET=WK_747

2.453384e-02
*ELEMENT, TYPE=SPRINGA, ELSET=WK_748
   93933,    76030,   102094
*SPRING, ELSET=WK_748

2.453384e-02
*ELEMENT, TYPE=SPRINGA, ELSET=WK_749
   93934,    76035,   102095
*SPRING, ELSET=WK_749

2.453384e-02
*ELEMENT, TYPE=SPRINGA, ELSET=WK_750
   93935,    76040,   102096
*SPRING, ELSET=WK_750

2.453384e-02
*ELEMENT, TYPE=SPRINGA, ELSET=WK_751
   93936,    76045,   102097
*SPRING, ELSET=WK_751

2.453384e-02
*ELEMENT, TYPE=SPRINGA, ELSET=WK_752
   93937,    76050,   102098
*SPRING, ELSET=WK_752

2.453384e-02
*ELEMENT, TYPE=SPRINGA, ELSET=WK_753
   93938,    76055,   102099
*SPRING, ELSET=WK_753

2.453384e-02
*ELEMENT, TYPE=SPRINGA, ELSET=WK_754
   93939,    76060,   102100
*SPRING, ELSET=WK_754

1.840038e-02
*ELEMENT, TYPE=SPRINGA, ELSET=WK_755
   93940,    76065,   102101
*SPRING, ELSET=WK_755

1.226692e-02
*ELEMENT, TYPE=SPRINGA, ELSET=WK_756
   93941,    76070,   102102
*SPRING, ELSET=WK_756

1.226692e-02
*ELEMENT, TYPE=SPRINGA, ELSET=WK_757
   93942,    76075,   102103
*SPRING, ELSET=WK_757

1.226692e-02
*ELEMENT, TYPE=SPRINGA, ELSET=WK_758
   93943,    76080,   102104
*SPRING, ELSET=WK_758

1.840038e-02
*ELEMENT, TYPE=SPRINGA, ELSET=WK_759
   93944,    76085,   102105
*SPRING, ELSET=WK_759

2.453384e-02
*ELEMENT, TYPE=SPRINGA, ELSET=WK_760
   93945,    76090,   102106
*SPRING, ELSET=WK_760

2.453384e-02
*ELEMENT, TYPE=SPRINGA, ELSET=WK_761
   93946,    76095,   102107
*SPRING, ELSET=WK_761

2.453384e-02
*ELEMENT, TYPE=SPRINGA, ELSET=WK_762
   93947,    76100,   102108
*SPRING, ELSET=WK_762

2.453384e-02
*ELEMENT, TYPE=SPRINGA, ELSET=WK_763
   93948,    76105,   102109
*SPRING, ELSET=WK_763

2.453384e-02
*ELEMENT, TYPE=SPRINGA, ELSET=WK_764
   93949,    76110,   102110
*SPRING, ELSET=WK_764

2.453384e-02
*ELEMENT, TYPE=SPRINGA, ELSET=WK_765
   93950,    76115,   102111
*SPRING, ELSET=WK_765

2.453384e-02
*ELEMENT, TYPE=SPRINGA, ELSET=WK_766
   93951,    76120,   102112
*SPRING, ELSET=WK_766

2.453384e-02
*ELEMENT, TYPE=SPRINGA, ELSET=WK_767
   93952,    76125,   102113
*SPRING, ELSET=WK_767

2.453384e-02
*ELEMENT, TYPE=SPRINGA, ELSET=WK_768
   93953,    76130,   102114
*SPRING, ELSET=WK_768

2.453384e-02
*ELEMENT, TYPE=SPRINGA, ELSET=WK_769
   93954,    76135,   102115
*SPRING, ELSET=WK_769

2.453384e-02
*ELEMENT, TYPE=SPRINGA, ELSET=WK_770
   93955,    76140,   102116
*SPRING, ELSET=WK_770

2.453384e-02
*ELEMENT, TYPE=SPRINGA, ELSET=WK_771
   93956,    76145,   102117
*SPRING, ELSET=WK_771

1.226692e-02
*ELEMENT, TYPE=SPRINGA, ELSET=WK_772
   93957,    76165,   102118
*SPRING, ELSET=WK_772

1.226692e-02
*ELEMENT, TYPE=SPRINGA, ELSET=WK_773
   93958,    76170,   102119
*SPRING, ELSET=WK_773

2.453384e-02
*ELEMENT, TYPE=SPRINGA, ELSET=WK_774
   93959,    76175,   102120
*SPRING, ELSET=WK_774

2.453384e-02
*ELEMENT, TYPE=SPRINGA, ELSET=WK_775
   93960,    76180,   102121
*SPRING, ELSET=WK_775

2.453384e-02
*ELEMENT, TYPE=SPRINGA, ELSET=WK_776
   93961,    76185,   102122
*SPRING, ELSET=WK_776

2.453384e-02
*ELEMENT, TYPE=SPRINGA, ELSET=WK_777
   93962,    76190,   102123
*SPRING, ELSET=WK_777

2.453384e-02
*ELEMENT, TYPE=SPRINGA, ELSET=WK_778
   93963,    76195,   102124
*SPRING, ELSET=WK_778

2.453384e-02
*ELEMENT, TYPE=SPRINGA, ELSET=WK_779
   93964,    76200,   102125
*SPRING, ELSET=WK_779

2.453384e-02
*ELEMENT, TYPE=SPRINGA, ELSET=WK_780
   93965,    76205,   102126
*SPRING, ELSET=WK_780

2.453384e-02
*ELEMENT, TYPE=SPRINGA, ELSET=WK_781
   93966,    76210,   102127
*SPRING, ELSET=WK_781

2.453384e-02
*ELEMENT, TYPE=SPRINGA, ELSET=WK_782
   93967,    76215,   102128
*SPRING, ELSET=WK_782

2.453384e-02
*ELEMENT, TYPE=SPRINGA, ELSET=WK_783
   93968,    76220,   102129
*SPRING, ELSET=WK_783

2.453384e-02
*ELEMENT, TYPE=SPRINGA, ELSET=WK_784
   93969,    76225,   102130
*SPRING, ELSET=WK_784

2.453384e-02
*ELEMENT, TYPE=SPRINGA, ELSET=WK_785
   93970,    76230,   102131
*SPRING, ELSET=WK_785

1.840038e-02
*ELEMENT, TYPE=SPRINGA, ELSET=WK_786
   93971,    76235,   102132
*SPRING, ELSET=WK_786

1.226692e-02
*ELEMENT, TYPE=SPRINGA, ELSET=WK_787
   93972,    76240,   102133
*SPRING, ELSET=WK_787

1.226692e-02
*ELEMENT, TYPE=SPRINGA, ELSET=WK_788
   93973,    76245,   102134
*SPRING, ELSET=WK_788

1.226692e-02
*ELEMENT, TYPE=SPRINGA, ELSET=WK_789
   93974,    76250,   102135
*SPRING, ELSET=WK_789

1.840038e-02
*ELEMENT, TYPE=SPRINGA, ELSET=WK_790
   93975,    76255,   102136
*SPRING, ELSET=WK_790

2.453384e-02
*ELEMENT, TYPE=SPRINGA, ELSET=WK_791
   93976,    76260,   102137
*SPRING, ELSET=WK_791

2.453384e-02
*ELEMENT, TYPE=SPRINGA, ELSET=WK_792
   93977,    76265,   102138
*SPRING, ELSET=WK_792

2.453384e-02
*ELEMENT, TYPE=SPRINGA, ELSET=WK_793
   93978,    76270,   102139
*SPRING, ELSET=WK_793

2.453384e-02
*ELEMENT, TYPE=SPRINGA, ELSET=WK_794
   93979,    76275,   102140
*SPRING, ELSET=WK_794

2.453384e-02
*ELEMENT, TYPE=SPRINGA, ELSET=WK_795
   93980,    76280,   102141
*SPRING, ELSET=WK_795

2.453384e-02
*ELEMENT, TYPE=SPRINGA, ELSET=WK_796
   93981,    76285,   102142
*SPRING, ELSET=WK_796

2.453384e-02
*ELEMENT, TYPE=SPRINGA, ELSET=WK_797
   93982,    76290,   102143
*SPRING, ELSET=WK_797

2.453384e-02
*ELEMENT, TYPE=SPRINGA, ELSET=WK_798
   93983,    76295,   102144
*SPRING, ELSET=WK_798

2.453384e-02
*ELEMENT, TYPE=SPRINGA, ELSET=WK_799
   93984,    76300,   102145
*SPRING, ELSET=WK_799

2.453384e-02
*ELEMENT, TYPE=SPRINGA, ELSET=WK_800
   93985,    76305,   102146
*SPRING, ELSET=WK_800

2.453384e-02
*ELEMENT, TYPE=SPRINGA, ELSET=WK_801
   93986,    76310,   102147
*SPRING, ELSET=WK_801

2.453384e-02
*ELEMENT, TYPE=SPRINGA, ELSET=WK_802
   93987,    76315,   102148
*SPRING, ELSET=WK_802

2.453384e-02
*ELEMENT, TYPE=SPRINGA, ELSET=WK_803
   93988,    76320,   102149
*SPRING, ELSET=WK_803

2.453384e-02
*ELEMENT, TYPE=SPRINGA, ELSET=WK_804
   93989,    76325,   102150
*SPRING, ELSET=WK_804

2.453384e-02
*ELEMENT, TYPE=SPRINGA, ELSET=WK_805
   93990,    76330,   102151
*SPRING, ELSET=WK_805

2.453384e-02
*ELEMENT, TYPE=SPRINGA, ELSET=WK_806
   93991,    76335,   102152
*SPRING, ELSET=WK_806

2.453384e-02
*ELEMENT, TYPE=SPRINGA, ELSET=WK_807
   93992,    76340,   102153
*SPRING, ELSET=WK_807

2.453384e-02
*ELEMENT, TYPE=SPRINGA, ELSET=WK_808
   93993,    76345,   102154
*SPRING, ELSET=WK_808

2.453384e-02
*ELEMENT, TYPE=SPRINGA, ELSET=WK_809
   93994,    76350,   102155
*SPRING, ELSET=WK_809

2.453384e-02
*ELEMENT, TYPE=SPRINGA, ELSET=WK_810
   93995,    76355,   102156
*SPRING, ELSET=WK_810

2.453384e-02
*ELEMENT, TYPE=SPRINGA, ELSET=WK_811
   93996,    76360,   102157
*SPRING, ELSET=WK_811

2.453384e-02
*ELEMENT, TYPE=SPRINGA, ELSET=WK_812
   93997,    76365,   102158
*SPRING, ELSET=WK_812

2.453384e-02
*ELEMENT, TYPE=SPRINGA, ELSET=WK_813
   93998,    76370,   102159
*SPRING, ELSET=WK_813

2.453384e-02
*ELEMENT, TYPE=SPRINGA, ELSET=WK_814
   93999,    76375,   102160
*SPRING, ELSET=WK_814

2.453384e-02
*ELEMENT, TYPE=SPRINGA, ELSET=WK_815
   94000,    76380,   102161
*SPRING, ELSET=WK_815

2.453384e-02
*ELEMENT, TYPE=SPRINGA, ELSET=WK_816
   94001,    76385,   102162
*SPRING, ELSET=WK_816

2.453384e-02
*ELEMENT, TYPE=SPRINGA, ELSET=WK_817
   94002,    76390,   102163
*SPRING, ELSET=WK_817

2.453384e-02
*ELEMENT, TYPE=SPRINGA, ELSET=WK_818
   94003,    76395,   102164
*SPRING, ELSET=WK_818

2.453384e-02
*ELEMENT, TYPE=SPRINGA, ELSET=WK_819
   94004,    76400,   102165
*SPRING, ELSET=WK_819

2.453384e-02
*ELEMENT, TYPE=SPRINGA, ELSET=WK_820
   94005,    76405,   102166
*SPRING, ELSET=WK_820

2.453384e-02
*ELEMENT, TYPE=SPRINGA, ELSET=WK_821
   94006,    76410,   102167
*SPRING, ELSET=WK_821

2.453384e-02
*ELEMENT, TYPE=SPRINGA, ELSET=WK_822
   94007,    76415,   102168
*SPRING, ELSET=WK_822

2.453384e-02
*ELEMENT, TYPE=SPRINGA, ELSET=WK_823
   94008,    76420,   102169
*SPRING, ELSET=WK_823

2.453384e-02
*ELEMENT, TYPE=SPRINGA, ELSET=WK_824
   94009,    76425,   102170
*SPRING, ELSET=WK_824

2.453384e-02
*ELEMENT, TYPE=SPRINGA, ELSET=WK_825
   94010,    76430,   102171
*SPRING, ELSET=WK_825

2.453384e-02
*ELEMENT, TYPE=SPRINGA, ELSET=WK_826
   94011,    76435,   102172
*SPRING, ELSET=WK_826

2.453384e-02
*ELEMENT, TYPE=SPRINGA, ELSET=WK_827
   94012,    76440,   102173
*SPRING, ELSET=WK_827

2.453384e-02
*ELEMENT, TYPE=SPRINGA, ELSET=WK_828
   94013,    76445,   102174
*SPRING, ELSET=WK_828

2.453384e-02
*ELEMENT, TYPE=SPRINGA, ELSET=WK_829
   94014,    76450,   102175
*SPRING, ELSET=WK_829

2.453384e-02
*ELEMENT, TYPE=SPRINGA, ELSET=WK_830
   94015,    76455,   102176
*SPRING, ELSET=WK_830

2.453384e-02
*ELEMENT, TYPE=SPRINGA, ELSET=WK_831
   94016,    76460,   102177
*SPRING, ELSET=WK_831

2.453384e-02
*ELEMENT, TYPE=SPRINGA, ELSET=WK_832
   94017,    76465,   102178
*SPRING, ELSET=WK_832

2.453384e-02
*ELEMENT, TYPE=SPRINGA, ELSET=WK_833
   94018,    76470,   102179
*SPRING, ELSET=WK_833

2.453384e-02
*ELEMENT, TYPE=SPRINGA, ELSET=WK_834
   94019,    76475,   102180
*SPRING, ELSET=WK_834

2.453384e-02
*ELEMENT, TYPE=SPRINGA, ELSET=WK_835
   94020,    76480,   102181
*SPRING, ELSET=WK_835

2.453384e-02
*ELEMENT, TYPE=SPRINGA, ELSET=WK_836
   94021,    76485,   102182
*SPRING, ELSET=WK_836

2.453384e-02
*ELEMENT, TYPE=SPRINGA, ELSET=WK_837
   94022,    76490,   102183
*SPRING, ELSET=WK_837

2.453384e-02
*ELEMENT, TYPE=SPRINGA, ELSET=WK_838
   94023,    76495,   102184
*SPRING, ELSET=WK_838

2.453384e-02
*ELEMENT, TYPE=SPRINGA, ELSET=WK_839
   94024,    76500,   102185
*SPRING, ELSET=WK_839

2.453384e-02
*ELEMENT, TYPE=SPRINGA, ELSET=WK_840
   94025,    76505,   102186
*SPRING, ELSET=WK_840

2.453384e-02
*ELEMENT, TYPE=SPRINGA, ELSET=WK_841
   94026,    76510,   102187
*SPRING, ELSET=WK_841

2.453384e-02
*ELEMENT, TYPE=SPRINGA, ELSET=WK_842
   94027,    76515,   102188
*SPRING, ELSET=WK_842

2.453384e-02
*ELEMENT, TYPE=SPRINGA, ELSET=WK_843
   94028,    76520,   102189
*SPRING, ELSET=WK_843

2.453384e-02
*ELEMENT, TYPE=SPRINGA, ELSET=WK_844
   94029,    76525,   102190
*SPRING, ELSET=WK_844

2.453384e-02
*ELEMENT, TYPE=SPRINGA, ELSET=WK_845
   94030,    76530,   102191
*SPRING, ELSET=WK_845

2.453384e-02
*ELEMENT, TYPE=SPRINGA, ELSET=WK_846
   94031,    76535,   102192
*SPRING, ELSET=WK_846

2.453384e-02
*ELEMENT, TYPE=SPRINGA, ELSET=WK_847
   94032,    76540,   102193
*SPRING, ELSET=WK_847

2.453384e-02
*ELEMENT, TYPE=SPRINGA, ELSET=WK_848
   94033,    76545,   102194
*SPRING, ELSET=WK_848

2.453384e-02
*ELEMENT, TYPE=SPRINGA, ELSET=WK_849
   94034,    76550,   102195
*SPRING, ELSET=WK_849

2.453384e-02
*ELEMENT, TYPE=SPRINGA, ELSET=WK_850
   94035,    76555,   102196
*SPRING, ELSET=WK_850

2.453384e-02
*ELEMENT, TYPE=SPRINGA, ELSET=WK_851
   94036,    76560,   102197
*SPRING, ELSET=WK_851

2.453384e-02
*ELEMENT, TYPE=SPRINGA, ELSET=WK_852
   94037,    76565,   102198
*SPRING, ELSET=WK_852

2.453384e-02
*ELEMENT, TYPE=SPRINGA, ELSET=WK_853
   94038,    76570,   102199
*SPRING, ELSET=WK_853

2.453384e-02
*ELEMENT, TYPE=SPRINGA, ELSET=WK_854
   94039,    76575,   102200
*SPRING, ELSET=WK_854

2.453384e-02
*ELEMENT, TYPE=SPRINGA, ELSET=WK_855
   94040,    76580,   102201
*SPRING, ELSET=WK_855

2.453384e-02
*ELEMENT, TYPE=SPRINGA, ELSET=WK_856
   94041,    76585,   102202
*SPRING, ELSET=WK_856

2.453384e-02
*ELEMENT, TYPE=SPRINGA, ELSET=WK_857
   94042,    76590,   102203
*SPRING, ELSET=WK_857

2.453384e-02
*ELEMENT, TYPE=SPRINGA, ELSET=WK_858
   94043,    76595,   102204
*SPRING, ELSET=WK_858

2.453384e-02
*ELEMENT, TYPE=SPRINGA, ELSET=WK_859
   94044,    76600,   102205
*SPRING, ELSET=WK_859

2.453384e-02
*ELEMENT, TYPE=SPRINGA, ELSET=WK_860
   94045,    76605,   102206
*SPRING, ELSET=WK_860

2.453384e-02
*ELEMENT, TYPE=SPRINGA, ELSET=WK_861
   94046,    76610,   102207
*SPRING, ELSET=WK_861

2.453384e-02
*ELEMENT, TYPE=SPRINGA, ELSET=WK_862
   94047,    76615,   102208
*SPRING, ELSET=WK_862

2.453384e-02
*ELEMENT, TYPE=SPRINGA, ELSET=WK_863
   94048,    76620,   102209
*SPRING, ELSET=WK_863

2.453384e-02
*ELEMENT, TYPE=SPRINGA, ELSET=WK_864
   94049,    76625,   102210
*SPRING, ELSET=WK_864

2.453384e-02
*ELEMENT, TYPE=SPRINGA, ELSET=WK_865
   94050,    76630,   102211
*SPRING, ELSET=WK_865

2.453384e-02
*ELEMENT, TYPE=SPRINGA, ELSET=WK_866
   94051,    76635,   102212
*SPRING, ELSET=WK_866

2.453384e-02
*ELEMENT, TYPE=SPRINGA, ELSET=WK_867
   94052,    76640,   102213
*SPRING, ELSET=WK_867

2.453384e-02
*ELEMENT, TYPE=SPRINGA, ELSET=WK_868
   94053,    76645,   102214
*SPRING, ELSET=WK_868

2.453384e-02
*ELEMENT, TYPE=SPRINGA, ELSET=WK_869
   94054,    76650,   102215
*SPRING, ELSET=WK_869

2.453384e-02
*ELEMENT, TYPE=SPRINGA, ELSET=WK_870
   94055,    76655,   102216
*SPRING, ELSET=WK_870

2.453384e-02
*ELEMENT, TYPE=SPRINGA, ELSET=WK_871
   94056,    76660,   102217
*SPRING, ELSET=WK_871

2.453384e-02
*ELEMENT, TYPE=SPRINGA, ELSET=WK_872
   94057,    76665,   102218
*SPRING, ELSET=WK_872

2.453384e-02
*ELEMENT, TYPE=SPRINGA, ELSET=WK_873
   94058,    76670,   102219
*SPRING, ELSET=WK_873

2.453384e-02
*ELEMENT, TYPE=SPRINGA, ELSET=WK_874
   94059,    76675,   102220
*SPRING, ELSET=WK_874

2.453384e-02
*ELEMENT, TYPE=SPRINGA, ELSET=WK_875
   94060,    76680,   102221
*SPRING, ELSET=WK_875

2.453384e-02
*ELEMENT, TYPE=SPRINGA, ELSET=WK_876
   94061,    76685,   102222
*SPRING, ELSET=WK_876

2.453384e-02
*ELEMENT, TYPE=SPRINGA, ELSET=WK_877
   94062,    76690,   102223
*SPRING, ELSET=WK_877

2.453384e-02
*ELEMENT, TYPE=SPRINGA, ELSET=WK_878
   94063,    76695,   102224
*SPRING, ELSET=WK_878

2.453384e-02
*ELEMENT, TYPE=SPRINGA, ELSET=WK_879
   94064,    76700,   102225
*SPRING, ELSET=WK_879

2.453384e-02
*ELEMENT, TYPE=SPRINGA, ELSET=WK_880
   94065,    76705,   102226
*SPRING, ELSET=WK_880

2.453384e-02
*ELEMENT, TYPE=SPRINGA, ELSET=WK_881
   94066,    76710,   102227
*SPRING, ELSET=WK_881

2.453384e-02
*ELEMENT, TYPE=SPRINGA, ELSET=WK_882
   94067,    76715,   102228
*SPRING, ELSET=WK_882

2.453384e-02
*ELEMENT, TYPE=SPRINGA, ELSET=WK_883
   94068,    76720,   102229
*SPRING, ELSET=WK_883

2.453384e-02
*ELEMENT, TYPE=SPRINGA, ELSET=WK_884
   94069,    76725,   102230
*SPRING, ELSET=WK_884

2.453384e-02
*ELEMENT, TYPE=SPRINGA, ELSET=WK_885
   94070,    76730,   102231
*SPRING, ELSET=WK_885

2.453384e-02
*ELEMENT, TYPE=SPRINGA, ELSET=WK_886
   94071,    76735,   102232
*SPRING, ELSET=WK_886

2.453384e-02
*ELEMENT, TYPE=SPRINGA, ELSET=WK_887
   94072,    76740,   102233
*SPRING, ELSET=WK_887

2.453384e-02
*ELEMENT, TYPE=SPRINGA, ELSET=WK_888
   94073,    76745,   102234
*SPRING, ELSET=WK_888

2.453384e-02
*ELEMENT, TYPE=SPRINGA, ELSET=WK_889
   94074,    76750,   102235
*SPRING, ELSET=WK_889

2.453384e-02
*ELEMENT, TYPE=SPRINGA, ELSET=WK_890
   94075,    76755,   102236
*SPRING, ELSET=WK_890

2.453384e-02
*ELEMENT, TYPE=SPRINGA, ELSET=WK_891
   94076,    76760,   102237
*SPRING, ELSET=WK_891

2.453384e-02
*ELEMENT, TYPE=SPRINGA, ELSET=WK_892
   94077,    76765,   102238
*SPRING, ELSET=WK_892

2.453384e-02
*ELEMENT, TYPE=SPRINGA, ELSET=WK_893
   94078,    76770,   102239
*SPRING, ELSET=WK_893

2.453384e-02
*ELEMENT, TYPE=SPRINGA, ELSET=WK_894
   94079,    76775,   102240
*SPRING, ELSET=WK_894

2.453384e-02
*ELEMENT, TYPE=SPRINGA, ELSET=WK_895
   94080,    76780,   102241
*SPRING, ELSET=WK_895

2.453384e-02
*ELEMENT, TYPE=SPRINGA, ELSET=WK_896
   94081,    76785,   102242
*SPRING, ELSET=WK_896

2.453384e-02
*ELEMENT, TYPE=SPRINGA, ELSET=WK_897
   94082,    76790,   102243
*SPRING, ELSET=WK_897

2.453384e-02
*ELEMENT, TYPE=SPRINGA, ELSET=WK_898
   94083,    76795,   102244
*SPRING, ELSET=WK_898

2.453384e-02
*ELEMENT, TYPE=SPRINGA, ELSET=WK_899
   94084,    76800,   102245
*SPRING, ELSET=WK_899

2.453384e-02
*ELEMENT, TYPE=SPRINGA, ELSET=WK_900
   94085,    76805,   102246
*SPRING, ELSET=WK_900

2.453384e-02
*ELEMENT, TYPE=SPRINGA, ELSET=WK_901
   94086,    76810,   102247
*SPRING, ELSET=WK_901

2.453384e-02
*ELEMENT, TYPE=SPRINGA, ELSET=WK_902
   94087,    76815,   102248
*SPRING, ELSET=WK_902

2.453384e-02
*ELEMENT, TYPE=SPRINGA, ELSET=WK_903
   94088,    76820,   102249
*SPRING, ELSET=WK_903

2.453384e-02
*ELEMENT, TYPE=SPRINGA, ELSET=WK_904
   94089,    76825,   102250
*SPRING, ELSET=WK_904

2.453384e-02
*ELEMENT, TYPE=SPRINGA, ELSET=WK_905
   94090,    76830,   102251
*SPRING, ELSET=WK_905

2.453384e-02
*ELEMENT, TYPE=SPRINGA, ELSET=WK_906
   94091,    76835,   102252
*SPRING, ELSET=WK_906

2.453384e-02
*ELEMENT, TYPE=SPRINGA, ELSET=WK_907
   94092,    76840,   102253
*SPRING, ELSET=WK_907

2.453384e-02
*ELEMENT, TYPE=SPRINGA, ELSET=WK_908
   94093,    76845,   102254
*SPRING, ELSET=WK_908

2.453384e-02
*ELEMENT, TYPE=SPRINGA, ELSET=WK_909
   94094,    76850,   102255
*SPRING, ELSET=WK_909

2.453384e-02
*ELEMENT, TYPE=SPRINGA, ELSET=WK_910
   94095,    76855,   102256
*SPRING, ELSET=WK_910

2.453384e-02
*ELEMENT, TYPE=SPRINGA, ELSET=WK_911
   94096,    76860,   102257
*SPRING, ELSET=WK_911

2.453384e-02
*ELEMENT, TYPE=SPRINGA, ELSET=WK_912
   94097,    76865,   102258
*SPRING, ELSET=WK_912

2.453384e-02
*ELEMENT, TYPE=SPRINGA, ELSET=WK_913
   94098,    76870,   102259
*SPRING, ELSET=WK_913

2.453384e-02
*ELEMENT, TYPE=SPRINGA, ELSET=WK_914
   94099,    76875,   102260
*SPRING, ELSET=WK_914

2.453384e-02
*ELEMENT, TYPE=SPRINGA, ELSET=WK_915
   94100,    76880,   102261
*SPRING, ELSET=WK_915

2.453384e-02
*ELEMENT, TYPE=SPRINGA, ELSET=WK_916
   94101,    76885,   102262
*SPRING, ELSET=WK_916

2.453384e-02
*ELEMENT, TYPE=SPRINGA, ELSET=WK_917
   94102,    76890,   102263
*SPRING, ELSET=WK_917

2.453384e-02
*ELEMENT, TYPE=SPRINGA, ELSET=WK_918
   94103,    76895,   102264
*SPRING, ELSET=WK_918

2.453384e-02
*ELEMENT, TYPE=SPRINGA, ELSET=WK_919
   94104,    76900,   102265
*SPRING, ELSET=WK_919

2.453384e-02
*ELEMENT, TYPE=SPRINGA, ELSET=WK_920
   94105,    76905,   102266
*SPRING, ELSET=WK_920

2.453384e-02
*ELEMENT, TYPE=SPRINGA, ELSET=WK_921
   94106,    76910,   102267
*SPRING, ELSET=WK_921

2.453384e-02
*ELEMENT, TYPE=SPRINGA, ELSET=WK_922
   94107,    76915,   102268
*SPRING, ELSET=WK_922

2.453384e-02
*ELEMENT, TYPE=SPRINGA, ELSET=WK_923
   94108,    76920,   102269
*SPRING, ELSET=WK_923

2.453384e-02
*ELEMENT, TYPE=SPRINGA, ELSET=WK_924
   94109,    76925,   102270
*SPRING, ELSET=WK_924

2.453384e-02
*ELEMENT, TYPE=SPRINGA, ELSET=WK_925
   94110,    76930,   102271
*SPRING, ELSET=WK_925

2.453384e-02
*ELEMENT, TYPE=SPRINGA, ELSET=WK_926
   94111,    76935,   102272
*SPRING, ELSET=WK_926

2.453384e-02
*ELEMENT, TYPE=SPRINGA, ELSET=WK_927
   94112,    76940,   102273
*SPRING, ELSET=WK_927

2.453384e-02
*ELEMENT, TYPE=SPRINGA, ELSET=WK_928
   94113,    76945,   102274
*SPRING, ELSET=WK_928

2.453384e-02
*ELEMENT, TYPE=SPRINGA, ELSET=WK_929
   94114,    76950,   102275
*SPRING, ELSET=WK_929

2.453384e-02
*ELEMENT, TYPE=SPRINGA, ELSET=WK_930
   94115,    76955,   102276
*SPRING, ELSET=WK_930

2.453384e-02
*ELEMENT, TYPE=SPRINGA, ELSET=WK_931
   94116,    76960,   102277
*SPRING, ELSET=WK_931

2.453384e-02
*ELEMENT, TYPE=SPRINGA, ELSET=WK_932
   94117,    76965,   102278
*SPRING, ELSET=WK_932

2.453384e-02
*ELEMENT, TYPE=SPRINGA, ELSET=WK_933
   94118,    76970,   102279
*SPRING, ELSET=WK_933

2.453384e-02
*ELEMENT, TYPE=SPRINGA, ELSET=WK_934
   94119,    76975,   102280
*SPRING, ELSET=WK_934

2.453384e-02
*ELEMENT, TYPE=SPRINGA, ELSET=WK_935
   94120,    76980,   102281
*SPRING, ELSET=WK_935

2.453384e-02
*ELEMENT, TYPE=SPRINGA, ELSET=WK_936
   94121,    76985,   102282
*SPRING, ELSET=WK_936

2.453384e-02
*ELEMENT, TYPE=SPRINGA, ELSET=WK_937
   94122,    76990,   102283
*SPRING, ELSET=WK_937

2.453384e-02
*ELEMENT, TYPE=SPRINGA, ELSET=WK_938
   94123,    76995,   102284
*SPRING, ELSET=WK_938

2.453384e-02
*ELEMENT, TYPE=SPRINGA, ELSET=WK_939
   94124,    77000,   102285
*SPRING, ELSET=WK_939

2.453384e-02
*ELEMENT, TYPE=SPRINGA, ELSET=WK_940
   94125,    77005,   102286
*SPRING, ELSET=WK_940

2.453384e-02
*ELEMENT, TYPE=SPRINGA, ELSET=WK_941
   94126,    77010,   102287
*SPRING, ELSET=WK_941

2.453384e-02
*ELEMENT, TYPE=SPRINGA, ELSET=WK_942
   94127,    77015,   102288
*SPRING, ELSET=WK_942

2.453384e-02
*ELEMENT, TYPE=SPRINGA, ELSET=WK_943
   94128,    77020,   102289
*SPRING, ELSET=WK_943

2.453384e-02
*ELEMENT, TYPE=SPRINGA, ELSET=WK_944
   94129,    77025,   102290
*SPRING, ELSET=WK_944

2.453384e-02
*ELEMENT, TYPE=SPRINGA, ELSET=WK_945
   94130,    77030,   102291
*SPRING, ELSET=WK_945

2.453384e-02
*ELEMENT, TYPE=SPRINGA, ELSET=WK_946
   94131,    77035,   102292
*SPRING, ELSET=WK_946

2.453384e-02
*ELEMENT, TYPE=SPRINGA, ELSET=WK_947
   94132,    77040,   102293
*SPRING, ELSET=WK_947

2.453384e-02
*ELEMENT, TYPE=SPRINGA, ELSET=WK_948
   94133,    77045,   102294
*SPRING, ELSET=WK_948

2.453384e-02
*ELEMENT, TYPE=SPRINGA, ELSET=WK_949
   94134,    77050,   102295
*SPRING, ELSET=WK_949

2.453384e-02
*ELEMENT, TYPE=SPRINGA, ELSET=WK_950
   94135,    77055,   102296
*SPRING, ELSET=WK_950

2.453384e-02
*ELEMENT, TYPE=SPRINGA, ELSET=WK_951
   94136,    77060,   102297
*SPRING, ELSET=WK_951

2.453384e-02
*ELEMENT, TYPE=SPRINGA, ELSET=WK_952
   94137,    77065,   102298
*SPRING, ELSET=WK_952

2.453384e-02
*ELEMENT, TYPE=SPRINGA, ELSET=WK_953
   94138,    77070,   102299
*SPRING, ELSET=WK_953

2.453384e-02
*ELEMENT, TYPE=SPRINGA, ELSET=WK_954
   94139,    77075,   102300
*SPRING, ELSET=WK_954

2.453384e-02
*ELEMENT, TYPE=SPRINGA, ELSET=WK_955
   94140,    77080,   102301
*SPRING, ELSET=WK_955

2.453384e-02
*ELEMENT, TYPE=SPRINGA, ELSET=WK_956
   94141,    77085,   102302
*SPRING, ELSET=WK_956

2.453384e-02
*ELEMENT, TYPE=SPRINGA, ELSET=WK_957
   94142,    77090,   102303
*SPRING, ELSET=WK_957

2.453384e-02
*ELEMENT, TYPE=SPRINGA, ELSET=WK_958
   94143,    77095,   102304
*SPRING, ELSET=WK_958

2.453384e-02
*ELEMENT, TYPE=SPRINGA, ELSET=WK_959
   94144,    77100,   102305
*SPRING, ELSET=WK_959

2.453384e-02
*ELEMENT, TYPE=SPRINGA, ELSET=WK_960
   94145,    77105,   102306
*SPRING, ELSET=WK_960

2.453384e-02
*ELEMENT, TYPE=SPRINGA, ELSET=WK_961
   94146,    77110,   102307
*SPRING, ELSET=WK_961

2.453384e-02
*ELEMENT, TYPE=SPRINGA, ELSET=WK_962
   94147,    77115,   102308
*SPRING, ELSET=WK_962

2.453384e-02
*ELEMENT, TYPE=SPRINGA, ELSET=WK_963
   94148,    77120,   102309
*SPRING, ELSET=WK_963

2.453384e-02
*ELEMENT, TYPE=SPRINGA, ELSET=WK_964
   94149,    77125,   102310
*SPRING, ELSET=WK_964

2.453384e-02
*ELEMENT, TYPE=SPRINGA, ELSET=WK_965
   94150,    77130,   102311
*SPRING, ELSET=WK_965

2.453384e-02
*ELEMENT, TYPE=SPRINGA, ELSET=WK_966
   94151,    77135,   102312
*SPRING, ELSET=WK_966

2.453384e-02
*ELEMENT, TYPE=SPRINGA, ELSET=WK_967
   94152,    77140,   102313
*SPRING, ELSET=WK_967

2.453384e-02
*ELEMENT, TYPE=SPRINGA, ELSET=WK_968
   94153,    77145,   102314
*SPRING, ELSET=WK_968

2.453384e-02
*ELEMENT, TYPE=SPRINGA, ELSET=WK_969
   94154,    77150,   102315
*SPRING, ELSET=WK_969

2.453384e-02
*ELEMENT, TYPE=SPRINGA, ELSET=WK_970
   94155,    77155,   102316
*SPRING, ELSET=WK_970

2.453384e-02
*ELEMENT, TYPE=SPRINGA, ELSET=WK_971
   94156,    77160,   102317
*SPRING, ELSET=WK_971

2.453384e-02
*ELEMENT, TYPE=SPRINGA, ELSET=WK_972
   94157,    77165,   102318
*SPRING, ELSET=WK_972

2.453384e-02
*ELEMENT, TYPE=SPRINGA, ELSET=WK_973
   94158,    77170,   102319
*SPRING, ELSET=WK_973

2.453384e-02
*ELEMENT, TYPE=SPRINGA, ELSET=WK_974
   94159,    77175,   102320
*SPRING, ELSET=WK_974

2.453384e-02
*ELEMENT, TYPE=SPRINGA, ELSET=WK_975
   94160,    77180,   102321
*SPRING, ELSET=WK_975

2.453384e-02
*ELEMENT, TYPE=SPRINGA, ELSET=WK_976
   94161,    77185,   102322
*SPRING, ELSET=WK_976

2.453384e-02
*ELEMENT, TYPE=SPRINGA, ELSET=WK_977
   94162,    77190,   102323
*SPRING, ELSET=WK_977

2.453384e-02
*ELEMENT, TYPE=SPRINGA, ELSET=WK_978
   94163,    77195,   102324
*SPRING, ELSET=WK_978

2.453384e-02
*ELEMENT, TYPE=SPRINGA, ELSET=WK_979
   94164,    77200,   102325
*SPRING, ELSET=WK_979

2.453384e-02
*ELEMENT, TYPE=SPRINGA, ELSET=WK_980
   94165,    77205,   102326
*SPRING, ELSET=WK_980

2.453384e-02
*ELEMENT, TYPE=SPRINGA, ELSET=WK_981
   94166,    77210,   102327
*SPRING, ELSET=WK_981

2.453384e-02
*ELEMENT, TYPE=SPRINGA, ELSET=WK_982
   94167,    77215,   102328
*SPRING, ELSET=WK_982

2.453384e-02
*ELEMENT, TYPE=SPRINGA, ELSET=WK_983
   94168,    77220,   102329
*SPRING, ELSET=WK_983

2.453384e-02
*ELEMENT, TYPE=SPRINGA, ELSET=WK_984
   94169,    77225,   102330
*SPRING, ELSET=WK_984

2.453384e-02
*ELEMENT, TYPE=SPRINGA, ELSET=WK_985
   94170,    77230,   102331
*SPRING, ELSET=WK_985

2.453384e-02
*ELEMENT, TYPE=SPRINGA, ELSET=WK_986
   94171,    77235,   102332
*SPRING, ELSET=WK_986

2.453384e-02
*ELEMENT, TYPE=SPRINGA, ELSET=WK_987
   94172,    77240,   102333
*SPRING, ELSET=WK_987

2.453384e-02
*ELEMENT, TYPE=SPRINGA, ELSET=WK_988
   94173,    77245,   102334
*SPRING, ELSET=WK_988

2.453384e-02
*ELEMENT, TYPE=SPRINGA, ELSET=WK_989
   94174,    77250,   102335
*SPRING, ELSET=WK_989

2.453384e-02
*ELEMENT, TYPE=SPRINGA, ELSET=WK_990
   94175,    77255,   102336
*SPRING, ELSET=WK_990

2.453384e-02
*ELEMENT, TYPE=SPRINGA, ELSET=WK_991
   94176,    77260,   102337
*SPRING, ELSET=WK_991

2.453384e-02
*ELEMENT, TYPE=SPRINGA, ELSET=WK_992
   94177,    77265,   102338
*SPRING, ELSET=WK_992

2.453384e-02
*ELEMENT, TYPE=SPRINGA, ELSET=WK_993
   94178,    77270,   102339
*SPRING, ELSET=WK_993

2.453384e-02
*ELEMENT, TYPE=SPRINGA, ELSET=WK_994
   94179,    77275,   102340
*SPRING, ELSET=WK_994

2.453384e-02
*ELEMENT, TYPE=SPRINGA, ELSET=WK_995
   94180,    77280,   102341
*SPRING, ELSET=WK_995

2.453384e-02
*ELEMENT, TYPE=SPRINGA, ELSET=WK_996
   94181,    77285,   102342
*SPRING, ELSET=WK_996

2.453384e-02
*ELEMENT, TYPE=SPRINGA, ELSET=WK_997
   94182,    77290,   102343
*SPRING, ELSET=WK_997

2.453384e-02
*ELEMENT, TYPE=SPRINGA, ELSET=WK_998
   94183,    77295,   102344
*SPRING, ELSET=WK_998

2.453384e-02
*ELEMENT, TYPE=SPRINGA, ELSET=WK_999
   94184,    77300,   102345
*SPRING, ELSET=WK_999

2.453384e-02
*ELEMENT, TYPE=SPRINGA, ELSET=WK_1000
   94185,    77305,   102346
*SPRING, ELSET=WK_1000

2.453384e-02
*ELEMENT, TYPE=SPRINGA, ELSET=WK_1001
   94186,    77310,   102347
*SPRING, ELSET=WK_1001

2.453384e-02
*ELEMENT, TYPE=SPRINGA, ELSET=WK_1002
   94187,    77315,   102348
*SPRING, ELSET=WK_1002

2.453384e-02
*ELEMENT, TYPE=SPRINGA, ELSET=WK_1003
   94188,    77320,   102349
*SPRING, ELSET=WK_1003

2.453384e-02
*ELEMENT, TYPE=SPRINGA, ELSET=WK_1004
   94189,    77325,   102350
*SPRING, ELSET=WK_1004

2.453384e-02
*ELEMENT, TYPE=SPRINGA, ELSET=WK_1005
   94190,    77330,   102351
*SPRING, ELSET=WK_1005

2.453384e-02
*ELEMENT, TYPE=SPRINGA, ELSET=WK_1006
   94191,    77335,   102352
*SPRING, ELSET=WK_1006

2.453384e-02
*ELEMENT, TYPE=SPRINGA, ELSET=WK_1007
   94192,    77340,   102353
*SPRING, ELSET=WK_1007

2.453384e-02
*ELEMENT, TYPE=SPRINGA, ELSET=WK_1008
   94193,    77345,   102354
*SPRING, ELSET=WK_1008

2.453384e-02
*ELEMENT, TYPE=SPRINGA, ELSET=WK_1009
   94194,    77350,   102355
*SPRING, ELSET=WK_1009

2.453384e-02
*ELEMENT, TYPE=SPRINGA, ELSET=WK_1010
   94195,    77355,   102356
*SPRING, ELSET=WK_1010

2.453384e-02
*ELEMENT, TYPE=SPRINGA, ELSET=WK_1011
   94196,    77360,   102357
*SPRING, ELSET=WK_1011

2.453384e-02
*ELEMENT, TYPE=SPRINGA, ELSET=WK_1012
   94197,    77365,   102358
*SPRING, ELSET=WK_1012

2.453384e-02
*ELEMENT, TYPE=SPRINGA, ELSET=WK_1013
   94198,    77370,   102359
*SPRING, ELSET=WK_1013

2.453384e-02
*ELEMENT, TYPE=SPRINGA, ELSET=WK_1014
   94199,    77375,   102360
*SPRING, ELSET=WK_1014

2.453384e-02
*ELEMENT, TYPE=SPRINGA, ELSET=WK_1015
   94200,    77380,   102361
*SPRING, ELSET=WK_1015

2.453384e-02
*ELEMENT, TYPE=SPRINGA, ELSET=WK_1016
   94201,    77385,   102362
*SPRING, ELSET=WK_1016

2.453384e-02
*ELEMENT, TYPE=SPRINGA, ELSET=WK_1017
   94202,    77390,   102363
*SPRING, ELSET=WK_1017

1.226692e-02
*ELEMENT, TYPE=SPRINGA, ELSET=WK_1018
   94203,    77395,   102364
*SPRING, ELSET=WK_1018

1.226692e-02
*ELEMENT, TYPE=SPRINGA, ELSET=WK_1019
   94204,    77400,   102365
*SPRING, ELSET=WK_1019

1.226692e-02
*ELEMENT, TYPE=SPRINGA, ELSET=WK_1020
   94205,    77405,   102366
*SPRING, ELSET=WK_1020

1.226692e-02
*ELEMENT, TYPE=SPRINGA, ELSET=WK_1021
   94206,    77410,   102367
*SPRING, ELSET=WK_1021

1.226692e-02
*ELEMENT, TYPE=SPRINGA, ELSET=WK_1022
   94207,    77415,   102368
*SPRING, ELSET=WK_1022

1.226692e-02
*ELEMENT, TYPE=SPRINGA, ELSET=WK_1023
   94208,    77420,   102369
*SPRING, ELSET=WK_1023

1.226692e-02
*ELEMENT, TYPE=SPRINGA, ELSET=WK_1024
   94209,    77425,   102370
*SPRING, ELSET=WK_1024

1.226692e-02
*ELEMENT, TYPE=SPRINGA, ELSET=WK_1025
   94210,    77430,   102371
*SPRING, ELSET=WK_1025

1.226692e-02
*ELEMENT, TYPE=SPRINGA, ELSET=WK_1026
   94211,    77435,   102372
*SPRING, ELSET=WK_1026

1.226692e-02
*ELEMENT, TYPE=SPRINGA, ELSET=WK_1027
   94212,    77440,   102373
*SPRING, ELSET=WK_1027

1.226692e-02
*ELEMENT, TYPE=SPRINGA, ELSET=WK_1028
   94213,    77445,   102374
*SPRING, ELSET=WK_1028

1.226692e-02
*ELEMENT, TYPE=SPRINGA, ELSET=WK_1029
   94214,    77450,   102375
*SPRING, ELSET=WK_1029

1.226692e-02
*ELEMENT, TYPE=SPRINGA, ELSET=WK_1030
   94215,    77455,   102376
*SPRING, ELSET=WK_1030

1.226692e-02
*ELEMENT, TYPE=SPRINGA, ELSET=WK_1031
   94216,    77460,   102377
*SPRING, ELSET=WK_1031

1.226692e-02
*ELEMENT, TYPE=SPRINGA, ELSET=WK_1032
   94217,    77465,   102378
*SPRING, ELSET=WK_1032

1.226692e-02
*ELEMENT, TYPE=SPRINGA, ELSET=WK_1033
   94218,    77470,   102379
*SPRING, ELSET=WK_1033

1.226692e-02
*ELEMENT, TYPE=SPRINGA, ELSET=WK_1034
   94219,    77475,   102380
*SPRING, ELSET=WK_1034

1.226692e-02
*ELEMENT, TYPE=SPRINGA, ELSET=WK_1035
   94220,    77480,   102381
*SPRING, ELSET=WK_1035

1.226692e-02
*ELEMENT, TYPE=SPRINGA, ELSET=WK_1036
   94221,    77485,   102382
*SPRING, ELSET=WK_1036

1.226692e-02
*ELEMENT, TYPE=SPRINGA, ELSET=WK_1037
   94222,    77490,   102383
*SPRING, ELSET=WK_1037

1.226692e-02
*ELEMENT, TYPE=SPRINGA, ELSET=WK_1038
   94223,    77495,   102384
*SPRING, ELSET=WK_1038

1.226692e-02
*ELEMENT, TYPE=SPRINGA, ELSET=WK_1039
   94224,    77500,   102385
*SPRING, ELSET=WK_1039

1.226692e-02
*ELEMENT, TYPE=SPRINGA, ELSET=WK_1040
   94225,    77505,   102386
*SPRING, ELSET=WK_1040

1.226692e-02
*ELEMENT, TYPE=SPRINGA, ELSET=WK_1041
   94226,    77510,   102387
*SPRING, ELSET=WK_1041

1.226692e-02
*ELEMENT, TYPE=SPRINGA, ELSET=WK_1042
   94227,    77515,   102388
*SPRING, ELSET=WK_1042

1.226692e-02
*ELEMENT, TYPE=SPRINGA, ELSET=WK_1043
   94228,    77520,   102389
*SPRING, ELSET=WK_1043

1.226692e-02
*ELEMENT, TYPE=SPRINGA, ELSET=WK_1044
   94229,    77525,   102390
*SPRING, ELSET=WK_1044

1.226692e-02
*ELEMENT, TYPE=SPRINGA, ELSET=WK_1045
   94230,    77530,   102391
*SPRING, ELSET=WK_1045

1.226692e-02
*ELEMENT, TYPE=SPRINGA, ELSET=WK_1046
   94231,    77535,   102392
*SPRING, ELSET=WK_1046

1.226692e-02
*ELEMENT, TYPE=SPRINGA, ELSET=WK_1047
   94232,    77540,   102393
*SPRING, ELSET=WK_1047

1.226692e-02
*ELEMENT, TYPE=SPRINGA, ELSET=WK_1048
   94233,    77545,   102394
*SPRING, ELSET=WK_1048

1.226692e-02
*ELEMENT, TYPE=SPRINGA, ELSET=WK_1049
   94234,    77550,   102395
*SPRING, ELSET=WK_1049

1.226692e-02
*ELEMENT, TYPE=SPRINGA, ELSET=WK_1050
   94235,    77555,   102396
*SPRING, ELSET=WK_1050

2.453384e-02
*ELEMENT, TYPE=SPRINGA, ELSET=WK_1051
   94236,    77560,   102397
*SPRING, ELSET=WK_1051

2.453384e-02
*ELEMENT, TYPE=SPRINGA, ELSET=WK_1052
   94237,    77565,   102398
*SPRING, ELSET=WK_1052

2.453384e-02
*ELEMENT, TYPE=SPRINGA, ELSET=WK_1053
   94238,    77570,   102399
*SPRING, ELSET=WK_1053

2.453384e-02
*ELEMENT, TYPE=SPRINGA, ELSET=WK_1054
   94239,    77575,   102400
*SPRING, ELSET=WK_1054

2.453384e-02
*ELEMENT, TYPE=SPRINGA, ELSET=WK_1055
   94240,    77580,   102401
*SPRING, ELSET=WK_1055

2.453384e-02
*ELEMENT, TYPE=SPRINGA, ELSET=WK_1056
   94241,    77585,   102402
*SPRING, ELSET=WK_1056

2.453384e-02
*ELEMENT, TYPE=SPRINGA, ELSET=WK_1057
   94242,    77590,   102403
*SPRING, ELSET=WK_1057

2.453384e-02
*ELEMENT, TYPE=SPRINGA, ELSET=WK_1058
   94243,    77595,   102404
*SPRING, ELSET=WK_1058

2.453384e-02
*ELEMENT, TYPE=SPRINGA, ELSET=WK_1059
   94244,    77600,   102405
*SPRING, ELSET=WK_1059

2.453384e-02
*ELEMENT, TYPE=SPRINGA, ELSET=WK_1060
   94245,    77605,   102406
*SPRING, ELSET=WK_1060

2.453384e-02
*ELEMENT, TYPE=SPRINGA, ELSET=WK_1061
   94246,    77610,   102407
*SPRING, ELSET=WK_1061

2.453384e-02
*ELEMENT, TYPE=SPRINGA, ELSET=WK_1062
   94247,    77615,   102408
*SPRING, ELSET=WK_1062

2.453384e-02
*ELEMENT, TYPE=SPRINGA, ELSET=WK_1063
   94248,    77620,   102409
*SPRING, ELSET=WK_1063

2.453384e-02
*ELEMENT, TYPE=SPRINGA, ELSET=WK_1064
   94249,    77625,   102410
*SPRING, ELSET=WK_1064

2.453384e-02
*ELEMENT, TYPE=SPRINGA, ELSET=WK_1065
   94250,    77630,   102411
*SPRING, ELSET=WK_1065

2.453384e-02
*ELEMENT, TYPE=SPRINGA, ELSET=WK_1066
   94251,    77635,   102412
*SPRING, ELSET=WK_1066

2.453384e-02
*ELEMENT, TYPE=SPRINGA, ELSET=WK_1067
   94252,    77640,   102413
*SPRING, ELSET=WK_1067

2.453384e-02
*ELEMENT, TYPE=SPRINGA, ELSET=WK_1068
   94253,    77645,   102414
*SPRING, ELSET=WK_1068

2.453384e-02
*ELEMENT, TYPE=SPRINGA, ELSET=WK_1069
   94254,    77650,   102415
*SPRING, ELSET=WK_1069

2.453384e-02
*ELEMENT, TYPE=SPRINGA, ELSET=WK_1070
   94255,    77655,   102416
*SPRING, ELSET=WK_1070

2.453384e-02
*ELEMENT, TYPE=SPRINGA, ELSET=WK_1071
   94256,    77660,   102417
*SPRING, ELSET=WK_1071

2.453384e-02
*ELEMENT, TYPE=SPRINGA, ELSET=WK_1072
   94257,    77665,   102418
*SPRING, ELSET=WK_1072

2.453384e-02
*ELEMENT, TYPE=SPRINGA, ELSET=WK_1073
   94258,    77670,   102419
*SPRING, ELSET=WK_1073

2.453384e-02
*ELEMENT, TYPE=SPRINGA, ELSET=WK_1074
   94259,    77675,   102420
*SPRING, ELSET=WK_1074

2.453384e-02
*ELEMENT, TYPE=SPRINGA, ELSET=WK_1075
   94260,    77680,   102421
*SPRING, ELSET=WK_1075

2.453384e-02
*ELEMENT, TYPE=SPRINGA, ELSET=WK_1076
   94261,    77685,   102422
*SPRING, ELSET=WK_1076

2.453384e-02
*ELEMENT, TYPE=SPRINGA, ELSET=WK_1077
   94262,    77690,   102423
*SPRING, ELSET=WK_1077

2.453384e-02
*ELEMENT, TYPE=SPRINGA, ELSET=WK_1078
   94263,    77695,   102424
*SPRING, ELSET=WK_1078

2.453384e-02
*ELEMENT, TYPE=SPRINGA, ELSET=WK_1079
   94264,    77700,   102425
*SPRING, ELSET=WK_1079

2.453384e-02
*ELEMENT, TYPE=SPRINGA, ELSET=WK_1080
   94265,    77705,   102426
*SPRING, ELSET=WK_1080

2.453384e-02
*ELEMENT, TYPE=SPRINGA, ELSET=WK_1081
   94266,    77710,   102427
*SPRING, ELSET=WK_1081

2.453384e-02
*ELEMENT, TYPE=SPRINGA, ELSET=WK_1082
   94267,    77715,   102428
*SPRING, ELSET=WK_1082

2.453384e-02
*ELEMENT, TYPE=SPRINGA, ELSET=WK_1083
   94268,    77720,   102429
*SPRING, ELSET=WK_1083

2.453384e-02
*ELEMENT, TYPE=SPRINGA, ELSET=WK_1084
   94269,    77725,   102430
*SPRING, ELSET=WK_1084

2.453384e-02
*ELEMENT, TYPE=SPRINGA, ELSET=WK_1085
   94270,    77730,   102431
*SPRING, ELSET=WK_1085

2.453384e-02
*ELEMENT, TYPE=SPRINGA, ELSET=WK_1086
   94271,    77735,   102432
*SPRING, ELSET=WK_1086

2.453384e-02
*ELEMENT, TYPE=SPRINGA, ELSET=WK_1087
   94272,    77740,   102433
*SPRING, ELSET=WK_1087

2.453384e-02
*ELEMENT, TYPE=SPRINGA, ELSET=WK_1088
   94273,    77745,   102434
*SPRING, ELSET=WK_1088

2.453384e-02
*ELEMENT, TYPE=SPRINGA, ELSET=WK_1089
   94274,    77750,   102435
*SPRING, ELSET=WK_1089

2.453384e-02
*ELEMENT, TYPE=SPRINGA, ELSET=WK_1090
   94275,    77755,   102436
*SPRING, ELSET=WK_1090

2.453384e-02
*ELEMENT, TYPE=SPRINGA, ELSET=WK_1091
   94276,    77760,   102437
*SPRING, ELSET=WK_1091

2.453384e-02
*ELEMENT, TYPE=SPRINGA, ELSET=WK_1092
   94277,    77765,   102438
*SPRING, ELSET=WK_1092

2.453384e-02
*ELEMENT, TYPE=SPRINGA, ELSET=WK_1093
   94278,    77770,   102439
*SPRING, ELSET=WK_1093

2.453384e-02
*ELEMENT, TYPE=SPRINGA, ELSET=WK_1094
   94279,    77775,   102440
*SPRING, ELSET=WK_1094

2.453384e-02
*ELEMENT, TYPE=SPRINGA, ELSET=WK_1095
   94280,    77780,   102441
*SPRING, ELSET=WK_1095

2.453384e-02
*ELEMENT, TYPE=SPRINGA, ELSET=WK_1096
   94281,    77785,   102442
*SPRING, ELSET=WK_1096

2.453384e-02
*ELEMENT, TYPE=SPRINGA, ELSET=WK_1097
   94282,    77790,   102443
*SPRING, ELSET=WK_1097

2.453384e-02
*ELEMENT, TYPE=SPRINGA, ELSET=WK_1098
   94283,    77795,   102444
*SPRING, ELSET=WK_1098

2.453384e-02
*ELEMENT, TYPE=SPRINGA, ELSET=WK_1099
   94284,    77800,   102445
*SPRING, ELSET=WK_1099

2.453384e-02
*ELEMENT, TYPE=SPRINGA, ELSET=WK_1100
   94285,    77805,   102446
*SPRING, ELSET=WK_1100

2.453384e-02
*ELEMENT, TYPE=SPRINGA, ELSET=WK_1101
   94286,    77810,   102447
*SPRING, ELSET=WK_1101

2.453384e-02
*ELEMENT, TYPE=SPRINGA, ELSET=WK_1102
   94287,    77815,   102448
*SPRING, ELSET=WK_1102

2.453384e-02
*ELEMENT, TYPE=SPRINGA, ELSET=WK_1103
   94288,    77820,   102449
*SPRING, ELSET=WK_1103

2.453384e-02
*ELEMENT, TYPE=SPRINGA, ELSET=WK_1104
   94289,    77825,   102450
*SPRING, ELSET=WK_1104

2.453384e-02
*ELEMENT, TYPE=SPRINGA, ELSET=WK_1105
   94290,    77830,   102451
*SPRING, ELSET=WK_1105

2.453384e-02
*ELEMENT, TYPE=SPRINGA, ELSET=WK_1106
   94291,    77835,   102452
*SPRING, ELSET=WK_1106

2.453384e-02
*ELEMENT, TYPE=SPRINGA, ELSET=WK_1107
   94292,    77840,   102453
*SPRING, ELSET=WK_1107

2.453384e-02
*ELEMENT, TYPE=SPRINGA, ELSET=WK_1108
   94293,    77845,   102454
*SPRING, ELSET=WK_1108

2.453384e-02
*ELEMENT, TYPE=SPRINGA, ELSET=WK_1109
   94294,    77850,   102455
*SPRING, ELSET=WK_1109

2.453384e-02
*ELEMENT, TYPE=SPRINGA, ELSET=WK_1110
   94295,    77855,   102456
*SPRING, ELSET=WK_1110

2.453384e-02
*ELEMENT, TYPE=SPRINGA, ELSET=WK_1111
   94296,    77860,   102457
*SPRING, ELSET=WK_1111

2.453384e-02
*ELEMENT, TYPE=SPRINGA, ELSET=WK_1112
   94297,    77865,   102458
*SPRING, ELSET=WK_1112

2.453384e-02
*ELEMENT, TYPE=SPRINGA, ELSET=WK_1113
   94298,    77870,   102459
*SPRING, ELSET=WK_1113

2.453384e-02
*ELEMENT, TYPE=SPRINGA, ELSET=WK_1114
   94299,    77875,   102460
*SPRING, ELSET=WK_1114

2.453384e-02
*ELEMENT, TYPE=SPRINGA, ELSET=WK_1115
   94300,    77880,   102461
*SPRING, ELSET=WK_1115

2.453384e-02
*ELEMENT, TYPE=SPRINGA, ELSET=WK_1116
   94301,    77885,   102462
*SPRING, ELSET=WK_1116

2.453384e-02
*ELEMENT, TYPE=SPRINGA, ELSET=WK_1117
   94302,    77890,   102463
*SPRING, ELSET=WK_1117

2.453384e-02
*ELEMENT, TYPE=SPRINGA, ELSET=WK_1118
   94303,    77895,   102464
*SPRING, ELSET=WK_1118

2.453384e-02
*ELEMENT, TYPE=SPRINGA, ELSET=WK_1119
   94304,    77900,   102465
*SPRING, ELSET=WK_1119

2.453384e-02
*ELEMENT, TYPE=SPRINGA, ELSET=WK_1120
   94305,    77905,   102466
*SPRING, ELSET=WK_1120

2.453384e-02
*ELEMENT, TYPE=SPRINGA, ELSET=WK_1121
   94306,    77910,   102467
*SPRING, ELSET=WK_1121

2.453384e-02
*ELEMENT, TYPE=SPRINGA, ELSET=WK_1122
   94307,    77915,   102468
*SPRING, ELSET=WK_1122

2.453384e-02
*ELEMENT, TYPE=SPRINGA, ELSET=WK_1123
   94308,    77920,   102469
*SPRING, ELSET=WK_1123

2.453384e-02
*ELEMENT, TYPE=SPRINGA, ELSET=WK_1124
   94309,    77925,   102470
*SPRING, ELSET=WK_1124

2.453384e-02
*ELEMENT, TYPE=SPRINGA, ELSET=WK_1125
   94310,    77930,   102471
*SPRING, ELSET=WK_1125

2.453384e-02
*ELEMENT, TYPE=SPRINGA, ELSET=WK_1126
   94311,    77935,   102472
*SPRING, ELSET=WK_1126

2.453384e-02
*ELEMENT, TYPE=SPRINGA, ELSET=WK_1127
   94312,    77940,   102473
*SPRING, ELSET=WK_1127

2.453384e-02
*ELEMENT, TYPE=SPRINGA, ELSET=WK_1128
   94313,    77945,   102474
*SPRING, ELSET=WK_1128

2.453384e-02
*ELEMENT, TYPE=SPRINGA, ELSET=WK_1129
   94314,    77950,   102475
*SPRING, ELSET=WK_1129

2.453384e-02
*ELEMENT, TYPE=SPRINGA, ELSET=WK_1130
   94315,    77955,   102476
*SPRING, ELSET=WK_1130

2.453384e-02
*ELEMENT, TYPE=SPRINGA, ELSET=WK_1131
   94316,    77960,   102477
*SPRING, ELSET=WK_1131

2.453384e-02
*ELEMENT, TYPE=SPRINGA, ELSET=WK_1132
   94317,    77965,   102478
*SPRING, ELSET=WK_1132

2.453384e-02
*ELEMENT, TYPE=SPRINGA, ELSET=WK_1133
   94318,    77970,   102479
*SPRING, ELSET=WK_1133

2.453384e-02
*ELEMENT, TYPE=SPRINGA, ELSET=WK_1134
   94319,    77975,   102480
*SPRING, ELSET=WK_1134

2.453384e-02
*ELEMENT, TYPE=SPRINGA, ELSET=WK_1135
   94320,    77980,   102481
*SPRING, ELSET=WK_1135

2.453384e-02
*ELEMENT, TYPE=SPRINGA, ELSET=WK_1136
   94321,    77985,   102482
*SPRING, ELSET=WK_1136

2.453384e-02
*ELEMENT, TYPE=SPRINGA, ELSET=WK_1137
   94322,    77990,   102483
*SPRING, ELSET=WK_1137

2.453384e-02
*ELEMENT, TYPE=SPRINGA, ELSET=WK_1138
   94323,    77995,   102484
*SPRING, ELSET=WK_1138

2.453384e-02
*ELEMENT, TYPE=SPRINGA, ELSET=WK_1139
   94324,    78000,   102485
*SPRING, ELSET=WK_1139

2.453384e-02
*ELEMENT, TYPE=SPRINGA, ELSET=WK_1140
   94325,    78005,   102486
*SPRING, ELSET=WK_1140

2.453384e-02
*ELEMENT, TYPE=SPRINGA, ELSET=WK_1141
   94326,    78010,   102487
*SPRING, ELSET=WK_1141

2.453384e-02
*ELEMENT, TYPE=SPRINGA, ELSET=WK_1142
   94327,    78015,   102488
*SPRING, ELSET=WK_1142

2.453384e-02
*ELEMENT, TYPE=SPRINGA, ELSET=WK_1143
   94328,    78020,   102489
*SPRING, ELSET=WK_1143

2.453384e-02
*ELEMENT, TYPE=SPRINGA, ELSET=WK_1144
   94329,    78025,   102490
*SPRING, ELSET=WK_1144

2.453384e-02
*ELEMENT, TYPE=SPRINGA, ELSET=WK_1145
   94330,    78030,   102491
*SPRING, ELSET=WK_1145

2.453384e-02
*ELEMENT, TYPE=SPRINGA, ELSET=WK_1146
   94331,    78035,   102492
*SPRING, ELSET=WK_1146

2.453384e-02
*ELEMENT, TYPE=SPRINGA, ELSET=WK_1147
   94332,    78040,   102493
*SPRING, ELSET=WK_1147

2.453384e-02
*ELEMENT, TYPE=SPRINGA, ELSET=WK_1148
   94333,    78045,   102494
*SPRING, ELSET=WK_1148

2.453384e-02
*ELEMENT, TYPE=SPRINGA, ELSET=WK_1149
   94334,    78050,   102495
*SPRING, ELSET=WK_1149

2.453384e-02
*ELEMENT, TYPE=SPRINGA, ELSET=WK_1150
   94335,    78055,   102496
*SPRING, ELSET=WK_1150

2.453384e-02
*ELEMENT, TYPE=SPRINGA, ELSET=WK_1151
   94336,    78060,   102497
*SPRING, ELSET=WK_1151

2.453384e-02
*ELEMENT, TYPE=SPRINGA, ELSET=WK_1152
   94337,    78065,   102498
*SPRING, ELSET=WK_1152

2.453384e-02
*ELEMENT, TYPE=SPRINGA, ELSET=WK_1153
   94338,    78070,   102499
*SPRING, ELSET=WK_1153

2.453384e-02
*ELEMENT, TYPE=SPRINGA, ELSET=WK_1154
   94339,    78075,   102500
*SPRING, ELSET=WK_1154

2.453384e-02
*ELEMENT, TYPE=SPRINGA, ELSET=WK_1155
   94340,    78080,   102501
*SPRING, ELSET=WK_1155

2.453384e-02
*ELEMENT, TYPE=SPRINGA, ELSET=WK_1156
   94341,    78085,   102502
*SPRING, ELSET=WK_1156

2.453384e-02
*ELEMENT, TYPE=SPRINGA, ELSET=WK_1157
   94342,    78090,   102503
*SPRING, ELSET=WK_1157

2.453384e-02
*ELEMENT, TYPE=SPRINGA, ELSET=WK_1158
   94343,    78095,   102504
*SPRING, ELSET=WK_1158

2.453384e-02
*ELEMENT, TYPE=SPRINGA, ELSET=WK_1159
   94344,    78100,   102505
*SPRING, ELSET=WK_1159

2.453384e-02
*ELEMENT, TYPE=SPRINGA, ELSET=WK_1160
   94345,    78105,   102506
*SPRING, ELSET=WK_1160

2.453384e-02
*ELEMENT, TYPE=SPRINGA, ELSET=WK_1161
   94346,    78110,   102507
*SPRING, ELSET=WK_1161

2.453384e-02
*ELEMENT, TYPE=SPRINGA, ELSET=WK_1162
   94347,    78115,   102508
*SPRING, ELSET=WK_1162

2.453384e-02
*ELEMENT, TYPE=SPRINGA, ELSET=WK_1163
   94348,    78120,   102509
*SPRING, ELSET=WK_1163

2.453384e-02
*ELEMENT, TYPE=SPRINGA, ELSET=WK_1164
   94349,    78125,   102510
*SPRING, ELSET=WK_1164

2.453384e-02
*ELEMENT, TYPE=SPRINGA, ELSET=WK_1165
   94350,    78130,   102511
*SPRING, ELSET=WK_1165

2.453384e-02
*ELEMENT, TYPE=SPRINGA, ELSET=WK_1166
   94351,    78135,   102512
*SPRING, ELSET=WK_1166

2.453384e-02
*ELEMENT, TYPE=SPRINGA, ELSET=WK_1167
   94352,    78140,   102513
*SPRING, ELSET=WK_1167

2.453384e-02
*ELEMENT, TYPE=SPRINGA, ELSET=WK_1168
   94353,    78145,   102514
*SPRING, ELSET=WK_1168

2.453384e-02
*ELEMENT, TYPE=SPRINGA, ELSET=WK_1169
   94354,    78150,   102515
*SPRING, ELSET=WK_1169

2.453384e-02
*ELEMENT, TYPE=SPRINGA, ELSET=WK_1170
   94355,    78155,   102516
*SPRING, ELSET=WK_1170

2.453384e-02
*ELEMENT, TYPE=SPRINGA, ELSET=WK_1171
   94356,    78160,   102517
*SPRING, ELSET=WK_1171

2.453384e-02
*ELEMENT, TYPE=SPRINGA, ELSET=WK_1172
   94357,    78165,   102518
*SPRING, ELSET=WK_1172

2.453384e-02
*ELEMENT, TYPE=SPRINGA, ELSET=WK_1173
   94358,    78170,   102519
*SPRING, ELSET=WK_1173

2.453384e-02
*ELEMENT, TYPE=SPRINGA, ELSET=WK_1174
   94359,    78175,   102520
*SPRING, ELSET=WK_1174

2.453384e-02
*ELEMENT, TYPE=SPRINGA, ELSET=WK_1175
   94360,    78180,   102521
*SPRING, ELSET=WK_1175

2.453384e-02
*ELEMENT, TYPE=SPRINGA, ELSET=WK_1176
   94361,    78185,   102522
*SPRING, ELSET=WK_1176

2.453384e-02
*ELEMENT, TYPE=SPRINGA, ELSET=WK_1177
   94362,    78190,   102523
*SPRING, ELSET=WK_1177

2.453384e-02
*ELEMENT, TYPE=SPRINGA, ELSET=WK_1178
   94363,    78195,   102524
*SPRING, ELSET=WK_1178

2.453384e-02
*ELEMENT, TYPE=SPRINGA, ELSET=WK_1179
   94364,    78200,   102525
*SPRING, ELSET=WK_1179

2.453384e-02
*ELEMENT, TYPE=SPRINGA, ELSET=WK_1180
   94365,    78205,   102526
*SPRING, ELSET=WK_1180

2.453384e-02
*ELEMENT, TYPE=SPRINGA, ELSET=WK_1181
   94366,    78210,   102527
*SPRING, ELSET=WK_1181

2.453384e-02
*ELEMENT, TYPE=SPRINGA, ELSET=WK_1182
   94367,    78215,   102528
*SPRING, ELSET=WK_1182

2.453384e-02
*ELEMENT, TYPE=SPRINGA, ELSET=WK_1183
   94368,    78220,   102529
*SPRING, ELSET=WK_1183

2.453384e-02
*ELEMENT, TYPE=SPRINGA, ELSET=WK_1184
   94369,    78225,   102530
*SPRING, ELSET=WK_1184

2.453384e-02
*ELEMENT, TYPE=SPRINGA, ELSET=WK_1185
   94370,    78230,   102531
*SPRING, ELSET=WK_1185

2.453384e-02
*ELEMENT, TYPE=SPRINGA, ELSET=WK_1186
   94371,    78235,   102532
*SPRING, ELSET=WK_1186

2.453384e-02
*ELEMENT, TYPE=SPRINGA, ELSET=WK_1187
   94372,    78240,   102533
*SPRING, ELSET=WK_1187

2.453384e-02
*ELEMENT, TYPE=SPRINGA, ELSET=WK_1188
   94373,    78245,   102534
*SPRING, ELSET=WK_1188

2.453384e-02
*ELEMENT, TYPE=SPRINGA, ELSET=WK_1189
   94374,    78250,   102535
*SPRING, ELSET=WK_1189

2.453384e-02
*ELEMENT, TYPE=SPRINGA, ELSET=WK_1190
   94375,    78255,   102536
*SPRING, ELSET=WK_1190

2.453384e-02
*ELEMENT, TYPE=SPRINGA, ELSET=WK_1191
   94376,    78260,   102537
*SPRING, ELSET=WK_1191

2.453384e-02
*ELEMENT, TYPE=SPRINGA, ELSET=WK_1192
   94377,    78265,   102538
*SPRING, ELSET=WK_1192

2.453384e-02
*ELEMENT, TYPE=SPRINGA, ELSET=WK_1193
   94378,    78270,   102539
*SPRING, ELSET=WK_1193

2.453384e-02
*ELEMENT, TYPE=SPRINGA, ELSET=WK_1194
   94379,    78275,   102540
*SPRING, ELSET=WK_1194

2.453384e-02
*ELEMENT, TYPE=SPRINGA, ELSET=WK_1195
   94380,    78280,   102541
*SPRING, ELSET=WK_1195

2.453384e-02
*ELEMENT, TYPE=SPRINGA, ELSET=WK_1196
   94381,    78285,   102542
*SPRING, ELSET=WK_1196

2.453384e-02
*ELEMENT, TYPE=SPRINGA, ELSET=WK_1197
   94382,    78290,   102543
*SPRING, ELSET=WK_1197

2.453384e-02
*ELEMENT, TYPE=SPRINGA, ELSET=WK_1198
   94383,    78295,   102544
*SPRING, ELSET=WK_1198

2.453384e-02
*ELEMENT, TYPE=SPRINGA, ELSET=WK_1199
   94384,    78300,   102545
*SPRING, ELSET=WK_1199

2.453384e-02
*ELEMENT, TYPE=SPRINGA, ELSET=WK_1200
   94385,    78305,   102546
*SPRING, ELSET=WK_1200

2.453384e-02
*ELEMENT, TYPE=SPRINGA, ELSET=WK_1201
   94386,    78310,   102547
*SPRING, ELSET=WK_1201

2.453384e-02
*ELEMENT, TYPE=SPRINGA, ELSET=WK_1202
   94387,    78315,   102548
*SPRING, ELSET=WK_1202

2.453384e-02
*ELEMENT, TYPE=SPRINGA, ELSET=WK_1203
   94388,    78320,   102549
*SPRING, ELSET=WK_1203

2.453384e-02
*ELEMENT, TYPE=SPRINGA, ELSET=WK_1204
   94389,    78325,   102550
*SPRING, ELSET=WK_1204

2.453384e-02
*ELEMENT, TYPE=SPRINGA, ELSET=WK_1205
   94390,    78330,   102551
*SPRING, ELSET=WK_1205

2.453384e-02
*ELEMENT, TYPE=SPRINGA, ELSET=WK_1206
   94391,    78335,   102552
*SPRING, ELSET=WK_1206

2.453384e-02
*ELEMENT, TYPE=SPRINGA, ELSET=WK_1207
   94392,    78340,   102553
*SPRING, ELSET=WK_1207

2.453384e-02
*ELEMENT, TYPE=SPRINGA, ELSET=WK_1208
   94393,    78345,   102554
*SPRING, ELSET=WK_1208

2.453384e-02
*ELEMENT, TYPE=SPRINGA, ELSET=WK_1209
   94394,    78350,   102555
*SPRING, ELSET=WK_1209

2.453384e-02
*ELEMENT, TYPE=SPRINGA, ELSET=WK_1210
   94395,    78355,   102556
*SPRING, ELSET=WK_1210

2.453384e-02
*ELEMENT, TYPE=SPRINGA, ELSET=WK_1211
   94396,    78360,   102557
*SPRING, ELSET=WK_1211

2.453384e-02
*ELEMENT, TYPE=SPRINGA, ELSET=WK_1212
   94397,    78365,   102558
*SPRING, ELSET=WK_1212

2.453384e-02
*ELEMENT, TYPE=SPRINGA, ELSET=WK_1213
   94398,    78370,   102559
*SPRING, ELSET=WK_1213

2.453384e-02
*ELEMENT, TYPE=SPRINGA, ELSET=WK_1214
   94399,    78375,   102560
*SPRING, ELSET=WK_1214

2.453384e-02
*ELEMENT, TYPE=SPRINGA, ELSET=WK_1215
   94400,    78380,   102561
*SPRING, ELSET=WK_1215

2.453384e-02
*ELEMENT, TYPE=SPRINGA, ELSET=WK_1216
   94401,    78385,   102562
*SPRING, ELSET=WK_1216

2.453384e-02
*ELEMENT, TYPE=SPRINGA, ELSET=WK_1217
   94402,    78390,   102563
*SPRING, ELSET=WK_1217

2.453384e-02
*ELEMENT, TYPE=SPRINGA, ELSET=WK_1218
   94403,    78395,   102564
*SPRING, ELSET=WK_1218

2.453384e-02
*ELEMENT, TYPE=SPRINGA, ELSET=WK_1219
   94404,    78400,   102565
*SPRING, ELSET=WK_1219

2.453384e-02
*ELEMENT, TYPE=SPRINGA, ELSET=WK_1220
   94405,    78405,   102566
*SPRING, ELSET=WK_1220

2.453384e-02
*ELEMENT, TYPE=SPRINGA, ELSET=WK_1221
   94406,    78410,   102567
*SPRING, ELSET=WK_1221

2.453384e-02
*ELEMENT, TYPE=SPRINGA, ELSET=WK_1222
   94407,    78415,   102568
*SPRING, ELSET=WK_1222

2.453384e-02
*ELEMENT, TYPE=SPRINGA, ELSET=WK_1223
   94408,    78420,   102569
*SPRING, ELSET=WK_1223

2.453384e-02
*ELEMENT, TYPE=SPRINGA, ELSET=WK_1224
   94409,    78425,   102570
*SPRING, ELSET=WK_1224

2.453384e-02
*ELEMENT, TYPE=SPRINGA, ELSET=WK_1225
   94410,    78430,   102571
*SPRING, ELSET=WK_1225

2.453384e-02
*ELEMENT, TYPE=SPRINGA, ELSET=WK_1226
   94411,    78435,   102572
*SPRING, ELSET=WK_1226

2.453384e-02
*ELEMENT, TYPE=SPRINGA, ELSET=WK_1227
   94412,    78440,   102573
*SPRING, ELSET=WK_1227

2.453384e-02
*ELEMENT, TYPE=SPRINGA, ELSET=WK_1228
   94413,    78445,   102574
*SPRING, ELSET=WK_1228

2.453384e-02
*ELEMENT, TYPE=SPRINGA, ELSET=WK_1229
   94414,    78450,   102575
*SPRING, ELSET=WK_1229

2.453384e-02
*ELEMENT, TYPE=SPRINGA, ELSET=WK_1230
   94415,    78455,   102576
*SPRING, ELSET=WK_1230

2.453384e-02
*ELEMENT, TYPE=SPRINGA, ELSET=WK_1231
   94416,    78460,   102577
*SPRING, ELSET=WK_1231

2.453384e-02
*ELEMENT, TYPE=SPRINGA, ELSET=WK_1232
   94417,    78465,   102578
*SPRING, ELSET=WK_1232

2.453384e-02
*ELEMENT, TYPE=SPRINGA, ELSET=WK_1233
   94418,    78470,   102579
*SPRING, ELSET=WK_1233

2.453384e-02
*ELEMENT, TYPE=SPRINGA, ELSET=WK_1234
   94419,    78475,   102580
*SPRING, ELSET=WK_1234

2.453384e-02
*ELEMENT, TYPE=SPRINGA, ELSET=WK_1235
   94420,    78480,   102581
*SPRING, ELSET=WK_1235

2.453384e-02
*ELEMENT, TYPE=SPRINGA, ELSET=WK_1236
   94421,    78485,   102582
*SPRING, ELSET=WK_1236

2.453384e-02
*ELEMENT, TYPE=SPRINGA, ELSET=WK_1237
   94422,    78490,   102583
*SPRING, ELSET=WK_1237

2.453384e-02
*ELEMENT, TYPE=SPRINGA, ELSET=WK_1238
   94423,    78495,   102584
*SPRING, ELSET=WK_1238

2.453384e-02
*ELEMENT, TYPE=SPRINGA, ELSET=WK_1239
   94424,    78500,   102585
*SPRING, ELSET=WK_1239

2.453384e-02
*ELEMENT, TYPE=SPRINGA, ELSET=WK_1240
   94425,    78505,   102586
*SPRING, ELSET=WK_1240

2.453384e-02
*ELEMENT, TYPE=SPRINGA, ELSET=WK_1241
   94426,    78510,   102587
*SPRING, ELSET=WK_1241

2.453384e-02
*ELEMENT, TYPE=SPRINGA, ELSET=WK_1242
   94427,    78515,   102588
*SPRING, ELSET=WK_1242

2.453384e-02
*ELEMENT, TYPE=SPRINGA, ELSET=WK_1243
   94428,    78520,   102589
*SPRING, ELSET=WK_1243

2.453384e-02
*ELEMENT, TYPE=SPRINGA, ELSET=WK_1244
   94429,    78525,   102590
*SPRING, ELSET=WK_1244

2.453384e-02
*ELEMENT, TYPE=SPRINGA, ELSET=WK_1245
   94430,    78530,   102591
*SPRING, ELSET=WK_1245

2.453384e-02
*ELEMENT, TYPE=SPRINGA, ELSET=WK_1246
   94431,    78535,   102592
*SPRING, ELSET=WK_1246

2.453384e-02
*ELEMENT, TYPE=SPRINGA, ELSET=WK_1247
   94432,    78540,   102593
*SPRING, ELSET=WK_1247

2.453384e-02
*ELEMENT, TYPE=SPRINGA, ELSET=WK_1248
   94433,    78545,   102594
*SPRING, ELSET=WK_1248

2.453384e-02
*ELEMENT, TYPE=SPRINGA, ELSET=WK_1249
   94434,    78550,   102595
*SPRING, ELSET=WK_1249

2.453384e-02
*ELEMENT, TYPE=SPRINGA, ELSET=WK_1250
   94435,    78555,   102596
*SPRING, ELSET=WK_1250

2.453384e-02
*ELEMENT, TYPE=SPRINGA, ELSET=WK_1251
   94436,    78560,   102597
*SPRING, ELSET=WK_1251

2.453384e-02
*ELEMENT, TYPE=SPRINGA, ELSET=WK_1252
   94437,    78565,   102598
*SPRING, ELSET=WK_1252

2.453384e-02
*ELEMENT, TYPE=SPRINGA, ELSET=WK_1253
   94438,    78570,   102599
*SPRING, ELSET=WK_1253

2.453384e-02
*ELEMENT, TYPE=SPRINGA, ELSET=WK_1254
   94439,    78575,   102600
*SPRING, ELSET=WK_1254

2.453384e-02
*ELEMENT, TYPE=SPRINGA, ELSET=WK_1255
   94440,    78580,   102601
*SPRING, ELSET=WK_1255

2.453384e-02
*ELEMENT, TYPE=SPRINGA, ELSET=WK_1256
   94441,    78585,   102602
*SPRING, ELSET=WK_1256

2.453384e-02
*ELEMENT, TYPE=SPRINGA, ELSET=WK_1257
   94442,    78590,   102603
*SPRING, ELSET=WK_1257

2.453384e-02
*ELEMENT, TYPE=SPRINGA, ELSET=WK_1258
   94443,    78595,   102604
*SPRING, ELSET=WK_1258

2.453384e-02
*ELEMENT, TYPE=SPRINGA, ELSET=WK_1259
   94444,    78600,   102605
*SPRING, ELSET=WK_1259

2.453384e-02
*ELEMENT, TYPE=SPRINGA, ELSET=WK_1260
   94445,    78605,   102606
*SPRING, ELSET=WK_1260

2.453384e-02
*ELEMENT, TYPE=SPRINGA, ELSET=WK_1261
   94446,    78610,   102607
*SPRING, ELSET=WK_1261

2.453384e-02
*ELEMENT, TYPE=SPRINGA, ELSET=WK_1262
   94447,    78615,   102608
*SPRING, ELSET=WK_1262

2.453384e-02
*ELEMENT, TYPE=SPRINGA, ELSET=WK_1263
   94448,    78620,   102609
*SPRING, ELSET=WK_1263

2.453384e-02
*ELEMENT, TYPE=SPRINGA, ELSET=WK_1264
   94449,    78625,   102610
*SPRING, ELSET=WK_1264

2.453384e-02
*ELEMENT, TYPE=SPRINGA, ELSET=WK_1265
   94450,    78630,   102611
*SPRING, ELSET=WK_1265

2.453384e-02
*ELEMENT, TYPE=SPRINGA, ELSET=WK_1266
   94451,    78635,   102612
*SPRING, ELSET=WK_1266

2.453384e-02
*ELEMENT, TYPE=SPRINGA, ELSET=WK_1267
   94452,    78640,   102613
*SPRING, ELSET=WK_1267

2.453384e-02
*ELEMENT, TYPE=SPRINGA, ELSET=WK_1268
   94453,    78645,   102614
*SPRING, ELSET=WK_1268

2.453384e-02
*ELEMENT, TYPE=SPRINGA, ELSET=WK_1269
   94454,    78650,   102615
*SPRING, ELSET=WK_1269

2.453384e-02
*ELEMENT, TYPE=SPRINGA, ELSET=WK_1270
   94455,    78655,   102616
*SPRING, ELSET=WK_1270

2.453384e-02
*ELEMENT, TYPE=SPRINGA, ELSET=WK_1271
   94456,    78660,   102617
*SPRING, ELSET=WK_1271

2.453384e-02
*ELEMENT, TYPE=SPRINGA, ELSET=WK_1272
   94457,    78665,   102618
*SPRING, ELSET=WK_1272

2.453384e-02
*ELEMENT, TYPE=SPRINGA, ELSET=WK_1273
   94458,    78670,   102619
*SPRING, ELSET=WK_1273

2.453384e-02
*ELEMENT, TYPE=SPRINGA, ELSET=WK_1274
   94459,    78675,   102620
*SPRING, ELSET=WK_1274

2.453384e-02
*ELEMENT, TYPE=SPRINGA, ELSET=WK_1275
   94460,    78680,   102621
*SPRING, ELSET=WK_1275

2.453384e-02
*ELEMENT, TYPE=SPRINGA, ELSET=WK_1276
   94461,    78685,   102622
*SPRING, ELSET=WK_1276

2.453384e-02
*ELEMENT, TYPE=SPRINGA, ELSET=WK_1277
   94462,    78690,   102623
*SPRING, ELSET=WK_1277

2.453384e-02
*ELEMENT, TYPE=SPRINGA, ELSET=WK_1278
   94463,    78695,   102624
*SPRING, ELSET=WK_1278

2.453384e-02
*ELEMENT, TYPE=SPRINGA, ELSET=WK_1279
   94464,    78700,   102625
*SPRING, ELSET=WK_1279

2.453384e-02
*ELEMENT, TYPE=SPRINGA, ELSET=WK_1280
   94465,    78705,   102626
*SPRING, ELSET=WK_1280

2.453384e-02
*ELEMENT, TYPE=SPRINGA, ELSET=WK_1281
   94466,    78710,   102627
*SPRING, ELSET=WK_1281

2.453384e-02
*ELEMENT, TYPE=SPRINGA, ELSET=WK_1282
   94467,    78715,   102628
*SPRING, ELSET=WK_1282

2.453384e-02
*ELEMENT, TYPE=SPRINGA, ELSET=WK_1283
   94468,    78720,   102629
*SPRING, ELSET=WK_1283

2.453384e-02
*ELEMENT, TYPE=SPRINGA, ELSET=WK_1284
   94469,    78725,   102630
*SPRING, ELSET=WK_1284

2.453384e-02
*ELEMENT, TYPE=SPRINGA, ELSET=WK_1285
   94470,    78730,   102631
*SPRING, ELSET=WK_1285

2.453384e-02
*ELEMENT, TYPE=SPRINGA, ELSET=WK_1286
   94471,    78735,   102632
*SPRING, ELSET=WK_1286

2.453384e-02
*ELEMENT, TYPE=SPRINGA, ELSET=WK_1287
   94472,    78740,   102633
*SPRING, ELSET=WK_1287

2.453384e-02
*ELEMENT, TYPE=SPRINGA, ELSET=WK_1288
   94473,    78745,   102634
*SPRING, ELSET=WK_1288

2.453384e-02
*ELEMENT, TYPE=SPRINGA, ELSET=WK_1289
   94474,    78750,   102635
*SPRING, ELSET=WK_1289

2.453384e-02
*ELEMENT, TYPE=SPRINGA, ELSET=WK_1290
   94475,    78755,   102636
*SPRING, ELSET=WK_1290

2.453384e-02
*ELEMENT, TYPE=SPRINGA, ELSET=WK_1291
   94476,    78760,   102637
*SPRING, ELSET=WK_1291

2.453384e-02
*ELEMENT, TYPE=SPRINGA, ELSET=WK_1292
   94477,    78765,   102638
*SPRING, ELSET=WK_1292

2.453384e-02
*ELEMENT, TYPE=SPRINGA, ELSET=WK_1293
   94478,    78770,   102639
*SPRING, ELSET=WK_1293

2.453384e-02
*ELEMENT, TYPE=SPRINGA, ELSET=WK_1294
   94479,    78775,   102640
*SPRING, ELSET=WK_1294

2.453384e-02
*ELEMENT, TYPE=SPRINGA, ELSET=WK_1295
   94480,    78780,   102641
*SPRING, ELSET=WK_1295

2.453384e-02
*ELEMENT, TYPE=SPRINGA, ELSET=WK_1296
   94481,    78785,   102642
*SPRING, ELSET=WK_1296

2.453384e-02
*ELEMENT, TYPE=SPRINGA, ELSET=WK_1297
   94482,    78790,   102643
*SPRING, ELSET=WK_1297

2.453384e-02
*ELEMENT, TYPE=SPRINGA, ELSET=WK_1298
   94483,    78795,   102644
*SPRING, ELSET=WK_1298

2.453384e-02
*ELEMENT, TYPE=SPRINGA, ELSET=WK_1299
   94484,    78800,   102645
*SPRING, ELSET=WK_1299

2.453384e-02
*ELEMENT, TYPE=SPRINGA, ELSET=WK_1300
   94485,    78805,   102646
*SPRING, ELSET=WK_1300

2.453384e-02
*ELEMENT, TYPE=SPRINGA, ELSET=WK_1301
   94486,    78810,   102647
*SPRING, ELSET=WK_1301

2.453384e-02
*ELEMENT, TYPE=SPRINGA, ELSET=WK_1302
   94487,    78815,   102648
*SPRING, ELSET=WK_1302

2.453384e-02
*ELEMENT, TYPE=SPRINGA, ELSET=WK_1303
   94488,    78820,   102649
*SPRING, ELSET=WK_1303

2.453384e-02
*ELEMENT, TYPE=SPRINGA, ELSET=WK_1304
   94489,    78825,   102650
*SPRING, ELSET=WK_1304

2.453384e-02
*ELEMENT, TYPE=SPRINGA, ELSET=WK_1305
   94490,    78830,   102651
*SPRING, ELSET=WK_1305

2.453384e-02
*ELEMENT, TYPE=SPRINGA, ELSET=WK_1306
   94491,    78835,   102652
*SPRING, ELSET=WK_1306

2.453384e-02
*ELEMENT, TYPE=SPRINGA, ELSET=WK_1307
   94492,    78840,   102653
*SPRING, ELSET=WK_1307

2.453384e-02
*ELEMENT, TYPE=SPRINGA, ELSET=WK_1308
   94493,    78845,   102654
*SPRING, ELSET=WK_1308

2.453384e-02
*ELEMENT, TYPE=SPRINGA, ELSET=WK_1309
   94494,    78850,   102655
*SPRING, ELSET=WK_1309

2.453384e-02
*ELEMENT, TYPE=SPRINGA, ELSET=WK_1310
   94495,    78855,   102656
*SPRING, ELSET=WK_1310

2.453384e-02
*ELEMENT, TYPE=SPRINGA, ELSET=WK_1311
   94496,    78860,   102657
*SPRING, ELSET=WK_1311

2.453384e-02
*ELEMENT, TYPE=SPRINGA, ELSET=WK_1312
   94497,    78865,   102658
*SPRING, ELSET=WK_1312

2.453384e-02
*ELEMENT, TYPE=SPRINGA, ELSET=WK_1313
   94498,    78870,   102659
*SPRING, ELSET=WK_1313

2.453384e-02
*ELEMENT, TYPE=SPRINGA, ELSET=WK_1314
   94499,    78875,   102660
*SPRING, ELSET=WK_1314

2.453384e-02
*ELEMENT, TYPE=SPRINGA, ELSET=WK_1315
   94500,    78880,   102661
*SPRING, ELSET=WK_1315

2.453384e-02
*ELEMENT, TYPE=SPRINGA, ELSET=WK_1316
   94501,    78885,   102662
*SPRING, ELSET=WK_1316

2.453384e-02
*ELEMENT, TYPE=SPRINGA, ELSET=WK_1317
   94502,    78890,   102663
*SPRING, ELSET=WK_1317

2.453384e-02
*ELEMENT, TYPE=SPRINGA, ELSET=WK_1318
   94503,    78895,   102664
*SPRING, ELSET=WK_1318

2.453384e-02
*ELEMENT, TYPE=SPRINGA, ELSET=WK_1319
   94504,    78900,   102665
*SPRING, ELSET=WK_1319

2.453384e-02
*ELEMENT, TYPE=SPRINGA, ELSET=WK_1320
   94505,    78905,   102666
*SPRING, ELSET=WK_1320

2.453384e-02
*ELEMENT, TYPE=SPRINGA, ELSET=WK_1321
   94506,    78910,   102667
*SPRING, ELSET=WK_1321

2.453384e-02
*ELEMENT, TYPE=SPRINGA, ELSET=WK_1322
   94507,    78915,   102668
*SPRING, ELSET=WK_1322

2.453384e-02
*ELEMENT, TYPE=SPRINGA, ELSET=WK_1323
   94508,    78920,   102669
*SPRING, ELSET=WK_1323

2.453384e-02
*ELEMENT, TYPE=SPRINGA, ELSET=WK_1324
   94509,    78925,   102670
*SPRING, ELSET=WK_1324

2.453384e-02
*ELEMENT, TYPE=SPRINGA, ELSET=WK_1325
   94510,    78930,   102671
*SPRING, ELSET=WK_1325

2.453384e-02
*ELEMENT, TYPE=SPRINGA, ELSET=WK_1326
   94511,    78935,   102672
*SPRING, ELSET=WK_1326

2.453384e-02
*ELEMENT, TYPE=SPRINGA, ELSET=WK_1327
   94512,    78940,   102673
*SPRING, ELSET=WK_1327

2.453384e-02
*ELEMENT, TYPE=SPRINGA, ELSET=WK_1328
   94513,    78945,   102674
*SPRING, ELSET=WK_1328

2.453384e-02
*ELEMENT, TYPE=SPRINGA, ELSET=WK_1329
   94514,    78950,   102675
*SPRING, ELSET=WK_1329

2.453384e-02
*ELEMENT, TYPE=SPRINGA, ELSET=WK_1330
   94515,    78955,   102676
*SPRING, ELSET=WK_1330

2.453384e-02
*ELEMENT, TYPE=SPRINGA, ELSET=WK_1331
   94516,    78960,   102677
*SPRING, ELSET=WK_1331

2.453384e-02
*ELEMENT, TYPE=SPRINGA, ELSET=WK_1332
   94517,    78965,   102678
*SPRING, ELSET=WK_1332

2.453384e-02
*ELEMENT, TYPE=SPRINGA, ELSET=WK_1333
   94518,    78970,   102679
*SPRING, ELSET=WK_1333

2.453384e-02
*ELEMENT, TYPE=SPRINGA, ELSET=WK_1334
   94519,    78975,   102680
*SPRING, ELSET=WK_1334

2.453384e-02
*ELEMENT, TYPE=SPRINGA, ELSET=WK_1335
   94520,    78980,   102681
*SPRING, ELSET=WK_1335

2.453384e-02
*ELEMENT, TYPE=SPRINGA, ELSET=WK_1336
   94521,    78985,   102682
*SPRING, ELSET=WK_1336

2.453384e-02
*ELEMENT, TYPE=SPRINGA, ELSET=WK_1337
   94522,    78990,   102683
*SPRING, ELSET=WK_1337

2.453384e-02
*ELEMENT, TYPE=SPRINGA, ELSET=WK_1338
   94523,    78995,   102684
*SPRING, ELSET=WK_1338

2.453384e-02
*ELEMENT, TYPE=SPRINGA, ELSET=WK_1339
   94524,    79000,   102685
*SPRING, ELSET=WK_1339

2.453384e-02
*ELEMENT, TYPE=SPRINGA, ELSET=WK_1340
   94525,    79005,   102686
*SPRING, ELSET=WK_1340

2.453384e-02
*ELEMENT, TYPE=SPRINGA, ELSET=WK_1341
   94526,    79010,   102687
*SPRING, ELSET=WK_1341

2.453384e-02
*ELEMENT, TYPE=SPRINGA, ELSET=WK_1342
   94527,    79015,   102688
*SPRING, ELSET=WK_1342

2.453384e-02
*ELEMENT, TYPE=SPRINGA, ELSET=WK_1343
   94528,    79020,   102689
*SPRING, ELSET=WK_1343

2.453384e-02
*ELEMENT, TYPE=SPRINGA, ELSET=WK_1344
   94529,    79025,   102690
*SPRING, ELSET=WK_1344

2.453384e-02
*ELEMENT, TYPE=SPRINGA, ELSET=WK_1345
   94530,    79030,   102691
*SPRING, ELSET=WK_1345

2.453384e-02
*ELEMENT, TYPE=SPRINGA, ELSET=WK_1346
   94531,    79035,   102692
*SPRING, ELSET=WK_1346

2.453384e-02
*ELEMENT, TYPE=SPRINGA, ELSET=WK_1347
   94532,    79040,   102693
*SPRING, ELSET=WK_1347

2.453384e-02
*ELEMENT, TYPE=SPRINGA, ELSET=WK_1348
   94533,    79045,   102694
*SPRING, ELSET=WK_1348

2.453384e-02
*ELEMENT, TYPE=SPRINGA, ELSET=WK_1349
   94534,    79050,   102695
*SPRING, ELSET=WK_1349

2.453384e-02
*ELEMENT, TYPE=SPRINGA, ELSET=WK_1350
   94535,    79055,   102696
*SPRING, ELSET=WK_1350

2.453384e-02
*ELEMENT, TYPE=SPRINGA, ELSET=WK_1351
   94536,    79060,   102697
*SPRING, ELSET=WK_1351

2.453384e-02
*ELEMENT, TYPE=SPRINGA, ELSET=WK_1352
   94537,    79065,   102698
*SPRING, ELSET=WK_1352

2.453384e-02
*ELEMENT, TYPE=SPRINGA, ELSET=WK_1353
   94538,    79070,   102699
*SPRING, ELSET=WK_1353

2.453384e-02
*ELEMENT, TYPE=SPRINGA, ELSET=WK_1354
   94539,    79075,   102700
*SPRING, ELSET=WK_1354

2.453384e-02
*ELEMENT, TYPE=SPRINGA, ELSET=WK_1355
   94540,    79080,   102701
*SPRING, ELSET=WK_1355

2.453384e-02
*ELEMENT, TYPE=SPRINGA, ELSET=WK_1356
   94541,    79085,   102702
*SPRING, ELSET=WK_1356

2.453384e-02
*ELEMENT, TYPE=SPRINGA, ELSET=WK_1357
   94542,    79090,   102703
*SPRING, ELSET=WK_1357

2.453384e-02
*ELEMENT, TYPE=SPRINGA, ELSET=WK_1358
   94543,    79095,   102704
*SPRING, ELSET=WK_1358

2.453384e-02
*ELEMENT, TYPE=SPRINGA, ELSET=WK_1359
   94544,    79100,   102705
*SPRING, ELSET=WK_1359

2.453384e-02
*ELEMENT, TYPE=SPRINGA, ELSET=WK_1360
   94545,    79105,   102706
*SPRING, ELSET=WK_1360

2.453384e-02
*ELEMENT, TYPE=SPRINGA, ELSET=WK_1361
   94546,    79110,   102707
*SPRING, ELSET=WK_1361

2.453384e-02
*ELEMENT, TYPE=SPRINGA, ELSET=WK_1362
   94547,    79115,   102708
*SPRING, ELSET=WK_1362

2.453384e-02
*ELEMENT, TYPE=SPRINGA, ELSET=WK_1363
   94548,    79120,   102709
*SPRING, ELSET=WK_1363

2.453384e-02
*ELEMENT, TYPE=SPRINGA, ELSET=WK_1364
   94549,    79125,   102710
*SPRING, ELSET=WK_1364

2.453384e-02
*ELEMENT, TYPE=SPRINGA, ELSET=WK_1365
   94550,    79130,   102711
*SPRING, ELSET=WK_1365

2.453384e-02
*ELEMENT, TYPE=SPRINGA, ELSET=WK_1366
   94551,    79135,   102712
*SPRING, ELSET=WK_1366

2.453384e-02
*ELEMENT, TYPE=SPRINGA, ELSET=WK_1367
   94552,    79140,   102713
*SPRING, ELSET=WK_1367

2.453384e-02
*ELEMENT, TYPE=SPRINGA, ELSET=WK_1368
   94553,    79145,   102714
*SPRING, ELSET=WK_1368

2.453384e-02
*ELEMENT, TYPE=SPRINGA, ELSET=WK_1369
   94554,    79150,   102715
*SPRING, ELSET=WK_1369

2.453384e-02
*ELEMENT, TYPE=SPRINGA, ELSET=WK_1370
   94555,    79155,   102716
*SPRING, ELSET=WK_1370

2.453384e-02
*ELEMENT, TYPE=SPRINGA, ELSET=WK_1371
   94556,    79160,   102717
*SPRING, ELSET=WK_1371

2.453384e-02
*ELEMENT, TYPE=SPRINGA, ELSET=WK_1372
   94557,    79165,   102718
*SPRING, ELSET=WK_1372

2.453384e-02
*ELEMENT, TYPE=SPRINGA, ELSET=WK_1373
   94558,    79170,   102719
*SPRING, ELSET=WK_1373

2.453384e-02
*ELEMENT, TYPE=SPRINGA, ELSET=WK_1374
   94559,    79175,   102720
*SPRING, ELSET=WK_1374

2.453384e-02
*ELEMENT, TYPE=SPRINGA, ELSET=WK_1375
   94560,    79180,   102721
*SPRING, ELSET=WK_1375

2.453384e-02
*ELEMENT, TYPE=SPRINGA, ELSET=WK_1376
   94561,    79185,   102722
*SPRING, ELSET=WK_1376

2.453384e-02
*ELEMENT, TYPE=SPRINGA, ELSET=WK_1377
   94562,    79190,   102723
*SPRING, ELSET=WK_1377

2.453384e-02
*ELEMENT, TYPE=SPRINGA, ELSET=WK_1378
   94563,    79195,   102724
*SPRING, ELSET=WK_1378

2.453384e-02
*ELEMENT, TYPE=SPRINGA, ELSET=WK_1379
   94564,    79200,   102725
*SPRING, ELSET=WK_1379

2.453384e-02
*ELEMENT, TYPE=SPRINGA, ELSET=WK_1380
   94565,    79205,   102726
*SPRING, ELSET=WK_1380

2.453384e-02
*ELEMENT, TYPE=SPRINGA, ELSET=WK_1381
   94566,    79210,   102727
*SPRING, ELSET=WK_1381

2.453384e-02
*ELEMENT, TYPE=SPRINGA, ELSET=WK_1382
   94567,    79215,   102728
*SPRING, ELSET=WK_1382

2.453384e-02
*ELEMENT, TYPE=SPRINGA, ELSET=WK_1383
   94568,    79220,   102729
*SPRING, ELSET=WK_1383

2.453384e-02
*ELEMENT, TYPE=SPRINGA, ELSET=WK_1384
   94569,    79225,   102730
*SPRING, ELSET=WK_1384

2.453384e-02
*ELEMENT, TYPE=SPRINGA, ELSET=WK_1385
   94570,    79230,   102731
*SPRING, ELSET=WK_1385

2.453384e-02
*ELEMENT, TYPE=SPRINGA, ELSET=WK_1386
   94571,    79235,   102732
*SPRING, ELSET=WK_1386

2.453384e-02
*ELEMENT, TYPE=SPRINGA, ELSET=WK_1387
   94572,    79240,   102733
*SPRING, ELSET=WK_1387

2.453384e-02
*ELEMENT, TYPE=SPRINGA, ELSET=WK_1388
   94573,    79245,   102734
*SPRING, ELSET=WK_1388

2.453384e-02
*ELEMENT, TYPE=SPRINGA, ELSET=WK_1389
   94574,    79250,   102735
*SPRING, ELSET=WK_1389

2.453384e-02
*ELEMENT, TYPE=SPRINGA, ELSET=WK_1390
   94575,    79255,   102736
*SPRING, ELSET=WK_1390

2.453384e-02
*ELEMENT, TYPE=SPRINGA, ELSET=WK_1391
   94576,    79260,   102737
*SPRING, ELSET=WK_1391

2.453384e-02
*ELEMENT, TYPE=SPRINGA, ELSET=WK_1392
   94577,    79265,   102738
*SPRING, ELSET=WK_1392

2.453384e-02
*ELEMENT, TYPE=SPRINGA, ELSET=WK_1393
   94578,    79270,   102739
*SPRING, ELSET=WK_1393

2.453384e-02
*ELEMENT, TYPE=SPRINGA, ELSET=WK_1394
   94579,    79275,   102740
*SPRING, ELSET=WK_1394

2.453384e-02
*ELEMENT, TYPE=SPRINGA, ELSET=WK_1395
   94580,    79280,   102741
*SPRING, ELSET=WK_1395

2.453384e-02
*ELEMENT, TYPE=SPRINGA, ELSET=WK_1396
   94581,    79285,   102742
*SPRING, ELSET=WK_1396

2.453384e-02
*ELEMENT, TYPE=SPRINGA, ELSET=WK_1397
   94582,    79290,   102743
*SPRING, ELSET=WK_1397

2.453384e-02
*ELEMENT, TYPE=SPRINGA, ELSET=WK_1398
   94583,    79295,   102744
*SPRING, ELSET=WK_1398

2.453384e-02
*ELEMENT, TYPE=SPRINGA, ELSET=WK_1399
   94584,    79300,   102745
*SPRING, ELSET=WK_1399

2.453384e-02
*ELEMENT, TYPE=SPRINGA, ELSET=WK_1400
   94585,    79305,   102746
*SPRING, ELSET=WK_1400

2.453384e-02
*ELEMENT, TYPE=SPRINGA, ELSET=WK_1401
   94586,    79310,   102747
*SPRING, ELSET=WK_1401

2.453384e-02
*ELEMENT, TYPE=SPRINGA, ELSET=WK_1402
   94587,    79315,   102748
*SPRING, ELSET=WK_1402

2.453384e-02
*ELEMENT, TYPE=SPRINGA, ELSET=WK_1403
   94588,    79320,   102749
*SPRING, ELSET=WK_1403

2.453384e-02
*ELEMENT, TYPE=SPRINGA, ELSET=WK_1404
   94589,    79325,   102750
*SPRING, ELSET=WK_1404

2.453384e-02
*ELEMENT, TYPE=SPRINGA, ELSET=WK_1405
   94590,    79330,   102751
*SPRING, ELSET=WK_1405

2.453384e-02
*ELEMENT, TYPE=SPRINGA, ELSET=WK_1406
   94591,    79335,   102752
*SPRING, ELSET=WK_1406

2.453384e-02
*ELEMENT, TYPE=SPRINGA, ELSET=WK_1407
   94592,    79340,   102753
*SPRING, ELSET=WK_1407

2.453384e-02
*ELEMENT, TYPE=SPRINGA, ELSET=WK_1408
   94593,    79345,   102754
*SPRING, ELSET=WK_1408

2.453384e-02
*ELEMENT, TYPE=SPRINGA, ELSET=WK_1409
   94594,    79350,   102755
*SPRING, ELSET=WK_1409

2.453384e-02
*ELEMENT, TYPE=SPRINGA, ELSET=WK_1410
   94595,    79355,   102756
*SPRING, ELSET=WK_1410

2.453384e-02
*ELEMENT, TYPE=SPRINGA, ELSET=WK_1411
   94596,    79360,   102757
*SPRING, ELSET=WK_1411

2.453384e-02
*ELEMENT, TYPE=SPRINGA, ELSET=WK_1412
   94597,    79365,   102758
*SPRING, ELSET=WK_1412

2.453384e-02
*ELEMENT, TYPE=SPRINGA, ELSET=WK_1413
   94598,    79370,   102759
*SPRING, ELSET=WK_1413

2.453384e-02
*ELEMENT, TYPE=SPRINGA, ELSET=WK_1414
   94599,    79375,   102760
*SPRING, ELSET=WK_1414

2.453384e-02
*ELEMENT, TYPE=SPRINGA, ELSET=WK_1415
   94600,    79380,   102761
*SPRING, ELSET=WK_1415

2.453384e-02
*ELEMENT, TYPE=SPRINGA, ELSET=WK_1416
   94601,    79385,   102762
*SPRING, ELSET=WK_1416

2.453384e-02
*ELEMENT, TYPE=SPRINGA, ELSET=WK_1417
   94602,    79390,   102763
*SPRING, ELSET=WK_1417

2.453384e-02
*ELEMENT, TYPE=SPRINGA, ELSET=WK_1418
   94603,    79395,   102764
*SPRING, ELSET=WK_1418

2.453384e-02
*ELEMENT, TYPE=SPRINGA, ELSET=WK_1419
   94604,    79400,   102765
*SPRING, ELSET=WK_1419

2.453384e-02
*ELEMENT, TYPE=SPRINGA, ELSET=WK_1420
   94605,    79405,   102766
*SPRING, ELSET=WK_1420

2.453384e-02
*ELEMENT, TYPE=SPRINGA, ELSET=WK_1421
   94606,    79410,   102767
*SPRING, ELSET=WK_1421

2.453384e-02
*ELEMENT, TYPE=SPRINGA, ELSET=WK_1422
   94607,    79415,   102768
*SPRING, ELSET=WK_1422

2.453384e-02
*ELEMENT, TYPE=SPRINGA, ELSET=WK_1423
   94608,    79420,   102769
*SPRING, ELSET=WK_1423

2.453384e-02
*ELEMENT, TYPE=SPRINGA, ELSET=WK_1424
   94609,    79425,   102770
*SPRING, ELSET=WK_1424

2.453384e-02
*ELEMENT, TYPE=SPRINGA, ELSET=WK_1425
   94610,    79430,   102771
*SPRING, ELSET=WK_1425

2.453384e-02
*ELEMENT, TYPE=SPRINGA, ELSET=WK_1426
   94611,    79435,   102772
*SPRING, ELSET=WK_1426

2.453384e-02
*ELEMENT, TYPE=SPRINGA, ELSET=WK_1427
   94612,    79440,   102773
*SPRING, ELSET=WK_1427

2.453384e-02
*ELEMENT, TYPE=SPRINGA, ELSET=WK_1428
   94613,    79445,   102774
*SPRING, ELSET=WK_1428

2.453384e-02
*ELEMENT, TYPE=SPRINGA, ELSET=WK_1429
   94614,    79450,   102775
*SPRING, ELSET=WK_1429

2.453384e-02
*ELEMENT, TYPE=SPRINGA, ELSET=WK_1430
   94615,    79455,   102776
*SPRING, ELSET=WK_1430

2.453384e-02
*ELEMENT, TYPE=SPRINGA, ELSET=WK_1431
   94616,    79460,   102777
*SPRING, ELSET=WK_1431

2.453384e-02
*ELEMENT, TYPE=SPRINGA, ELSET=WK_1432
   94617,    79465,   102778
*SPRING, ELSET=WK_1432

2.453384e-02
*ELEMENT, TYPE=SPRINGA, ELSET=WK_1433
   94618,    79470,   102779
*SPRING, ELSET=WK_1433

2.453384e-02
*ELEMENT, TYPE=SPRINGA, ELSET=WK_1434
   94619,    79475,   102780
*SPRING, ELSET=WK_1434

2.453384e-02
*ELEMENT, TYPE=SPRINGA, ELSET=WK_1435
   94620,    79480,   102781
*SPRING, ELSET=WK_1435

2.453384e-02
*ELEMENT, TYPE=SPRINGA, ELSET=WK_1436
   94621,    79485,   102782
*SPRING, ELSET=WK_1436

2.453384e-02
*ELEMENT, TYPE=SPRINGA, ELSET=WK_1437
   94622,    79490,   102783
*SPRING, ELSET=WK_1437

2.453384e-02
*ELEMENT, TYPE=SPRINGA, ELSET=WK_1438
   94623,    79495,   102784
*SPRING, ELSET=WK_1438

2.453384e-02
*ELEMENT, TYPE=SPRINGA, ELSET=WK_1439
   94624,    79500,   102785
*SPRING, ELSET=WK_1439

2.453384e-02
*ELEMENT, TYPE=SPRINGA, ELSET=WK_1440
   94625,    79505,   102786
*SPRING, ELSET=WK_1440

2.453384e-02
*ELEMENT, TYPE=SPRINGA, ELSET=WK_1441
   94626,    79510,   102787
*SPRING, ELSET=WK_1441

2.453384e-02
*ELEMENT, TYPE=SPRINGA, ELSET=WK_1442
   94627,    79515,   102788
*SPRING, ELSET=WK_1442

2.453384e-02
*ELEMENT, TYPE=SPRINGA, ELSET=WK_1443
   94628,    79520,   102789
*SPRING, ELSET=WK_1443

2.453384e-02
*ELEMENT, TYPE=SPRINGA, ELSET=WK_1444
   94629,    79525,   102790
*SPRING, ELSET=WK_1444

2.453384e-02
*ELEMENT, TYPE=SPRINGA, ELSET=WK_1445
   94630,    79530,   102791
*SPRING, ELSET=WK_1445

2.453384e-02
*ELEMENT, TYPE=SPRINGA, ELSET=WK_1446
   94631,    79535,   102792
*SPRING, ELSET=WK_1446

2.453384e-02
*ELEMENT, TYPE=SPRINGA, ELSET=WK_1447
   94632,    79540,   102793
*SPRING, ELSET=WK_1447

2.453384e-02
*ELEMENT, TYPE=SPRINGA, ELSET=WK_1448
   94633,    79545,   102794
*SPRING, ELSET=WK_1448

2.453384e-02
*ELEMENT, TYPE=SPRINGA, ELSET=WK_1449
   94634,    79550,   102795
*SPRING, ELSET=WK_1449

2.453384e-02
*ELEMENT, TYPE=SPRINGA, ELSET=WK_1450
   94635,    79555,   102796
*SPRING, ELSET=WK_1450

2.453384e-02
*ELEMENT, TYPE=SPRINGA, ELSET=WK_1451
   94636,    79560,   102797
*SPRING, ELSET=WK_1451

2.453384e-02
*ELEMENT, TYPE=SPRINGA, ELSET=WK_1452
   94637,    79565,   102798
*SPRING, ELSET=WK_1452

2.453384e-02
*ELEMENT, TYPE=SPRINGA, ELSET=WK_1453
   94638,    79570,   102799
*SPRING, ELSET=WK_1453

2.453384e-02
*ELEMENT, TYPE=SPRINGA, ELSET=WK_1454
   94639,    79575,   102800
*SPRING, ELSET=WK_1454

2.453384e-02
*ELEMENT, TYPE=SPRINGA, ELSET=WK_1455
   94640,    79580,   102801
*SPRING, ELSET=WK_1455

2.453384e-02
*ELEMENT, TYPE=SPRINGA, ELSET=WK_1456
   94641,    79585,   102802
*SPRING, ELSET=WK_1456

2.453384e-02
*ELEMENT, TYPE=SPRINGA, ELSET=WK_1457
   94642,    79590,   102803
*SPRING, ELSET=WK_1457

2.453384e-02
*ELEMENT, TYPE=SPRINGA, ELSET=WK_1458
   94643,    79595,   102804
*SPRING, ELSET=WK_1458

2.453384e-02
*ELEMENT, TYPE=SPRINGA, ELSET=WK_1459
   94644,    79600,   102805
*SPRING, ELSET=WK_1459

2.453384e-02
*ELEMENT, TYPE=SPRINGA, ELSET=WK_1460
   94645,    79605,   102806
*SPRING, ELSET=WK_1460

2.453384e-02
*ELEMENT, TYPE=SPRINGA, ELSET=WK_1461
   94646,    79610,   102807
*SPRING, ELSET=WK_1461

2.453384e-02
*ELEMENT, TYPE=SPRINGA, ELSET=WK_1462
   94647,    79615,   102808
*SPRING, ELSET=WK_1462

2.453384e-02
*ELEMENT, TYPE=SPRINGA, ELSET=WK_1463
   94648,    79620,   102809
*SPRING, ELSET=WK_1463

2.453384e-02
*ELEMENT, TYPE=SPRINGA, ELSET=WK_1464
   94649,    79625,   102810
*SPRING, ELSET=WK_1464

2.453384e-02
*ELEMENT, TYPE=SPRINGA, ELSET=WK_1465
   94650,    79630,   102811
*SPRING, ELSET=WK_1465

2.453384e-02
*ELEMENT, TYPE=SPRINGA, ELSET=WK_1466
   94651,    79635,   102812
*SPRING, ELSET=WK_1466

2.453384e-02
*ELEMENT, TYPE=SPRINGA, ELSET=WK_1467
   94652,    79640,   102813
*SPRING, ELSET=WK_1467

2.453384e-02
*ELEMENT, TYPE=SPRINGA, ELSET=WK_1468
   94653,    79645,   102814
*SPRING, ELSET=WK_1468

2.453384e-02
*ELEMENT, TYPE=SPRINGA, ELSET=WK_1469
   94654,    79650,   102815
*SPRING, ELSET=WK_1469

2.453384e-02
*ELEMENT, TYPE=SPRINGA, ELSET=WK_1470
   94655,    79655,   102816
*SPRING, ELSET=WK_1470

2.453384e-02
*ELEMENT, TYPE=SPRINGA, ELSET=WK_1471
   94656,    79660,   102817
*SPRING, ELSET=WK_1471

2.453384e-02
*ELEMENT, TYPE=SPRINGA, ELSET=WK_1472
   94657,    79665,   102818
*SPRING, ELSET=WK_1472

2.453384e-02
*ELEMENT, TYPE=SPRINGA, ELSET=WK_1473
   94658,    79670,   102819
*SPRING, ELSET=WK_1473

2.453384e-02
*ELEMENT, TYPE=SPRINGA, ELSET=WK_1474
   94659,    79675,   102820
*SPRING, ELSET=WK_1474

2.453384e-02
*ELEMENT, TYPE=SPRINGA, ELSET=WK_1475
   94660,    79680,   102821
*SPRING, ELSET=WK_1475

2.453384e-02
*ELEMENT, TYPE=SPRINGA, ELSET=WK_1476
   94661,    79685,   102822
*SPRING, ELSET=WK_1476

2.453384e-02
*ELEMENT, TYPE=SPRINGA, ELSET=WK_1477
   94662,    79690,   102823
*SPRING, ELSET=WK_1477

2.453384e-02
*ELEMENT, TYPE=SPRINGA, ELSET=WK_1478
   94663,    79695,   102824
*SPRING, ELSET=WK_1478

2.453384e-02
*ELEMENT, TYPE=SPRINGA, ELSET=WK_1479
   94664,    79700,   102825
*SPRING, ELSET=WK_1479

2.453384e-02
*ELEMENT, TYPE=SPRINGA, ELSET=WK_1480
   94665,    79705,   102826
*SPRING, ELSET=WK_1480

2.453384e-02
*ELEMENT, TYPE=SPRINGA, ELSET=WK_1481
   94666,    79710,   102827
*SPRING, ELSET=WK_1481

2.453384e-02
*ELEMENT, TYPE=SPRINGA, ELSET=WK_1482
   94667,    79715,   102828
*SPRING, ELSET=WK_1482

2.453384e-02
*ELEMENT, TYPE=SPRINGA, ELSET=WK_1483
   94668,    79720,   102829
*SPRING, ELSET=WK_1483

2.453384e-02
*ELEMENT, TYPE=SPRINGA, ELSET=WK_1484
   94669,    79725,   102830
*SPRING, ELSET=WK_1484

2.453384e-02
*ELEMENT, TYPE=SPRINGA, ELSET=WK_1485
   94670,    79730,   102831
*SPRING, ELSET=WK_1485

2.453384e-02
*ELEMENT, TYPE=SPRINGA, ELSET=WK_1486
   94671,    79735,   102832
*SPRING, ELSET=WK_1486

2.453384e-02
*ELEMENT, TYPE=SPRINGA, ELSET=WK_1487
   94672,    79740,   102833
*SPRING, ELSET=WK_1487

2.453384e-02
*ELEMENT, TYPE=SPRINGA, ELSET=WK_1488
   94673,    79745,   102834
*SPRING, ELSET=WK_1488

2.453384e-02
*ELEMENT, TYPE=SPRINGA, ELSET=WK_1489
   94674,    79750,   102835
*SPRING, ELSET=WK_1489

2.453384e-02
*ELEMENT, TYPE=SPRINGA, ELSET=WK_1490
   94675,    79755,   102836
*SPRING, ELSET=WK_1490

2.453384e-02
*ELEMENT, TYPE=SPRINGA, ELSET=WK_1491
   94676,    79760,   102837
*SPRING, ELSET=WK_1491

2.453384e-02
*ELEMENT, TYPE=SPRINGA, ELSET=WK_1492
   94677,    79765,   102838
*SPRING, ELSET=WK_1492

2.453384e-02
*ELEMENT, TYPE=SPRINGA, ELSET=WK_1493
   94678,    79770,   102839
*SPRING, ELSET=WK_1493

2.453384e-02
*ELEMENT, TYPE=SPRINGA, ELSET=WK_1494
   94679,    79775,   102840
*SPRING, ELSET=WK_1494

2.453384e-02
*ELEMENT, TYPE=SPRINGA, ELSET=WK_1495
   94680,    79780,   102841
*SPRING, ELSET=WK_1495

2.453384e-02
*ELEMENT, TYPE=SPRINGA, ELSET=WK_1496
   94681,    79785,   102842
*SPRING, ELSET=WK_1496

2.453384e-02
*ELEMENT, TYPE=SPRINGA, ELSET=WK_1497
   94682,    79790,   102843
*SPRING, ELSET=WK_1497

2.453384e-02
*ELEMENT, TYPE=SPRINGA, ELSET=WK_1498
   94683,    79795,   102844
*SPRING, ELSET=WK_1498

2.453384e-02
*ELEMENT, TYPE=SPRINGA, ELSET=WK_1499
   94684,    79800,   102845
*SPRING, ELSET=WK_1499

2.453384e-02
*ELEMENT, TYPE=SPRINGA, ELSET=WK_1500
   94685,    79805,   102846
*SPRING, ELSET=WK_1500

2.453384e-02
*ELEMENT, TYPE=SPRINGA, ELSET=WK_1501
   94686,    79810,   102847
*SPRING, ELSET=WK_1501

2.453384e-02
*ELEMENT, TYPE=SPRINGA, ELSET=WK_1502
   94687,    79815,   102848
*SPRING, ELSET=WK_1502

2.453384e-02
*ELEMENT, TYPE=SPRINGA, ELSET=WK_1503
   94688,    79820,   102849
*SPRING, ELSET=WK_1503

2.453384e-02
*ELEMENT, TYPE=SPRINGA, ELSET=WK_1504
   94689,    79825,   102850
*SPRING, ELSET=WK_1504

2.453384e-02
*ELEMENT, TYPE=SPRINGA, ELSET=WK_1505
   94690,    79830,   102851
*SPRING, ELSET=WK_1505

2.453384e-02
*ELEMENT, TYPE=SPRINGA, ELSET=WK_1506
   94691,    79835,   102852
*SPRING, ELSET=WK_1506

2.453384e-02
*ELEMENT, TYPE=SPRINGA, ELSET=WK_1507
   94692,    79840,   102853
*SPRING, ELSET=WK_1507

2.453384e-02
*ELEMENT, TYPE=SPRINGA, ELSET=WK_1508
   94693,    79845,   102854
*SPRING, ELSET=WK_1508

2.453384e-02
*ELEMENT, TYPE=SPRINGA, ELSET=WK_1509
   94694,    79850,   102855
*SPRING, ELSET=WK_1509

2.453384e-02
*ELEMENT, TYPE=SPRINGA, ELSET=WK_1510
   94695,    79855,   102856
*SPRING, ELSET=WK_1510

2.453384e-02
*ELEMENT, TYPE=SPRINGA, ELSET=WK_1511
   94696,    79860,   102857
*SPRING, ELSET=WK_1511

2.453384e-02
*ELEMENT, TYPE=SPRINGA, ELSET=WK_1512
   94697,    79865,   102858
*SPRING, ELSET=WK_1512

2.453384e-02
*ELEMENT, TYPE=SPRINGA, ELSET=WK_1513
   94698,    79870,   102859
*SPRING, ELSET=WK_1513

2.453384e-02
*ELEMENT, TYPE=SPRINGA, ELSET=WK_1514
   94699,    79875,   102860
*SPRING, ELSET=WK_1514

2.453384e-02
*ELEMENT, TYPE=SPRINGA, ELSET=WK_1515
   94700,    79880,   102861
*SPRING, ELSET=WK_1515

2.453384e-02
*ELEMENT, TYPE=SPRINGA, ELSET=WK_1516
   94701,    79885,   102862
*SPRING, ELSET=WK_1516

2.453384e-02
*ELEMENT, TYPE=SPRINGA, ELSET=WK_1517
   94702,    79890,   102863
*SPRING, ELSET=WK_1517

2.453384e-02
*ELEMENT, TYPE=SPRINGA, ELSET=WK_1518
   94703,    79895,   102864
*SPRING, ELSET=WK_1518

2.453384e-02
*ELEMENT, TYPE=SPRINGA, ELSET=WK_1519
   94704,    79900,   102865
*SPRING, ELSET=WK_1519

2.453384e-02
*ELEMENT, TYPE=SPRINGA, ELSET=WK_1520
   94705,    79905,   102866
*SPRING, ELSET=WK_1520

2.453384e-02
*ELEMENT, TYPE=SPRINGA, ELSET=WK_1521
   94706,    79910,   102867
*SPRING, ELSET=WK_1521

2.453384e-02
*ELEMENT, TYPE=SPRINGA, ELSET=WK_1522
   94707,    79915,   102868
*SPRING, ELSET=WK_1522

2.453384e-02
*ELEMENT, TYPE=SPRINGA, ELSET=WK_1523
   94708,    79920,   102869
*SPRING, ELSET=WK_1523

2.453384e-02
*ELEMENT, TYPE=SPRINGA, ELSET=WK_1524
   94709,    79925,   102870
*SPRING, ELSET=WK_1524

2.453384e-02
*ELEMENT, TYPE=SPRINGA, ELSET=WK_1525
   94710,    79930,   102871
*SPRING, ELSET=WK_1525

2.453384e-02
*ELEMENT, TYPE=SPRINGA, ELSET=WK_1526
   94711,    79935,   102872
*SPRING, ELSET=WK_1526

2.453384e-02
*ELEMENT, TYPE=SPRINGA, ELSET=WK_1527
   94712,    79940,   102873
*SPRING, ELSET=WK_1527

2.453384e-02
*ELEMENT, TYPE=SPRINGA, ELSET=WK_1528
   94713,    79945,   102874
*SPRING, ELSET=WK_1528

2.453384e-02
*ELEMENT, TYPE=SPRINGA, ELSET=WK_1529
   94714,    79950,   102875
*SPRING, ELSET=WK_1529

2.453384e-02
*ELEMENT, TYPE=SPRINGA, ELSET=WK_1530
   94715,    79955,   102876
*SPRING, ELSET=WK_1530

2.453384e-02
*ELEMENT, TYPE=SPRINGA, ELSET=WK_1531
   94716,    79960,   102877
*SPRING, ELSET=WK_1531

2.453384e-02
*ELEMENT, TYPE=SPRINGA, ELSET=WK_1532
   94717,    79965,   102878
*SPRING, ELSET=WK_1532

2.453384e-02
*ELEMENT, TYPE=SPRINGA, ELSET=WK_1533
   94718,    79970,   102879
*SPRING, ELSET=WK_1533

2.453384e-02
*ELEMENT, TYPE=SPRINGA, ELSET=WK_1534
   94719,    79975,   102880
*SPRING, ELSET=WK_1534

2.453384e-02
*ELEMENT, TYPE=SPRINGA, ELSET=WK_1535
   94720,    79980,   102881
*SPRING, ELSET=WK_1535

2.453384e-02
*ELEMENT, TYPE=SPRINGA, ELSET=WK_1536
   94721,    79985,   102882
*SPRING, ELSET=WK_1536

2.453384e-02
*ELEMENT, TYPE=SPRINGA, ELSET=WK_1537
   94722,    79990,   102883
*SPRING, ELSET=WK_1537

2.453384e-02
*ELEMENT, TYPE=SPRINGA, ELSET=WK_1538
   94723,    79995,   102884
*SPRING, ELSET=WK_1538

2.453384e-02
*ELEMENT, TYPE=SPRINGA, ELSET=WK_1539
   94724,    80000,   102885
*SPRING, ELSET=WK_1539

2.453384e-02
*ELEMENT, TYPE=SPRINGA, ELSET=WK_1540
   94725,    80005,   102886
*SPRING, ELSET=WK_1540

2.453384e-02
*ELEMENT, TYPE=SPRINGA, ELSET=WK_1541
   94726,    80010,   102887
*SPRING, ELSET=WK_1541

2.453384e-02
*ELEMENT, TYPE=SPRINGA, ELSET=WK_1542
   94727,    80015,   102888
*SPRING, ELSET=WK_1542

2.453384e-02
*ELEMENT, TYPE=SPRINGA, ELSET=WK_1543
   94728,    80020,   102889
*SPRING, ELSET=WK_1543

2.453384e-02
*ELEMENT, TYPE=SPRINGA, ELSET=WK_1544
   94729,    80025,   102890
*SPRING, ELSET=WK_1544

2.453384e-02
*ELEMENT, TYPE=SPRINGA, ELSET=WK_1545
   94730,    80030,   102891
*SPRING, ELSET=WK_1545

2.453384e-02
*ELEMENT, TYPE=SPRINGA, ELSET=WK_1546
   94731,    80035,   102892
*SPRING, ELSET=WK_1546

2.453384e-02
*ELEMENT, TYPE=SPRINGA, ELSET=WK_1547
   94732,    80040,   102893
*SPRING, ELSET=WK_1547

2.453384e-02
*ELEMENT, TYPE=SPRINGA, ELSET=WK_1548
   94733,    80045,   102894
*SPRING, ELSET=WK_1548

2.453384e-02
*ELEMENT, TYPE=SPRINGA, ELSET=WK_1549
   94734,    80050,   102895
*SPRING, ELSET=WK_1549

2.453384e-02
*ELEMENT, TYPE=SPRINGA, ELSET=WK_1550
   94735,    80055,   102896
*SPRING, ELSET=WK_1550

2.453384e-02
*ELEMENT, TYPE=SPRINGA, ELSET=WK_1551
   94736,    80060,   102897
*SPRING, ELSET=WK_1551

2.453384e-02
*ELEMENT, TYPE=SPRINGA, ELSET=WK_1552
   94737,    80065,   102898
*SPRING, ELSET=WK_1552

2.453384e-02
*ELEMENT, TYPE=SPRINGA, ELSET=WK_1553
   94738,    80070,   102899
*SPRING, ELSET=WK_1553

2.453384e-02
*ELEMENT, TYPE=SPRINGA, ELSET=WK_1554
   94739,    80075,   102900
*SPRING, ELSET=WK_1554

2.453384e-02
*ELEMENT, TYPE=SPRINGA, ELSET=WK_1555
   94740,    80080,   102901
*SPRING, ELSET=WK_1555

2.453384e-02
*ELEMENT, TYPE=SPRINGA, ELSET=WK_1556
   94741,    80085,   102902
*SPRING, ELSET=WK_1556

2.453384e-02
*ELEMENT, TYPE=SPRINGA, ELSET=WK_1557
   94742,    80090,   102903
*SPRING, ELSET=WK_1557

2.453384e-02
*ELEMENT, TYPE=SPRINGA, ELSET=WK_1558
   94743,    80095,   102904
*SPRING, ELSET=WK_1558

2.453384e-02
*ELEMENT, TYPE=SPRINGA, ELSET=WK_1559
   94744,    80100,   102905
*SPRING, ELSET=WK_1559

2.453384e-02
*ELEMENT, TYPE=SPRINGA, ELSET=WK_1560
   94745,    80105,   102906
*SPRING, ELSET=WK_1560

2.453384e-02
*ELEMENT, TYPE=SPRINGA, ELSET=WK_1561
   94746,    80110,   102907
*SPRING, ELSET=WK_1561

2.453384e-02
*ELEMENT, TYPE=SPRINGA, ELSET=WK_1562
   94747,    80115,   102908
*SPRING, ELSET=WK_1562

2.453384e-02
*ELEMENT, TYPE=SPRINGA, ELSET=WK_1563
   94748,    80120,   102909
*SPRING, ELSET=WK_1563

2.453384e-02
*ELEMENT, TYPE=SPRINGA, ELSET=WK_1564
   94749,    80125,   102910
*SPRING, ELSET=WK_1564

2.453384e-02
*ELEMENT, TYPE=SPRINGA, ELSET=WK_1565
   94750,    80130,   102911
*SPRING, ELSET=WK_1565

2.453384e-02
*ELEMENT, TYPE=SPRINGA, ELSET=WK_1566
   94751,    80135,   102912
*SPRING, ELSET=WK_1566

2.453384e-02
*ELEMENT, TYPE=SPRINGA, ELSET=WK_1567
   94752,    80140,   102913
*SPRING, ELSET=WK_1567

2.453384e-02
*ELEMENT, TYPE=SPRINGA, ELSET=WK_1568
   94753,    80145,   102914
*SPRING, ELSET=WK_1568

2.453384e-02
*ELEMENT, TYPE=SPRINGA, ELSET=WK_1569
   94754,    80150,   102915
*SPRING, ELSET=WK_1569

2.453384e-02
*ELEMENT, TYPE=SPRINGA, ELSET=WK_1570
   94755,    80155,   102916
*SPRING, ELSET=WK_1570

2.453384e-02
*ELEMENT, TYPE=SPRINGA, ELSET=WK_1571
   94756,    80160,   102917
*SPRING, ELSET=WK_1571

2.453384e-02
*ELEMENT, TYPE=SPRINGA, ELSET=WK_1572
   94757,    80165,   102918
*SPRING, ELSET=WK_1572

2.453384e-02
*ELEMENT, TYPE=SPRINGA, ELSET=WK_1573
   94758,    80170,   102919
*SPRING, ELSET=WK_1573

2.453384e-02
*ELEMENT, TYPE=SPRINGA, ELSET=WK_1574
   94759,    80175,   102920
*SPRING, ELSET=WK_1574

2.453384e-02
*ELEMENT, TYPE=SPRINGA, ELSET=WK_1575
   94760,    80180,   102921
*SPRING, ELSET=WK_1575

2.453384e-02
*ELEMENT, TYPE=SPRINGA, ELSET=WK_1576
   94761,    80185,   102922
*SPRING, ELSET=WK_1576

2.453384e-02
*ELEMENT, TYPE=SPRINGA, ELSET=WK_1577
   94762,    80190,   102923
*SPRING, ELSET=WK_1577

2.453384e-02
*ELEMENT, TYPE=SPRINGA, ELSET=WK_1578
   94763,    80195,   102924
*SPRING, ELSET=WK_1578

2.453384e-02
*ELEMENT, TYPE=SPRINGA, ELSET=WK_1579
   94764,    80200,   102925
*SPRING, ELSET=WK_1579

2.453384e-02
*ELEMENT, TYPE=SPRINGA, ELSET=WK_1580
   94765,    80205,   102926
*SPRING, ELSET=WK_1580

2.453384e-02
*ELEMENT, TYPE=SPRINGA, ELSET=WK_1581
   94766,    80210,   102927
*SPRING, ELSET=WK_1581

2.453384e-02
*ELEMENT, TYPE=SPRINGA, ELSET=WK_1582
   94767,    80215,   102928
*SPRING, ELSET=WK_1582

2.453384e-02
*ELEMENT, TYPE=SPRINGA, ELSET=WK_1583
   94768,    80220,   102929
*SPRING, ELSET=WK_1583

2.453384e-02
*ELEMENT, TYPE=SPRINGA, ELSET=WK_1584
   94769,    80225,   102930
*SPRING, ELSET=WK_1584

2.453384e-02
*ELEMENT, TYPE=SPRINGA, ELSET=WK_1585
   94770,    80230,   102931
*SPRING, ELSET=WK_1585

2.453384e-02
*ELEMENT, TYPE=SPRINGA, ELSET=WK_1586
   94771,    80235,   102932
*SPRING, ELSET=WK_1586

2.453384e-02
*ELEMENT, TYPE=SPRINGA, ELSET=WK_1587
   94772,    80240,   102933
*SPRING, ELSET=WK_1587

2.453384e-02
*ELEMENT, TYPE=SPRINGA, ELSET=WK_1588
   94773,    80245,   102934
*SPRING, ELSET=WK_1588

2.453384e-02
*ELEMENT, TYPE=SPRINGA, ELSET=WK_1589
   94774,    80250,   102935
*SPRING, ELSET=WK_1589

2.453384e-02
*ELEMENT, TYPE=SPRINGA, ELSET=WK_1590
   94775,    80255,   102936
*SPRING, ELSET=WK_1590

2.453384e-02
*ELEMENT, TYPE=SPRINGA, ELSET=WK_1591
   94776,    80260,   102937
*SPRING, ELSET=WK_1591

2.453384e-02
*ELEMENT, TYPE=SPRINGA, ELSET=WK_1592
   94777,    80265,   102938
*SPRING, ELSET=WK_1592

2.453384e-02
*ELEMENT, TYPE=SPRINGA, ELSET=WK_1593
   94778,    80270,   102939
*SPRING, ELSET=WK_1593

2.453384e-02
*ELEMENT, TYPE=SPRINGA, ELSET=WK_1594
   94779,    80275,   102940
*SPRING, ELSET=WK_1594

2.453384e-02
*ELEMENT, TYPE=SPRINGA, ELSET=WK_1595
   94780,    80280,   102941
*SPRING, ELSET=WK_1595

2.453384e-02
*ELEMENT, TYPE=SPRINGA, ELSET=WK_1596
   94781,    80285,   102942
*SPRING, ELSET=WK_1596

2.453384e-02
*ELEMENT, TYPE=SPRINGA, ELSET=WK_1597
   94782,    80290,   102943
*SPRING, ELSET=WK_1597

2.453384e-02
*ELEMENT, TYPE=SPRINGA, ELSET=WK_1598
   94783,    80295,   102944
*SPRING, ELSET=WK_1598

2.453384e-02
*ELEMENT, TYPE=SPRINGA, ELSET=WK_1599
   94784,    80300,   102945
*SPRING, ELSET=WK_1599

2.453384e-02
*ELEMENT, TYPE=SPRINGA, ELSET=WK_1600
   94785,    80305,   102946
*SPRING, ELSET=WK_1600

2.453384e-02
*ELEMENT, TYPE=SPRINGA, ELSET=WK_1601
   94786,    80310,   102947
*SPRING, ELSET=WK_1601

2.453384e-02
*ELEMENT, TYPE=SPRINGA, ELSET=WK_1602
   94787,    80315,   102948
*SPRING, ELSET=WK_1602

2.453384e-02
*ELEMENT, TYPE=SPRINGA, ELSET=WK_1603
   94788,    80320,   102949
*SPRING, ELSET=WK_1603

2.453384e-02
*ELEMENT, TYPE=SPRINGA, ELSET=WK_1604
   94789,    80325,   102950
*SPRING, ELSET=WK_1604

2.453384e-02
*ELEMENT, TYPE=SPRINGA, ELSET=WK_1605
   94790,    80330,   102951
*SPRING, ELSET=WK_1605

2.453384e-02
*ELEMENT, TYPE=SPRINGA, ELSET=WK_1606
   94791,    80335,   102952
*SPRING, ELSET=WK_1606

2.453384e-02
*ELEMENT, TYPE=SPRINGA, ELSET=WK_1607
   94792,    80340,   102953
*SPRING, ELSET=WK_1607

2.453384e-02
*ELEMENT, TYPE=SPRINGA, ELSET=WK_1608
   94793,    80345,   102954
*SPRING, ELSET=WK_1608

2.453384e-02
*ELEMENT, TYPE=SPRINGA, ELSET=WK_1609
   94794,    80350,   102955
*SPRING, ELSET=WK_1609

2.453384e-02
*ELEMENT, TYPE=SPRINGA, ELSET=WK_1610
   94795,    80355,   102956
*SPRING, ELSET=WK_1610

2.453384e-02
*ELEMENT, TYPE=SPRINGA, ELSET=WK_1611
   94796,    80360,   102957
*SPRING, ELSET=WK_1611

2.453384e-02
*ELEMENT, TYPE=SPRINGA, ELSET=WK_1612
   94797,    80365,   102958
*SPRING, ELSET=WK_1612

2.453384e-02
*ELEMENT, TYPE=SPRINGA, ELSET=WK_1613
   94798,    80370,   102959
*SPRING, ELSET=WK_1613

2.453384e-02
*ELEMENT, TYPE=SPRINGA, ELSET=WK_1614
   94799,    80375,   102960
*SPRING, ELSET=WK_1614

2.453384e-02
*ELEMENT, TYPE=SPRINGA, ELSET=WK_1615
   94800,    80380,   102961
*SPRING, ELSET=WK_1615

2.453384e-02
*ELEMENT, TYPE=SPRINGA, ELSET=WK_1616
   94801,    80385,   102962
*SPRING, ELSET=WK_1616

2.453384e-02
*ELEMENT, TYPE=SPRINGA, ELSET=WK_1617
   94802,    80390,   102963
*SPRING, ELSET=WK_1617

2.453384e-02
*ELEMENT, TYPE=SPRINGA, ELSET=WK_1618
   94803,    80395,   102964
*SPRING, ELSET=WK_1618

2.453384e-02
*ELEMENT, TYPE=SPRINGA, ELSET=WK_1619
   94804,    80400,   102965
*SPRING, ELSET=WK_1619

2.453384e-02
*ELEMENT, TYPE=SPRINGA, ELSET=WK_1620
   94805,    80405,   102966
*SPRING, ELSET=WK_1620

2.453384e-02
*ELEMENT, TYPE=SPRINGA, ELSET=WK_1621
   94806,    80410,   102967
*SPRING, ELSET=WK_1621

2.453384e-02
*ELEMENT, TYPE=SPRINGA, ELSET=WK_1622
   94807,    80415,   102968
*SPRING, ELSET=WK_1622

2.453384e-02
*ELEMENT, TYPE=SPRINGA, ELSET=WK_1623
   94808,    80420,   102969
*SPRING, ELSET=WK_1623

2.453384e-02
*ELEMENT, TYPE=SPRINGA, ELSET=WK_1624
   94809,    80425,   102970
*SPRING, ELSET=WK_1624

2.453384e-02
*ELEMENT, TYPE=SPRINGA, ELSET=WK_1625
   94810,    80430,   102971
*SPRING, ELSET=WK_1625

2.453384e-02
*ELEMENT, TYPE=SPRINGA, ELSET=WK_1626
   94811,    80435,   102972
*SPRING, ELSET=WK_1626

2.453384e-02
*ELEMENT, TYPE=SPRINGA, ELSET=WK_1627
   94812,    80440,   102973
*SPRING, ELSET=WK_1627

2.453384e-02
*ELEMENT, TYPE=SPRINGA, ELSET=WK_1628
   94813,    80445,   102974
*SPRING, ELSET=WK_1628

2.453384e-02
*ELEMENT, TYPE=SPRINGA, ELSET=WK_1629
   94814,    80450,   102975
*SPRING, ELSET=WK_1629

2.453384e-02
*ELEMENT, TYPE=SPRINGA, ELSET=WK_1630
   94815,    80455,   102976
*SPRING, ELSET=WK_1630

2.453384e-02
*ELEMENT, TYPE=SPRINGA, ELSET=WK_1631
   94816,    80460,   102977
*SPRING, ELSET=WK_1631

2.453384e-02
*ELEMENT, TYPE=SPRINGA, ELSET=WK_1632
   94817,    80465,   102978
*SPRING, ELSET=WK_1632

2.453384e-02
*ELEMENT, TYPE=SPRINGA, ELSET=WK_1633
   94818,    80470,   102979
*SPRING, ELSET=WK_1633

2.453384e-02
*ELEMENT, TYPE=SPRINGA, ELSET=WK_1634
   94819,    80475,   102980
*SPRING, ELSET=WK_1634

2.453384e-02
*ELEMENT, TYPE=SPRINGA, ELSET=WK_1635
   94820,    80480,   102981
*SPRING, ELSET=WK_1635

2.453384e-02
*ELEMENT, TYPE=SPRINGA, ELSET=WK_1636
   94821,    80485,   102982
*SPRING, ELSET=WK_1636

2.453384e-02
*ELEMENT, TYPE=SPRINGA, ELSET=WK_1637
   94822,    80490,   102983
*SPRING, ELSET=WK_1637

2.453384e-02
*ELEMENT, TYPE=SPRINGA, ELSET=WK_1638
   94823,    80495,   102984
*SPRING, ELSET=WK_1638

2.453384e-02
*ELEMENT, TYPE=SPRINGA, ELSET=WK_1639
   94824,    80500,   102985
*SPRING, ELSET=WK_1639

2.453384e-02
*ELEMENT, TYPE=SPRINGA, ELSET=WK_1640
   94825,    80505,   102986
*SPRING, ELSET=WK_1640

2.453384e-02
*ELEMENT, TYPE=SPRINGA, ELSET=WK_1641
   94826,    80510,   102987
*SPRING, ELSET=WK_1641

2.453384e-02
*ELEMENT, TYPE=SPRINGA, ELSET=WK_1642
   94827,    80515,   102988
*SPRING, ELSET=WK_1642

2.453384e-02
*ELEMENT, TYPE=SPRINGA, ELSET=WK_1643
   94828,    80520,   102989
*SPRING, ELSET=WK_1643

2.453384e-02
*ELEMENT, TYPE=SPRINGA, ELSET=WK_1644
   94829,    80525,   102990
*SPRING, ELSET=WK_1644

2.453384e-02
*ELEMENT, TYPE=SPRINGA, ELSET=WK_1645
   94830,    80530,   102991
*SPRING, ELSET=WK_1645

2.453384e-02
*ELEMENT, TYPE=SPRINGA, ELSET=WK_1646
   94831,    80535,   102992
*SPRING, ELSET=WK_1646

2.453384e-02
*ELEMENT, TYPE=SPRINGA, ELSET=WK_1647
   94832,    80540,   102993
*SPRING, ELSET=WK_1647

2.453384e-02
*ELEMENT, TYPE=SPRINGA, ELSET=WK_1648
   94833,    80545,   102994
*SPRING, ELSET=WK_1648

2.453384e-02
*ELEMENT, TYPE=SPRINGA, ELSET=WK_1649
   94834,    80550,   102995
*SPRING, ELSET=WK_1649

2.453384e-02
*ELEMENT, TYPE=SPRINGA, ELSET=WK_1650
   94835,    80555,   102996
*SPRING, ELSET=WK_1650

2.453384e-02
*ELEMENT, TYPE=SPRINGA, ELSET=WK_1651
   94836,    80560,   102997
*SPRING, ELSET=WK_1651

2.453384e-02
*ELEMENT, TYPE=SPRINGA, ELSET=WK_1652
   94837,    80565,   102998
*SPRING, ELSET=WK_1652

2.453384e-02
*ELEMENT, TYPE=SPRINGA, ELSET=WK_1653
   94838,    80570,   102999
*SPRING, ELSET=WK_1653

2.453384e-02
*ELEMENT, TYPE=SPRINGA, ELSET=WK_1654
   94839,    80575,   103000
*SPRING, ELSET=WK_1654

2.453384e-02
*ELEMENT, TYPE=SPRINGA, ELSET=WK_1655
   94840,    80580,   103001
*SPRING, ELSET=WK_1655

2.453384e-02
*ELEMENT, TYPE=SPRINGA, ELSET=WK_1656
   94841,    80585,   103002
*SPRING, ELSET=WK_1656

2.453384e-02
*ELEMENT, TYPE=SPRINGA, ELSET=WK_1657
   94842,    80590,   103003
*SPRING, ELSET=WK_1657

2.453384e-02
*ELEMENT, TYPE=SPRINGA, ELSET=WK_1658
   94843,    80595,   103004
*SPRING, ELSET=WK_1658

2.453384e-02
*ELEMENT, TYPE=SPRINGA, ELSET=WK_1659
   94844,    80600,   103005
*SPRING, ELSET=WK_1659

2.453384e-02
*ELEMENT, TYPE=SPRINGA, ELSET=WK_1660
   94845,    80605,   103006
*SPRING, ELSET=WK_1660

2.453384e-02
*ELEMENT, TYPE=SPRINGA, ELSET=WK_1661
   94846,    80610,   103007
*SPRING, ELSET=WK_1661

2.453384e-02
*ELEMENT, TYPE=SPRINGA, ELSET=WK_1662
   94847,    80615,   103008
*SPRING, ELSET=WK_1662

2.453384e-02
*ELEMENT, TYPE=SPRINGA, ELSET=WK_1663
   94848,    80620,   103009
*SPRING, ELSET=WK_1663

2.453384e-02
*ELEMENT, TYPE=SPRINGA, ELSET=WK_1664
   94849,    80625,   103010
*SPRING, ELSET=WK_1664

2.453384e-02
*ELEMENT, TYPE=SPRINGA, ELSET=WK_1665
   94850,    80630,   103011
*SPRING, ELSET=WK_1665

2.453384e-02
*ELEMENT, TYPE=SPRINGA, ELSET=WK_1666
   94851,    80635,   103012
*SPRING, ELSET=WK_1666

2.453384e-02
*ELEMENT, TYPE=SPRINGA, ELSET=WK_1667
   94852,    80640,   103013
*SPRING, ELSET=WK_1667

2.453384e-02
*ELEMENT, TYPE=SPRINGA, ELSET=WK_1668
   94853,    80645,   103014
*SPRING, ELSET=WK_1668

2.453384e-02
*ELEMENT, TYPE=SPRINGA, ELSET=WK_1669
   94854,    80650,   103015
*SPRING, ELSET=WK_1669

2.453384e-02
*ELEMENT, TYPE=SPRINGA, ELSET=WK_1670
   94855,    80655,   103016
*SPRING, ELSET=WK_1670

2.453384e-02
*ELEMENT, TYPE=SPRINGA, ELSET=WK_1671
   94856,    80660,   103017
*SPRING, ELSET=WK_1671

2.453384e-02
*ELEMENT, TYPE=SPRINGA, ELSET=WK_1672
   94857,    80665,   103018
*SPRING, ELSET=WK_1672

2.453384e-02
*ELEMENT, TYPE=SPRINGA, ELSET=WK_1673
   94858,    80670,   103019
*SPRING, ELSET=WK_1673

2.453384e-02
*ELEMENT, TYPE=SPRINGA, ELSET=WK_1674
   94859,    80675,   103020
*SPRING, ELSET=WK_1674

2.453384e-02
*ELEMENT, TYPE=SPRINGA, ELSET=WK_1675
   94860,    80680,   103021
*SPRING, ELSET=WK_1675

2.453384e-02
*ELEMENT, TYPE=SPRINGA, ELSET=WK_1676
   94861,    80685,   103022
*SPRING, ELSET=WK_1676

2.453384e-02
*ELEMENT, TYPE=SPRINGA, ELSET=WK_1677
   94862,    80690,   103023
*SPRING, ELSET=WK_1677

2.453384e-02
*ELEMENT, TYPE=SPRINGA, ELSET=WK_1678
   94863,    80695,   103024
*SPRING, ELSET=WK_1678

2.453384e-02
*ELEMENT, TYPE=SPRINGA, ELSET=WK_1679
   94864,    80700,   103025
*SPRING, ELSET=WK_1679

2.453384e-02
*ELEMENT, TYPE=SPRINGA, ELSET=WK_1680
   94865,    80705,   103026
*SPRING, ELSET=WK_1680

2.453384e-02
*ELEMENT, TYPE=SPRINGA, ELSET=WK_1681
   94866,    80710,   103027
*SPRING, ELSET=WK_1681

2.453384e-02
*ELEMENT, TYPE=SPRINGA, ELSET=WK_1682
   94867,    80715,   103028
*SPRING, ELSET=WK_1682

2.453384e-02
*ELEMENT, TYPE=SPRINGA, ELSET=WK_1683
   94868,    80720,   103029
*SPRING, ELSET=WK_1683

2.453384e-02
*ELEMENT, TYPE=SPRINGA, ELSET=WK_1684
   94869,    80725,   103030
*SPRING, ELSET=WK_1684

2.453384e-02
*ELEMENT, TYPE=SPRINGA, ELSET=WK_1685
   94870,    80730,   103031
*SPRING, ELSET=WK_1685

2.453384e-02
*ELEMENT, TYPE=SPRINGA, ELSET=WK_1686
   94871,    80735,   103032
*SPRING, ELSET=WK_1686

2.453384e-02
*ELEMENT, TYPE=SPRINGA, ELSET=WK_1687
   94872,    80740,   103033
*SPRING, ELSET=WK_1687

2.453384e-02
*ELEMENT, TYPE=SPRINGA, ELSET=WK_1688
   94873,    80745,   103034
*SPRING, ELSET=WK_1688

2.453384e-02
*ELEMENT, TYPE=SPRINGA, ELSET=WK_1689
   94874,    80750,   103035
*SPRING, ELSET=WK_1689

2.453384e-02
*ELEMENT, TYPE=SPRINGA, ELSET=WK_1690
   94875,    80755,   103036
*SPRING, ELSET=WK_1690

2.453384e-02
*ELEMENT, TYPE=SPRINGA, ELSET=WK_1691
   94876,    80760,   103037
*SPRING, ELSET=WK_1691

2.453384e-02
*ELEMENT, TYPE=SPRINGA, ELSET=WK_1692
   94877,    80765,   103038
*SPRING, ELSET=WK_1692

2.453384e-02
*ELEMENT, TYPE=SPRINGA, ELSET=WK_1693
   94878,    80770,   103039
*SPRING, ELSET=WK_1693

2.453384e-02
*ELEMENT, TYPE=SPRINGA, ELSET=WK_1694
   94879,    80775,   103040
*SPRING, ELSET=WK_1694

2.453384e-02
*ELEMENT, TYPE=SPRINGA, ELSET=WK_1695
   94880,    80780,   103041
*SPRING, ELSET=WK_1695

2.453384e-02
*ELEMENT, TYPE=SPRINGA, ELSET=WK_1696
   94881,    80785,   103042
*SPRING, ELSET=WK_1696

2.453384e-02
*ELEMENT, TYPE=SPRINGA, ELSET=WK_1697
   94882,    80790,   103043
*SPRING, ELSET=WK_1697

2.453384e-02
*ELEMENT, TYPE=SPRINGA, ELSET=WK_1698
   94883,    80795,   103044
*SPRING, ELSET=WK_1698

2.453384e-02
*ELEMENT, TYPE=SPRINGA, ELSET=WK_1699
   94884,    80800,   103045
*SPRING, ELSET=WK_1699

2.453384e-02
*ELEMENT, TYPE=SPRINGA, ELSET=WK_1700
   94885,    80805,   103046
*SPRING, ELSET=WK_1700

2.453384e-02
*ELEMENT, TYPE=SPRINGA, ELSET=WK_1701
   94886,    80810,   103047
*SPRING, ELSET=WK_1701

2.453384e-02
*ELEMENT, TYPE=SPRINGA, ELSET=WK_1702
   94887,    80815,   103048
*SPRING, ELSET=WK_1702

2.453384e-02
*ELEMENT, TYPE=SPRINGA, ELSET=WK_1703
   94888,    80820,   103049
*SPRING, ELSET=WK_1703

2.453384e-02
*ELEMENT, TYPE=SPRINGA, ELSET=WK_1704
   94889,    80825,   103050
*SPRING, ELSET=WK_1704

2.453384e-02
*ELEMENT, TYPE=SPRINGA, ELSET=WK_1705
   94890,    80830,   103051
*SPRING, ELSET=WK_1705

2.453384e-02
*ELEMENT, TYPE=SPRINGA, ELSET=WK_1706
   94891,    80835,   103052
*SPRING, ELSET=WK_1706

2.453384e-02
*ELEMENT, TYPE=SPRINGA, ELSET=WK_1707
   94892,    80840,   103053
*SPRING, ELSET=WK_1707

2.453384e-02
*ELEMENT, TYPE=SPRINGA, ELSET=WK_1708
   94893,    80845,   103054
*SPRING, ELSET=WK_1708

2.453384e-02
*ELEMENT, TYPE=SPRINGA, ELSET=WK_1709
   94894,    80850,   103055
*SPRING, ELSET=WK_1709

2.453384e-02
*ELEMENT, TYPE=SPRINGA, ELSET=WK_1710
   94895,    80855,   103056
*SPRING, ELSET=WK_1710

2.453384e-02
*ELEMENT, TYPE=SPRINGA, ELSET=WK_1711
   94896,    80860,   103057
*SPRING, ELSET=WK_1711

2.453384e-02
*ELEMENT, TYPE=SPRINGA, ELSET=WK_1712
   94897,    80865,   103058
*SPRING, ELSET=WK_1712

2.453384e-02
*ELEMENT, TYPE=SPRINGA, ELSET=WK_1713
   94898,    80870,   103059
*SPRING, ELSET=WK_1713

2.453384e-02
*ELEMENT, TYPE=SPRINGA, ELSET=WK_1714
   94899,    80875,   103060
*SPRING, ELSET=WK_1714

2.453384e-02
*ELEMENT, TYPE=SPRINGA, ELSET=WK_1715
   94900,    80880,   103061
*SPRING, ELSET=WK_1715

2.453384e-02
*ELEMENT, TYPE=SPRINGA, ELSET=WK_1716
   94901,    80885,   103062
*SPRING, ELSET=WK_1716

2.453384e-02
*ELEMENT, TYPE=SPRINGA, ELSET=WK_1717
   94902,    80890,   103063
*SPRING, ELSET=WK_1717

2.453384e-02
*ELEMENT, TYPE=SPRINGA, ELSET=WK_1718
   94903,    80895,   103064
*SPRING, ELSET=WK_1718

2.453384e-02
*ELEMENT, TYPE=SPRINGA, ELSET=WK_1719
   94904,    80900,   103065
*SPRING, ELSET=WK_1719

2.453384e-02
*ELEMENT, TYPE=SPRINGA, ELSET=WK_1720
   94905,    80905,   103066
*SPRING, ELSET=WK_1720

2.453384e-02
*ELEMENT, TYPE=SPRINGA, ELSET=WK_1721
   94906,    80910,   103067
*SPRING, ELSET=WK_1721

2.453384e-02
*ELEMENT, TYPE=SPRINGA, ELSET=WK_1722
   94907,    80915,   103068
*SPRING, ELSET=WK_1722

2.453384e-02
*ELEMENT, TYPE=SPRINGA, ELSET=WK_1723
   94908,    80920,   103069
*SPRING, ELSET=WK_1723

2.453384e-02
*ELEMENT, TYPE=SPRINGA, ELSET=WK_1724
   94909,    80925,   103070
*SPRING, ELSET=WK_1724

2.453384e-02
*ELEMENT, TYPE=SPRINGA, ELSET=WK_1725
   94910,    80930,   103071
*SPRING, ELSET=WK_1725

2.453384e-02
*ELEMENT, TYPE=SPRINGA, ELSET=WK_1726
   94911,    80935,   103072
*SPRING, ELSET=WK_1726

2.453384e-02
*ELEMENT, TYPE=SPRINGA, ELSET=WK_1727
   94912,    80940,   103073
*SPRING, ELSET=WK_1727

2.453384e-02
*ELEMENT, TYPE=SPRINGA, ELSET=WK_1728
   94913,    80945,   103074
*SPRING, ELSET=WK_1728

2.453384e-02
*ELEMENT, TYPE=SPRINGA, ELSET=WK_1729
   94914,    80950,   103075
*SPRING, ELSET=WK_1729

2.453384e-02
*ELEMENT, TYPE=SPRINGA, ELSET=WK_1730
   94915,    80955,   103076
*SPRING, ELSET=WK_1730

2.453384e-02
*ELEMENT, TYPE=SPRINGA, ELSET=WK_1731
   94916,    80960,   103077
*SPRING, ELSET=WK_1731

2.453384e-02
*ELEMENT, TYPE=SPRINGA, ELSET=WK_1732
   94917,    80965,   103078
*SPRING, ELSET=WK_1732

2.453384e-02
*ELEMENT, TYPE=SPRINGA, ELSET=WK_1733
   94918,    80970,   103079
*SPRING, ELSET=WK_1733

2.453384e-02
*ELEMENT, TYPE=SPRINGA, ELSET=WK_1734
   94919,    80975,   103080
*SPRING, ELSET=WK_1734

2.453384e-02
*ELEMENT, TYPE=SPRINGA, ELSET=WK_1735
   94920,    80980,   103081
*SPRING, ELSET=WK_1735

2.453384e-02
*ELEMENT, TYPE=SPRINGA, ELSET=WK_1736
   94921,    80985,   103082
*SPRING, ELSET=WK_1736

2.453384e-02
*ELEMENT, TYPE=SPRINGA, ELSET=WK_1737
   94922,    80990,   103083
*SPRING, ELSET=WK_1737

2.453384e-02
*ELEMENT, TYPE=SPRINGA, ELSET=WK_1738
   94923,    80995,   103084
*SPRING, ELSET=WK_1738

2.453384e-02
*ELEMENT, TYPE=SPRINGA, ELSET=WK_1739
   94924,    81000,   103085
*SPRING, ELSET=WK_1739

2.453384e-02
*ELEMENT, TYPE=SPRINGA, ELSET=WK_1740
   94925,    81005,   103086
*SPRING, ELSET=WK_1740

2.453384e-02
*ELEMENT, TYPE=SPRINGA, ELSET=WK_1741
   94926,    81010,   103087
*SPRING, ELSET=WK_1741

2.453384e-02
*ELEMENT, TYPE=SPRINGA, ELSET=WK_1742
   94927,    81015,   103088
*SPRING, ELSET=WK_1742

2.453384e-02
*ELEMENT, TYPE=SPRINGA, ELSET=WK_1743
   94928,    81020,   103089
*SPRING, ELSET=WK_1743

2.453384e-02
*ELEMENT, TYPE=SPRINGA, ELSET=WK_1744
   94929,    81025,   103090
*SPRING, ELSET=WK_1744

2.453384e-02
*ELEMENT, TYPE=SPRINGA, ELSET=WK_1745
   94930,    81030,   103091
*SPRING, ELSET=WK_1745

2.453384e-02
*ELEMENT, TYPE=SPRINGA, ELSET=WK_1746
   94931,    81035,   103092
*SPRING, ELSET=WK_1746

2.453384e-02
*ELEMENT, TYPE=SPRINGA, ELSET=WK_1747
   94932,    81040,   103093
*SPRING, ELSET=WK_1747

2.453384e-02
*ELEMENT, TYPE=SPRINGA, ELSET=WK_1748
   94933,    81045,   103094
*SPRING, ELSET=WK_1748

2.453384e-02
*ELEMENT, TYPE=SPRINGA, ELSET=WK_1749
   94934,    81050,   103095
*SPRING, ELSET=WK_1749

2.453384e-02
*ELEMENT, TYPE=SPRINGA, ELSET=WK_1750
   94935,    81055,   103096
*SPRING, ELSET=WK_1750

2.453384e-02
*ELEMENT, TYPE=SPRINGA, ELSET=WK_1751
   94936,    81060,   103097
*SPRING, ELSET=WK_1751

2.453384e-02
*ELEMENT, TYPE=SPRINGA, ELSET=WK_1752
   94937,    81065,   103098
*SPRING, ELSET=WK_1752

2.453384e-02
*ELEMENT, TYPE=SPRINGA, ELSET=WK_1753
   94938,    81070,   103099
*SPRING, ELSET=WK_1753

2.453384e-02
*ELEMENT, TYPE=SPRINGA, ELSET=WK_1754
   94939,    81075,   103100
*SPRING, ELSET=WK_1754

2.453384e-02
*ELEMENT, TYPE=SPRINGA, ELSET=WK_1755
   94940,    81080,   103101
*SPRING, ELSET=WK_1755

2.453384e-02
*ELEMENT, TYPE=SPRINGA, ELSET=WK_1756
   94941,    81085,   103102
*SPRING, ELSET=WK_1756

2.453384e-02
*ELEMENT, TYPE=SPRINGA, ELSET=WK_1757
   94942,    81090,   103103
*SPRING, ELSET=WK_1757

2.453384e-02
*ELEMENT, TYPE=SPRINGA, ELSET=WK_1758
   94943,    81095,   103104
*SPRING, ELSET=WK_1758

2.453384e-02
*ELEMENT, TYPE=SPRINGA, ELSET=WK_1759
   94944,    81100,   103105
*SPRING, ELSET=WK_1759

2.453384e-02
*ELEMENT, TYPE=SPRINGA, ELSET=WK_1760
   94945,    81105,   103106
*SPRING, ELSET=WK_1760

2.453384e-02
*ELEMENT, TYPE=SPRINGA, ELSET=WK_1761
   94946,    81110,   103107
*SPRING, ELSET=WK_1761

2.453384e-02
*ELEMENT, TYPE=SPRINGA, ELSET=WK_1762
   94947,    81115,   103108
*SPRING, ELSET=WK_1762

2.453384e-02
*ELEMENT, TYPE=SPRINGA, ELSET=WK_1763
   94948,    81120,   103109
*SPRING, ELSET=WK_1763

2.453384e-02
*ELEMENT, TYPE=SPRINGA, ELSET=WK_1764
   94949,    81125,   103110
*SPRING, ELSET=WK_1764

2.453384e-02
*ELEMENT, TYPE=SPRINGA, ELSET=WK_1765
   94950,    81130,   103111
*SPRING, ELSET=WK_1765

2.453384e-02
*ELEMENT, TYPE=SPRINGA, ELSET=WK_1766
   94951,    81135,   103112
*SPRING, ELSET=WK_1766

2.453384e-02
*ELEMENT, TYPE=SPRINGA, ELSET=WK_1767
   94952,    81140,   103113
*SPRING, ELSET=WK_1767

2.453384e-02
*ELEMENT, TYPE=SPRINGA, ELSET=WK_1768
   94953,    81145,   103114
*SPRING, ELSET=WK_1768

2.453384e-02
*ELEMENT, TYPE=SPRINGA, ELSET=WK_1769
   94954,    81150,   103115
*SPRING, ELSET=WK_1769

2.453384e-02
*ELEMENT, TYPE=SPRINGA, ELSET=WK_1770
   94955,    81155,   103116
*SPRING, ELSET=WK_1770

2.453384e-02
*ELEMENT, TYPE=SPRINGA, ELSET=WK_1771
   94956,    81160,   103117
*SPRING, ELSET=WK_1771

2.453384e-02
*ELEMENT, TYPE=SPRINGA, ELSET=WK_1772
   94957,    81165,   103118
*SPRING, ELSET=WK_1772

2.453384e-02
*ELEMENT, TYPE=SPRINGA, ELSET=WK_1773
   94958,    81170,   103119
*SPRING, ELSET=WK_1773

2.453384e-02
*ELEMENT, TYPE=SPRINGA, ELSET=WK_1774
   94959,    81175,   103120
*SPRING, ELSET=WK_1774

2.453384e-02
*ELEMENT, TYPE=SPRINGA, ELSET=WK_1775
   94960,    81180,   103121
*SPRING, ELSET=WK_1775

2.453384e-02
*ELEMENT, TYPE=SPRINGA, ELSET=WK_1776
   94961,    81185,   103122
*SPRING, ELSET=WK_1776

2.453384e-02
*ELEMENT, TYPE=SPRINGA, ELSET=WK_1777
   94962,    81190,   103123
*SPRING, ELSET=WK_1777

2.453384e-02
*ELEMENT, TYPE=SPRINGA, ELSET=WK_1778
   94963,    81195,   103124
*SPRING, ELSET=WK_1778

2.453384e-02
*ELEMENT, TYPE=SPRINGA, ELSET=WK_1779
   94964,    81200,   103125
*SPRING, ELSET=WK_1779

2.453384e-02
*ELEMENT, TYPE=SPRINGA, ELSET=WK_1780
   94965,    81205,   103126
*SPRING, ELSET=WK_1780

2.453384e-02
*ELEMENT, TYPE=SPRINGA, ELSET=WK_1781
   94966,    81210,   103127
*SPRING, ELSET=WK_1781

2.453384e-02
*ELEMENT, TYPE=SPRINGA, ELSET=WK_1782
   94967,    81215,   103128
*SPRING, ELSET=WK_1782

2.453384e-02
*ELEMENT, TYPE=SPRINGA, ELSET=WK_1783
   94968,    81220,   103129
*SPRING, ELSET=WK_1783

2.453384e-02
*ELEMENT, TYPE=SPRINGA, ELSET=WK_1784
   94969,    81225,   103130
*SPRING, ELSET=WK_1784

2.453384e-02
*ELEMENT, TYPE=SPRINGA, ELSET=WK_1785
   94970,    81230,   103131
*SPRING, ELSET=WK_1785

2.453384e-02
*ELEMENT, TYPE=SPRINGA, ELSET=WK_1786
   94971,    81235,   103132
*SPRING, ELSET=WK_1786

2.453384e-02
*ELEMENT, TYPE=SPRINGA, ELSET=WK_1787
   94972,    81240,   103133
*SPRING, ELSET=WK_1787

2.453384e-02
*ELEMENT, TYPE=SPRINGA, ELSET=WK_1788
   94973,    81245,   103134
*SPRING, ELSET=WK_1788

2.453384e-02
*ELEMENT, TYPE=SPRINGA, ELSET=WK_1789
   94974,    81250,   103135
*SPRING, ELSET=WK_1789

2.453384e-02
*ELEMENT, TYPE=SPRINGA, ELSET=WK_1790
   94975,    81255,   103136
*SPRING, ELSET=WK_1790

2.453384e-02
*ELEMENT, TYPE=SPRINGA, ELSET=WK_1791
   94976,    81260,   103137
*SPRING, ELSET=WK_1791

2.453384e-02
*ELEMENT, TYPE=SPRINGA, ELSET=WK_1792
   94977,    81265,   103138
*SPRING, ELSET=WK_1792

2.453384e-02
*ELEMENT, TYPE=SPRINGA, ELSET=WK_1793
   94978,    81270,   103139
*SPRING, ELSET=WK_1793

2.453384e-02
*ELEMENT, TYPE=SPRINGA, ELSET=WK_1794
   94979,    81275,   103140
*SPRING, ELSET=WK_1794

2.453384e-02
*ELEMENT, TYPE=SPRINGA, ELSET=WK_1795
   94980,    81280,   103141
*SPRING, ELSET=WK_1795

2.453384e-02
*ELEMENT, TYPE=SPRINGA, ELSET=WK_1796
   94981,    81285,   103142
*SPRING, ELSET=WK_1796

2.453384e-02
*ELEMENT, TYPE=SPRINGA, ELSET=WK_1797
   94982,    81290,   103143
*SPRING, ELSET=WK_1797

2.453384e-02
*ELEMENT, TYPE=SPRINGA, ELSET=WK_1798
   94983,    81295,   103144
*SPRING, ELSET=WK_1798

2.453384e-02
*ELEMENT, TYPE=SPRINGA, ELSET=WK_1799
   94984,    81300,   103145
*SPRING, ELSET=WK_1799

2.453384e-02
*ELEMENT, TYPE=SPRINGA, ELSET=WK_1800
   94985,    81305,   103146
*SPRING, ELSET=WK_1800

2.453384e-02
*ELEMENT, TYPE=SPRINGA, ELSET=WK_1801
   94986,    81310,   103147
*SPRING, ELSET=WK_1801

2.453384e-02
*ELEMENT, TYPE=SPRINGA, ELSET=WK_1802
   94987,    81315,   103148
*SPRING, ELSET=WK_1802

2.453384e-02
*ELEMENT, TYPE=SPRINGA, ELSET=WK_1803
   94988,    81320,   103149
*SPRING, ELSET=WK_1803

2.453384e-02
*ELEMENT, TYPE=SPRINGA, ELSET=WK_1804
   94989,    81325,   103150
*SPRING, ELSET=WK_1804

2.453384e-02
*ELEMENT, TYPE=SPRINGA, ELSET=WK_1805
   94990,    81330,   103151
*SPRING, ELSET=WK_1805

2.453384e-02
*ELEMENT, TYPE=SPRINGA, ELSET=WK_1806
   94991,    81335,   103152
*SPRING, ELSET=WK_1806

2.453384e-02
*ELEMENT, TYPE=SPRINGA, ELSET=WK_1807
   94992,    81340,   103153
*SPRING, ELSET=WK_1807

2.453384e-02
*ELEMENT, TYPE=SPRINGA, ELSET=WK_1808
   94993,    81345,   103154
*SPRING, ELSET=WK_1808

2.453384e-02
*ELEMENT, TYPE=SPRINGA, ELSET=WK_1809
   94994,    81350,   103155
*SPRING, ELSET=WK_1809

2.453384e-02
*ELEMENT, TYPE=SPRINGA, ELSET=WK_1810
   94995,    81355,   103156
*SPRING, ELSET=WK_1810

2.453384e-02
*ELEMENT, TYPE=SPRINGA, ELSET=WK_1811
   94996,    81360,   103157
*SPRING, ELSET=WK_1811

2.453384e-02
*ELEMENT, TYPE=SPRINGA, ELSET=WK_1812
   94997,    81365,   103158
*SPRING, ELSET=WK_1812

2.453384e-02
*ELEMENT, TYPE=SPRINGA, ELSET=WK_1813
   94998,    81370,   103159
*SPRING, ELSET=WK_1813

2.453384e-02
*ELEMENT, TYPE=SPRINGA, ELSET=WK_1814
   94999,    81375,   103160
*SPRING, ELSET=WK_1814

2.453384e-02
*ELEMENT, TYPE=SPRINGA, ELSET=WK_1815
   95000,    81380,   103161
*SPRING, ELSET=WK_1815

2.453384e-02
*ELEMENT, TYPE=SPRINGA, ELSET=WK_1816
   95001,    81385,   103162
*SPRING, ELSET=WK_1816

2.453384e-02
*ELEMENT, TYPE=SPRINGA, ELSET=WK_1817
   95002,    81390,   103163
*SPRING, ELSET=WK_1817

2.453384e-02
*ELEMENT, TYPE=SPRINGA, ELSET=WK_1818
   95003,    81395,   103164
*SPRING, ELSET=WK_1818

2.453384e-02
*ELEMENT, TYPE=SPRINGA, ELSET=WK_1819
   95004,    81400,   103165
*SPRING, ELSET=WK_1819

2.453384e-02
*ELEMENT, TYPE=SPRINGA, ELSET=WK_1820
   95005,    81405,   103166
*SPRING, ELSET=WK_1820

2.453384e-02
*ELEMENT, TYPE=SPRINGA, ELSET=WK_1821
   95006,    81410,   103167
*SPRING, ELSET=WK_1821

2.453384e-02
*ELEMENT, TYPE=SPRINGA, ELSET=WK_1822
   95007,    81415,   103168
*SPRING, ELSET=WK_1822

2.453384e-02
*ELEMENT, TYPE=SPRINGA, ELSET=WK_1823
   95008,    81420,   103169
*SPRING, ELSET=WK_1823

2.453384e-02
*ELEMENT, TYPE=SPRINGA, ELSET=WK_1824
   95009,    81425,   103170
*SPRING, ELSET=WK_1824

2.453384e-02
*ELEMENT, TYPE=SPRINGA, ELSET=WK_1825
   95010,    81430,   103171
*SPRING, ELSET=WK_1825

2.453384e-02
*ELEMENT, TYPE=SPRINGA, ELSET=WK_1826
   95011,    81435,   103172
*SPRING, ELSET=WK_1826

2.453384e-02
*ELEMENT, TYPE=SPRINGA, ELSET=WK_1827
   95012,    81440,   103173
*SPRING, ELSET=WK_1827

2.453384e-02
*ELEMENT, TYPE=SPRINGA, ELSET=WK_1828
   95013,    81445,   103174
*SPRING, ELSET=WK_1828

2.453384e-02
*ELEMENT, TYPE=SPRINGA, ELSET=WK_1829
   95014,    81450,   103175
*SPRING, ELSET=WK_1829

2.453384e-02
*ELEMENT, TYPE=SPRINGA, ELSET=WK_1830
   95015,    81455,   103176
*SPRING, ELSET=WK_1830

2.453384e-02
*ELEMENT, TYPE=SPRINGA, ELSET=WK_1831
   95016,    81460,   103177
*SPRING, ELSET=WK_1831

2.453384e-02
*ELEMENT, TYPE=SPRINGA, ELSET=WK_1832
   95017,    81465,   103178
*SPRING, ELSET=WK_1832

2.453384e-02
*ELEMENT, TYPE=SPRINGA, ELSET=WK_1833
   95018,    81470,   103179
*SPRING, ELSET=WK_1833

2.453384e-02
*ELEMENT, TYPE=SPRINGA, ELSET=WK_1834
   95019,    81475,   103180
*SPRING, ELSET=WK_1834

2.453384e-02
*ELEMENT, TYPE=SPRINGA, ELSET=WK_1835
   95020,    81480,   103181
*SPRING, ELSET=WK_1835

2.453384e-02
*ELEMENT, TYPE=SPRINGA, ELSET=WK_1836
   95021,    81485,   103182
*SPRING, ELSET=WK_1836

2.453384e-02
*ELEMENT, TYPE=SPRINGA, ELSET=WK_1837
   95022,    81490,   103183
*SPRING, ELSET=WK_1837

2.453384e-02
*ELEMENT, TYPE=SPRINGA, ELSET=WK_1838
   95023,    81495,   103184
*SPRING, ELSET=WK_1838

2.453384e-02
*ELEMENT, TYPE=SPRINGA, ELSET=WK_1839
   95024,    81500,   103185
*SPRING, ELSET=WK_1839

2.453384e-02
*ELEMENT, TYPE=SPRINGA, ELSET=WK_1840
   95025,    81505,   103186
*SPRING, ELSET=WK_1840

2.453384e-02
*ELEMENT, TYPE=SPRINGA, ELSET=WK_1841
   95026,    81510,   103187
*SPRING, ELSET=WK_1841

2.453384e-02
*ELEMENT, TYPE=SPRINGA, ELSET=WK_1842
   95027,    81515,   103188
*SPRING, ELSET=WK_1842

2.453384e-02
*ELEMENT, TYPE=SPRINGA, ELSET=WK_1843
   95028,    81520,   103189
*SPRING, ELSET=WK_1843

2.453384e-02
*ELEMENT, TYPE=SPRINGA, ELSET=WK_1844
   95029,    81525,   103190
*SPRING, ELSET=WK_1844

2.453384e-02
*ELEMENT, TYPE=SPRINGA, ELSET=WK_1845
   95030,    81530,   103191
*SPRING, ELSET=WK_1845

2.453384e-02
*ELEMENT, TYPE=SPRINGA, ELSET=WK_1846
   95031,    81535,   103192
*SPRING, ELSET=WK_1846

2.453384e-02
*ELEMENT, TYPE=SPRINGA, ELSET=WK_1847
   95032,    81540,   103193
*SPRING, ELSET=WK_1847

2.453384e-02
*ELEMENT, TYPE=SPRINGA, ELSET=WK_1848
   95033,    81545,   103194
*SPRING, ELSET=WK_1848

2.453384e-02
*ELEMENT, TYPE=SPRINGA, ELSET=WK_1849
   95034,    81550,   103195
*SPRING, ELSET=WK_1849

2.453384e-02
*ELEMENT, TYPE=SPRINGA, ELSET=WK_1850
   95035,    81555,   103196
*SPRING, ELSET=WK_1850

2.453384e-02
*ELEMENT, TYPE=SPRINGA, ELSET=WK_1851
   95036,    81560,   103197
*SPRING, ELSET=WK_1851

2.453384e-02
*ELEMENT, TYPE=SPRINGA, ELSET=WK_1852
   95037,    81565,   103198
*SPRING, ELSET=WK_1852

2.453384e-02
*ELEMENT, TYPE=SPRINGA, ELSET=WK_1853
   95038,    81570,   103199
*SPRING, ELSET=WK_1853

2.453384e-02
*ELEMENT, TYPE=SPRINGA, ELSET=WK_1854
   95039,    81575,   103200
*SPRING, ELSET=WK_1854

2.453384e-02
*ELEMENT, TYPE=SPRINGA, ELSET=WK_1855
   95040,    81580,   103201
*SPRING, ELSET=WK_1855

2.453384e-02
*ELEMENT, TYPE=SPRINGA, ELSET=WK_1856
   95041,    81585,   103202
*SPRING, ELSET=WK_1856

2.453384e-02
*ELEMENT, TYPE=SPRINGA, ELSET=WK_1857
   95042,    81590,   103203
*SPRING, ELSET=WK_1857

2.453384e-02
*ELEMENT, TYPE=SPRINGA, ELSET=WK_1858
   95043,    81595,   103204
*SPRING, ELSET=WK_1858

2.453384e-02
*ELEMENT, TYPE=SPRINGA, ELSET=WK_1859
   95044,    81600,   103205
*SPRING, ELSET=WK_1859

2.453384e-02
*ELEMENT, TYPE=SPRINGA, ELSET=WK_1860
   95045,    81605,   103206
*SPRING, ELSET=WK_1860

2.453384e-02
*ELEMENT, TYPE=SPRINGA, ELSET=WK_1861
   95046,    81610,   103207
*SPRING, ELSET=WK_1861

2.453384e-02
*ELEMENT, TYPE=SPRINGA, ELSET=WK_1862
   95047,    81615,   103208
*SPRING, ELSET=WK_1862

2.453384e-02
*ELEMENT, TYPE=SPRINGA, ELSET=WK_1863
   95048,    81620,   103209
*SPRING, ELSET=WK_1863

2.453384e-02
*ELEMENT, TYPE=SPRINGA, ELSET=WK_1864
   95049,    81625,   103210
*SPRING, ELSET=WK_1864

2.453384e-02
*ELEMENT, TYPE=SPRINGA, ELSET=WK_1865
   95050,    81630,   103211
*SPRING, ELSET=WK_1865

2.453384e-02
*ELEMENT, TYPE=SPRINGA, ELSET=WK_1866
   95051,    81635,   103212
*SPRING, ELSET=WK_1866

2.453384e-02
*ELEMENT, TYPE=SPRINGA, ELSET=WK_1867
   95052,    81640,   103213
*SPRING, ELSET=WK_1867

2.453384e-02
*ELEMENT, TYPE=SPRINGA, ELSET=WK_1868
   95053,    81645,   103214
*SPRING, ELSET=WK_1868

2.453384e-02
*ELEMENT, TYPE=SPRINGA, ELSET=WK_1869
   95054,    81650,   103215
*SPRING, ELSET=WK_1869

2.453384e-02
*ELEMENT, TYPE=SPRINGA, ELSET=WK_1870
   95055,    81655,   103216
*SPRING, ELSET=WK_1870

2.453384e-02
*ELEMENT, TYPE=SPRINGA, ELSET=WK_1871
   95056,    81660,   103217
*SPRING, ELSET=WK_1871

2.453384e-02
*ELEMENT, TYPE=SPRINGA, ELSET=WK_1872
   95057,    81665,   103218
*SPRING, ELSET=WK_1872

2.453384e-02
*ELEMENT, TYPE=SPRINGA, ELSET=WK_1873
   95058,    81670,   103219
*SPRING, ELSET=WK_1873

2.453384e-02
*ELEMENT, TYPE=SPRINGA, ELSET=WK_1874
   95059,    81675,   103220
*SPRING, ELSET=WK_1874

2.453384e-02
*ELEMENT, TYPE=SPRINGA, ELSET=WK_1875
   95060,    81680,   103221
*SPRING, ELSET=WK_1875

2.453384e-02
*ELEMENT, TYPE=SPRINGA, ELSET=WK_1876
   95061,    81685,   103222
*SPRING, ELSET=WK_1876

2.453384e-02
*ELEMENT, TYPE=SPRINGA, ELSET=WK_1877
   95062,    81690,   103223
*SPRING, ELSET=WK_1877

2.453384e-02
*ELEMENT, TYPE=SPRINGA, ELSET=WK_1878
   95063,    81695,   103224
*SPRING, ELSET=WK_1878

2.453384e-02
*ELEMENT, TYPE=SPRINGA, ELSET=WK_1879
   95064,    81700,   103225
*SPRING, ELSET=WK_1879

2.453384e-02
*ELEMENT, TYPE=SPRINGA, ELSET=WK_1880
   95065,    81705,   103226
*SPRING, ELSET=WK_1880

2.453384e-02
*ELEMENT, TYPE=SPRINGA, ELSET=WK_1881
   95066,    81710,   103227
*SPRING, ELSET=WK_1881

2.453384e-02
*ELEMENT, TYPE=SPRINGA, ELSET=WK_1882
   95067,    81715,   103228
*SPRING, ELSET=WK_1882

2.453384e-02
*ELEMENT, TYPE=SPRINGA, ELSET=WK_1883
   95068,    81720,   103229
*SPRING, ELSET=WK_1883

2.453384e-02
*ELEMENT, TYPE=SPRINGA, ELSET=WK_1884
   95069,    81725,   103230
*SPRING, ELSET=WK_1884

2.453384e-02
*ELEMENT, TYPE=SPRINGA, ELSET=WK_1885
   95070,    81730,   103231
*SPRING, ELSET=WK_1885

2.453384e-02
*ELEMENT, TYPE=SPRINGA, ELSET=WK_1886
   95071,    81735,   103232
*SPRING, ELSET=WK_1886

2.453384e-02
*ELEMENT, TYPE=SPRINGA, ELSET=WK_1887
   95072,    81740,   103233
*SPRING, ELSET=WK_1887

2.453384e-02
*ELEMENT, TYPE=SPRINGA, ELSET=WK_1888
   95073,    81745,   103234
*SPRING, ELSET=WK_1888

2.453384e-02
*ELEMENT, TYPE=SPRINGA, ELSET=WK_1889
   95074,    81750,   103235
*SPRING, ELSET=WK_1889

2.453384e-02
*ELEMENT, TYPE=SPRINGA, ELSET=WK_1890
   95075,    81755,   103236
*SPRING, ELSET=WK_1890

2.453384e-02
*ELEMENT, TYPE=SPRINGA, ELSET=WK_1891
   95076,    81760,   103237
*SPRING, ELSET=WK_1891

2.453384e-02
*ELEMENT, TYPE=SPRINGA, ELSET=WK_1892
   95077,    81765,   103238
*SPRING, ELSET=WK_1892

2.453384e-02
*ELEMENT, TYPE=SPRINGA, ELSET=WK_1893
   95078,    81770,   103239
*SPRING, ELSET=WK_1893

2.453384e-02
*ELEMENT, TYPE=SPRINGA, ELSET=WK_1894
   95079,    81775,   103240
*SPRING, ELSET=WK_1894

2.453384e-02
*ELEMENT, TYPE=SPRINGA, ELSET=WK_1895
   95080,    81780,   103241
*SPRING, ELSET=WK_1895

2.453384e-02
*ELEMENT, TYPE=SPRINGA, ELSET=WK_1896
   95081,    81785,   103242
*SPRING, ELSET=WK_1896

2.453384e-02
*ELEMENT, TYPE=SPRINGA, ELSET=WK_1897
   95082,    81790,   103243
*SPRING, ELSET=WK_1897

2.453384e-02
*ELEMENT, TYPE=SPRINGA, ELSET=WK_1898
   95083,    81795,   103244
*SPRING, ELSET=WK_1898

2.453384e-02
*ELEMENT, TYPE=SPRINGA, ELSET=WK_1899
   95084,    81800,   103245
*SPRING, ELSET=WK_1899

2.453384e-02
*ELEMENT, TYPE=SPRINGA, ELSET=WK_1900
   95085,    81805,   103246
*SPRING, ELSET=WK_1900

2.453384e-02
*ELEMENT, TYPE=SPRINGA, ELSET=WK_1901
   95086,    81810,   103247
*SPRING, ELSET=WK_1901

2.453384e-02
*ELEMENT, TYPE=SPRINGA, ELSET=WK_1902
   95087,    81815,   103248
*SPRING, ELSET=WK_1902

2.453384e-02
*ELEMENT, TYPE=SPRINGA, ELSET=WK_1903
   95088,    81820,   103249
*SPRING, ELSET=WK_1903

2.453384e-02
*ELEMENT, TYPE=SPRINGA, ELSET=WK_1904
   95089,    81825,   103250
*SPRING, ELSET=WK_1904

2.453384e-02
*ELEMENT, TYPE=SPRINGA, ELSET=WK_1905
   95090,    81830,   103251
*SPRING, ELSET=WK_1905

2.453384e-02
*ELEMENT, TYPE=SPRINGA, ELSET=WK_1906
   95091,    81835,   103252
*SPRING, ELSET=WK_1906

2.453384e-02
*ELEMENT, TYPE=SPRINGA, ELSET=WK_1907
   95092,    81840,   103253
*SPRING, ELSET=WK_1907

2.453384e-02
*ELEMENT, TYPE=SPRINGA, ELSET=WK_1908
   95093,    81845,   103254
*SPRING, ELSET=WK_1908

2.453384e-02
*ELEMENT, TYPE=SPRINGA, ELSET=WK_1909
   95094,    81850,   103255
*SPRING, ELSET=WK_1909

2.453384e-02
*ELEMENT, TYPE=SPRINGA, ELSET=WK_1910
   95095,    81855,   103256
*SPRING, ELSET=WK_1910

2.453384e-02
*ELEMENT, TYPE=SPRINGA, ELSET=WK_1911
   95096,    81860,   103257
*SPRING, ELSET=WK_1911

2.453384e-02
*ELEMENT, TYPE=SPRINGA, ELSET=WK_1912
   95097,    81865,   103258
*SPRING, ELSET=WK_1912

2.453384e-02
*ELEMENT, TYPE=SPRINGA, ELSET=WK_1913
   95098,    81870,   103259
*SPRING, ELSET=WK_1913

2.453384e-02
*ELEMENT, TYPE=SPRINGA, ELSET=WK_1914
   95099,    81875,   103260
*SPRING, ELSET=WK_1914

2.453384e-02
*ELEMENT, TYPE=SPRINGA, ELSET=WK_1915
   95100,    81880,   103261
*SPRING, ELSET=WK_1915

2.453384e-02
*ELEMENT, TYPE=SPRINGA, ELSET=WK_1916
   95101,    81885,   103262
*SPRING, ELSET=WK_1916

2.453384e-02
*ELEMENT, TYPE=SPRINGA, ELSET=WK_1917
   95102,    81890,   103263
*SPRING, ELSET=WK_1917

2.453384e-02
*ELEMENT, TYPE=SPRINGA, ELSET=WK_1918
   95103,    81895,   103264
*SPRING, ELSET=WK_1918

2.453384e-02
*ELEMENT, TYPE=SPRINGA, ELSET=WK_1919
   95104,    81900,   103265
*SPRING, ELSET=WK_1919

2.453384e-02
*ELEMENT, TYPE=SPRINGA, ELSET=WK_1920
   95105,    81905,   103266
*SPRING, ELSET=WK_1920

2.453384e-02
*ELEMENT, TYPE=SPRINGA, ELSET=WK_1921
   95106,    81910,   103267
*SPRING, ELSET=WK_1921

2.453384e-02
*ELEMENT, TYPE=SPRINGA, ELSET=WK_1922
   95107,    81915,   103268
*SPRING, ELSET=WK_1922

2.453384e-02
*ELEMENT, TYPE=SPRINGA, ELSET=WK_1923
   95108,    81920,   103269
*SPRING, ELSET=WK_1923

2.453384e-02
*ELEMENT, TYPE=SPRINGA, ELSET=WK_1924
   95109,    81925,   103270
*SPRING, ELSET=WK_1924

2.453384e-02
*ELEMENT, TYPE=SPRINGA, ELSET=WK_1925
   95110,    81930,   103271
*SPRING, ELSET=WK_1925

2.453384e-02
*ELEMENT, TYPE=SPRINGA, ELSET=WK_1926
   95111,    81935,   103272
*SPRING, ELSET=WK_1926

2.453384e-02
*ELEMENT, TYPE=SPRINGA, ELSET=WK_1927
   95112,    81940,   103273
*SPRING, ELSET=WK_1927

2.453384e-02
*ELEMENT, TYPE=SPRINGA, ELSET=WK_1928
   95113,    81945,   103274
*SPRING, ELSET=WK_1928

2.453384e-02
*ELEMENT, TYPE=SPRINGA, ELSET=WK_1929
   95114,    81950,   103275
*SPRING, ELSET=WK_1929

2.453384e-02
*ELEMENT, TYPE=SPRINGA, ELSET=WK_1930
   95115,    81955,   103276
*SPRING, ELSET=WK_1930

2.453384e-02
*ELEMENT, TYPE=SPRINGA, ELSET=WK_1931
   95116,    81960,   103277
*SPRING, ELSET=WK_1931

2.453384e-02
*ELEMENT, TYPE=SPRINGA, ELSET=WK_1932
   95117,    81965,   103278
*SPRING, ELSET=WK_1932

2.453384e-02
*ELEMENT, TYPE=SPRINGA, ELSET=WK_1933
   95118,    81970,   103279
*SPRING, ELSET=WK_1933

2.453384e-02
*ELEMENT, TYPE=SPRINGA, ELSET=WK_1934
   95119,    81975,   103280
*SPRING, ELSET=WK_1934

2.453384e-02
*ELEMENT, TYPE=SPRINGA, ELSET=WK_1935
   95120,    81980,   103281
*SPRING, ELSET=WK_1935

2.453384e-02
*ELEMENT, TYPE=SPRINGA, ELSET=WK_1936
   95121,    81985,   103282
*SPRING, ELSET=WK_1936

2.453384e-02
*ELEMENT, TYPE=SPRINGA, ELSET=WK_1937
   95122,    81990,   103283
*SPRING, ELSET=WK_1937

2.453384e-02
*ELEMENT, TYPE=SPRINGA, ELSET=WK_1938
   95123,    81995,   103284
*SPRING, ELSET=WK_1938

2.453384e-02
*ELEMENT, TYPE=SPRINGA, ELSET=WK_1939
   95124,    82000,   103285
*SPRING, ELSET=WK_1939

2.453384e-02
*ELEMENT, TYPE=SPRINGA, ELSET=WK_1940
   95125,    82005,   103286
*SPRING, ELSET=WK_1940

2.453384e-02
*ELEMENT, TYPE=SPRINGA, ELSET=WK_1941
   95126,    82010,   103287
*SPRING, ELSET=WK_1941

2.453384e-02
*ELEMENT, TYPE=SPRINGA, ELSET=WK_1942
   95127,    82015,   103288
*SPRING, ELSET=WK_1942

2.453384e-02
*ELEMENT, TYPE=SPRINGA, ELSET=WK_1943
   95128,    82020,   103289
*SPRING, ELSET=WK_1943

2.453384e-02
*ELEMENT, TYPE=SPRINGA, ELSET=WK_1944
   95129,    82025,   103290
*SPRING, ELSET=WK_1944

2.453384e-02
*ELEMENT, TYPE=SPRINGA, ELSET=WK_1945
   95130,    82030,   103291
*SPRING, ELSET=WK_1945

2.453384e-02
*ELEMENT, TYPE=SPRINGA, ELSET=WK_1946
   95131,    82035,   103292
*SPRING, ELSET=WK_1946

2.453384e-02
*ELEMENT, TYPE=SPRINGA, ELSET=WK_1947
   95132,    82040,   103293
*SPRING, ELSET=WK_1947

2.453384e-02
*ELEMENT, TYPE=SPRINGA, ELSET=WK_1948
   95133,    82045,   103294
*SPRING, ELSET=WK_1948

2.453384e-02
*ELEMENT, TYPE=SPRINGA, ELSET=WK_1949
   95134,    82050,   103295
*SPRING, ELSET=WK_1949

2.453384e-02
*ELEMENT, TYPE=SPRINGA, ELSET=WK_1950
   95135,    82055,   103296
*SPRING, ELSET=WK_1950

2.453384e-02
*ELEMENT, TYPE=SPRINGA, ELSET=WK_1951
   95136,    82060,   103297
*SPRING, ELSET=WK_1951

2.453384e-02
*ELEMENT, TYPE=SPRINGA, ELSET=WK_1952
   95137,    82065,   103298
*SPRING, ELSET=WK_1952

2.453384e-02
*ELEMENT, TYPE=SPRINGA, ELSET=WK_1953
   95138,    82070,   103299
*SPRING, ELSET=WK_1953

2.453384e-02
*ELEMENT, TYPE=SPRINGA, ELSET=WK_1954
   95139,    82075,   103300
*SPRING, ELSET=WK_1954

2.453384e-02
*ELEMENT, TYPE=SPRINGA, ELSET=WK_1955
   95140,    82080,   103301
*SPRING, ELSET=WK_1955

2.453384e-02
*ELEMENT, TYPE=SPRINGA, ELSET=WK_1956
   95141,    82085,   103302
*SPRING, ELSET=WK_1956

2.453384e-02
*ELEMENT, TYPE=SPRINGA, ELSET=WK_1957
   95142,    82090,   103303
*SPRING, ELSET=WK_1957

2.453384e-02
*ELEMENT, TYPE=SPRINGA, ELSET=WK_1958
   95143,    82095,   103304
*SPRING, ELSET=WK_1958

2.453384e-02
*ELEMENT, TYPE=SPRINGA, ELSET=WK_1959
   95144,    82100,   103305
*SPRING, ELSET=WK_1959

2.453384e-02
*ELEMENT, TYPE=SPRINGA, ELSET=WK_1960
   95145,    82105,   103306
*SPRING, ELSET=WK_1960

2.453384e-02
*ELEMENT, TYPE=SPRINGA, ELSET=WK_1961
   95146,    82110,   103307
*SPRING, ELSET=WK_1961

2.453384e-02
*ELEMENT, TYPE=SPRINGA, ELSET=WK_1962
   95147,    82115,   103308
*SPRING, ELSET=WK_1962

2.453384e-02
*ELEMENT, TYPE=SPRINGA, ELSET=WK_1963
   95148,    82120,   103309
*SPRING, ELSET=WK_1963

2.453384e-02
*ELEMENT, TYPE=SPRINGA, ELSET=WK_1964
   95149,    82125,   103310
*SPRING, ELSET=WK_1964

2.453384e-02
*ELEMENT, TYPE=SPRINGA, ELSET=WK_1965
   95150,    82130,   103311
*SPRING, ELSET=WK_1965

2.453384e-02
*ELEMENT, TYPE=SPRINGA, ELSET=WK_1966
   95151,    82135,   103312
*SPRING, ELSET=WK_1966

2.453384e-02
*ELEMENT, TYPE=SPRINGA, ELSET=WK_1967
   95152,    82140,   103313
*SPRING, ELSET=WK_1967

2.453384e-02
*ELEMENT, TYPE=SPRINGA, ELSET=WK_1968
   95153,    82145,   103314
*SPRING, ELSET=WK_1968

2.453384e-02
*ELEMENT, TYPE=SPRINGA, ELSET=WK_1969
   95154,    82150,   103315
*SPRING, ELSET=WK_1969

2.453384e-02
*ELEMENT, TYPE=SPRINGA, ELSET=WK_1970
   95155,    82155,   103316
*SPRING, ELSET=WK_1970

2.453384e-02
*ELEMENT, TYPE=SPRINGA, ELSET=WK_1971
   95156,    82160,   103317
*SPRING, ELSET=WK_1971

2.453384e-02
*ELEMENT, TYPE=SPRINGA, ELSET=WK_1972
   95157,    82165,   103318
*SPRING, ELSET=WK_1972

2.453384e-02
*ELEMENT, TYPE=SPRINGA, ELSET=WK_1973
   95158,    82170,   103319
*SPRING, ELSET=WK_1973

2.453384e-02
*ELEMENT, TYPE=SPRINGA, ELSET=WK_1974
   95159,    82175,   103320
*SPRING, ELSET=WK_1974

2.453384e-02
*ELEMENT, TYPE=SPRINGA, ELSET=WK_1975
   95160,    82180,   103321
*SPRING, ELSET=WK_1975

2.453384e-02
*ELEMENT, TYPE=SPRINGA, ELSET=WK_1976
   95161,    82185,   103322
*SPRING, ELSET=WK_1976

2.453384e-02
*ELEMENT, TYPE=SPRINGA, ELSET=WK_1977
   95162,    82190,   103323
*SPRING, ELSET=WK_1977

2.453384e-02
*ELEMENT, TYPE=SPRINGA, ELSET=WK_1978
   95163,    82195,   103324
*SPRING, ELSET=WK_1978

2.453384e-02
*ELEMENT, TYPE=SPRINGA, ELSET=WK_1979
   95164,    82200,   103325
*SPRING, ELSET=WK_1979

2.453384e-02
*ELEMENT, TYPE=SPRINGA, ELSET=WK_1980
   95165,    82205,   103326
*SPRING, ELSET=WK_1980

2.453384e-02
*ELEMENT, TYPE=SPRINGA, ELSET=WK_1981
   95166,    82210,   103327
*SPRING, ELSET=WK_1981

2.453384e-02
*ELEMENT, TYPE=SPRINGA, ELSET=WK_1982
   95167,    82215,   103328
*SPRING, ELSET=WK_1982

2.453384e-02
*ELEMENT, TYPE=SPRINGA, ELSET=WK_1983
   95168,    82220,   103329
*SPRING, ELSET=WK_1983

2.453384e-02
*ELEMENT, TYPE=SPRINGA, ELSET=WK_1984
   95169,    82225,   103330
*SPRING, ELSET=WK_1984

2.453384e-02
*ELEMENT, TYPE=SPRINGA, ELSET=WK_1985
   95170,    82230,   103331
*SPRING, ELSET=WK_1985

2.453384e-02
*ELEMENT, TYPE=SPRINGA, ELSET=WK_1986
   95171,    82235,   103332
*SPRING, ELSET=WK_1986

2.453384e-02
*ELEMENT, TYPE=SPRINGA, ELSET=WK_1987
   95172,    82240,   103333
*SPRING, ELSET=WK_1987

2.453384e-02
*ELEMENT, TYPE=SPRINGA, ELSET=WK_1988
   95173,    82245,   103334
*SPRING, ELSET=WK_1988

2.453384e-02
*ELEMENT, TYPE=SPRINGA, ELSET=WK_1989
   95174,    82250,   103335
*SPRING, ELSET=WK_1989

2.453384e-02
*ELEMENT, TYPE=SPRINGA, ELSET=WK_1990
   95175,    82255,   103336
*SPRING, ELSET=WK_1990

2.453384e-02
*ELEMENT, TYPE=SPRINGA, ELSET=WK_1991
   95176,    82260,   103337
*SPRING, ELSET=WK_1991

2.453384e-02
*ELEMENT, TYPE=SPRINGA, ELSET=WK_1992
   95177,    82265,   103338
*SPRING, ELSET=WK_1992

2.453384e-02
*ELEMENT, TYPE=SPRINGA, ELSET=WK_1993
   95178,    82270,   103339
*SPRING, ELSET=WK_1993

2.453384e-02
*ELEMENT, TYPE=SPRINGA, ELSET=WK_1994
   95179,    82275,   103340
*SPRING, ELSET=WK_1994

1.226692e-02
*ELEMENT, TYPE=SPRINGA, ELSET=WK_1995
   95180,    82280,   103341
*SPRING, ELSET=WK_1995

1.226692e-02
*ELEMENT, TYPE=SPRINGA, ELSET=WK_1996
   95181,    82285,   103342
*SPRING, ELSET=WK_1996

1.226692e-02
*ELEMENT, TYPE=SPRINGA, ELSET=WK_1997
   95182,    82290,   103343
*SPRING, ELSET=WK_1997

1.226692e-02
*ELEMENT, TYPE=SPRINGA, ELSET=WK_1998
   95183,    82295,   103344
*SPRING, ELSET=WK_1998

1.226692e-02
*ELEMENT, TYPE=SPRINGA, ELSET=WK_1999
   95184,    82300,   103345
*SPRING, ELSET=WK_1999

1.226692e-02
*ELEMENT, TYPE=SPRINGA, ELSET=WK_2000
   95185,    82305,   103346
*SPRING, ELSET=WK_2000

1.226692e-02
*ELEMENT, TYPE=SPRINGA, ELSET=WK_2001
   95186,    82310,   103347
*SPRING, ELSET=WK_2001

1.226692e-02
*ELEMENT, TYPE=SPRINGA, ELSET=WK_2002
   95187,    82315,   103348
*SPRING, ELSET=WK_2002

1.226692e-02
*ELEMENT, TYPE=SPRINGA, ELSET=WK_2003
   95188,    82320,   103349
*SPRING, ELSET=WK_2003

1.226692e-02
*ELEMENT, TYPE=SPRINGA, ELSET=WK_2004
   95189,    82325,   103350
*SPRING, ELSET=WK_2004

1.226692e-02
*ELEMENT, TYPE=SPRINGA, ELSET=WK_2005
   95190,    82330,   103351
*SPRING, ELSET=WK_2005

1.226692e-02
*ELEMENT, TYPE=SPRINGA, ELSET=WK_2006
   95191,    82335,   103352
*SPRING, ELSET=WK_2006

1.226692e-02
*ELEMENT, TYPE=SPRINGA, ELSET=WK_2007
   95192,    82340,   103353
*SPRING, ELSET=WK_2007

1.226692e-02
*ELEMENT, TYPE=SPRINGA, ELSET=WK_2008
   95193,    82345,   103354
*SPRING, ELSET=WK_2008

1.226692e-02
*ELEMENT, TYPE=SPRINGA, ELSET=WK_2009
   95194,    82350,   103355
*SPRING, ELSET=WK_2009

1.226692e-02
*ELEMENT, TYPE=SPRINGA, ELSET=WK_2010
   95195,    82355,   103356
*SPRING, ELSET=WK_2010

1.226692e-02
*ELEMENT, TYPE=SPRINGA, ELSET=WK_2011
   95196,    82360,   103357
*SPRING, ELSET=WK_2011

1.226692e-02
*ELEMENT, TYPE=SPRINGA, ELSET=WK_2012
   95197,    82365,   103358
*SPRING, ELSET=WK_2012

1.226692e-02
*ELEMENT, TYPE=SPRINGA, ELSET=WK_2013
   95198,    82370,   103359
*SPRING, ELSET=WK_2013

1.226692e-02
*ELEMENT, TYPE=SPRINGA, ELSET=WK_2014
   95199,    82375,   103360
*SPRING, ELSET=WK_2014

1.226692e-02
*ELEMENT, TYPE=SPRINGA, ELSET=WK_2015
   95200,    82380,   103361
*SPRING, ELSET=WK_2015

1.226692e-02
*ELEMENT, TYPE=SPRINGA, ELSET=WK_2016
   95201,    82385,   103362
*SPRING, ELSET=WK_2016

1.226692e-02
*ELEMENT, TYPE=SPRINGA, ELSET=WK_2017
   95202,    82390,   103363
*SPRING, ELSET=WK_2017

1.226692e-02
*ELEMENT, TYPE=SPRINGA, ELSET=WK_2018
   95203,    82395,   103364
*SPRING, ELSET=WK_2018

1.226692e-02
*ELEMENT, TYPE=SPRINGA, ELSET=WK_2019
   95204,    82400,   103365
*SPRING, ELSET=WK_2019

1.226692e-02
*ELEMENT, TYPE=SPRINGA, ELSET=WK_2020
   95205,    82405,   103366
*SPRING, ELSET=WK_2020

1.226692e-02
*ELEMENT, TYPE=SPRINGA, ELSET=WK_2021
   95206,    82410,   103367
*SPRING, ELSET=WK_2021

1.226692e-02
*ELEMENT, TYPE=SPRINGA, ELSET=WK_2022
   95207,    82415,   103368
*SPRING, ELSET=WK_2022

1.226692e-02
*ELEMENT, TYPE=SPRINGA, ELSET=WK_2023
   95208,    82420,   103369
*SPRING, ELSET=WK_2023

1.226692e-02
*ELEMENT, TYPE=SPRINGA, ELSET=WK_2024
   95209,    82425,   103370
*SPRING, ELSET=WK_2024

1.226692e-02
*ELEMENT, TYPE=SPRINGA, ELSET=WK_2025
   95210,    82430,   103371
*SPRING, ELSET=WK_2025

1.226692e-02
*ELEMENT, TYPE=SPRINGA, ELSET=WK_2026
   95211,    82435,   103372
*SPRING, ELSET=WK_2026

2.453384e-02
*ELEMENT, TYPE=SPRINGA, ELSET=WK_2027
   95212,    82440,   103373
*SPRING, ELSET=WK_2027

2.453384e-02
*ELEMENT, TYPE=SPRINGA, ELSET=WK_2028
   95213,    82445,   103374
*SPRING, ELSET=WK_2028

2.453384e-02
*ELEMENT, TYPE=SPRINGA, ELSET=WK_2029
   95214,    82450,   103375
*SPRING, ELSET=WK_2029

2.453384e-02
*ELEMENT, TYPE=SPRINGA, ELSET=WK_2030
   95215,    82455,   103376
*SPRING, ELSET=WK_2030

2.453384e-02
*ELEMENT, TYPE=SPRINGA, ELSET=WK_2031
   95216,    82460,   103377
*SPRING, ELSET=WK_2031

2.453384e-02
*ELEMENT, TYPE=SPRINGA, ELSET=WK_2032
   95217,    82465,   103378
*SPRING, ELSET=WK_2032

2.453384e-02
*ELEMENT, TYPE=SPRINGA, ELSET=WK_2033
   95218,    82470,   103379
*SPRING, ELSET=WK_2033

2.453384e-02
*ELEMENT, TYPE=SPRINGA, ELSET=WK_2034
   95219,    82475,   103380
*SPRING, ELSET=WK_2034

2.453384e-02
*ELEMENT, TYPE=SPRINGA, ELSET=WK_2035
   95220,    82480,   103381
*SPRING, ELSET=WK_2035

2.453384e-02
*ELEMENT, TYPE=SPRINGA, ELSET=WK_2036
   95221,    82485,   103382
*SPRING, ELSET=WK_2036

2.453384e-02
*ELEMENT, TYPE=SPRINGA, ELSET=WK_2037
   95222,    82490,   103383
*SPRING, ELSET=WK_2037

2.453384e-02
*ELEMENT, TYPE=SPRINGA, ELSET=WK_2038
   95223,    82495,   103384
*SPRING, ELSET=WK_2038

2.453384e-02
*ELEMENT, TYPE=SPRINGA, ELSET=WK_2039
   95224,    82500,   103385
*SPRING, ELSET=WK_2039

2.453384e-02
*ELEMENT, TYPE=SPRINGA, ELSET=WK_2040
   95225,    82505,   103386
*SPRING, ELSET=WK_2040

2.453384e-02
*ELEMENT, TYPE=SPRINGA, ELSET=WK_2041
   95226,    82510,   103387
*SPRING, ELSET=WK_2041

2.453384e-02
*ELEMENT, TYPE=SPRINGA, ELSET=WK_2042
   95227,    82515,   103388
*SPRING, ELSET=WK_2042

2.453384e-02
*ELEMENT, TYPE=SPRINGA, ELSET=WK_2043
   95228,    82520,   103389
*SPRING, ELSET=WK_2043

2.453384e-02
*ELEMENT, TYPE=SPRINGA, ELSET=WK_2044
   95229,    82525,   103390
*SPRING, ELSET=WK_2044

2.453384e-02
*ELEMENT, TYPE=SPRINGA, ELSET=WK_2045
   95230,    82530,   103391
*SPRING, ELSET=WK_2045

2.453384e-02
*ELEMENT, TYPE=SPRINGA, ELSET=WK_2046
   95231,    82535,   103392
*SPRING, ELSET=WK_2046

2.453384e-02
*ELEMENT, TYPE=SPRINGA, ELSET=WK_2047
   95232,    82540,   103393
*SPRING, ELSET=WK_2047

2.453384e-02
*ELEMENT, TYPE=SPRINGA, ELSET=WK_2048
   95233,    82545,   103394
*SPRING, ELSET=WK_2048

2.453384e-02
*ELEMENT, TYPE=SPRINGA, ELSET=WK_2049
   95234,    82550,   103395
*SPRING, ELSET=WK_2049

2.453384e-02
*ELEMENT, TYPE=SPRINGA, ELSET=WK_2050
   95235,    82555,   103396
*SPRING, ELSET=WK_2050

2.453384e-02
*ELEMENT, TYPE=SPRINGA, ELSET=WK_2051
   95236,    82560,   103397
*SPRING, ELSET=WK_2051

2.453384e-02
*ELEMENT, TYPE=SPRINGA, ELSET=WK_2052
   95237,    82565,   103398
*SPRING, ELSET=WK_2052

2.453384e-02
*ELEMENT, TYPE=SPRINGA, ELSET=WK_2053
   95238,    82570,   103399
*SPRING, ELSET=WK_2053

2.453384e-02
*ELEMENT, TYPE=SPRINGA, ELSET=WK_2054
   95239,    82575,   103400
*SPRING, ELSET=WK_2054

2.453384e-02
*ELEMENT, TYPE=SPRINGA, ELSET=WK_2055
   95240,    82580,   103401
*SPRING, ELSET=WK_2055

2.453384e-02
*ELEMENT, TYPE=SPRINGA, ELSET=WK_2056
   95241,    82585,   103402
*SPRING, ELSET=WK_2056

2.453384e-02
*ELEMENT, TYPE=SPRINGA, ELSET=WK_2057
   95242,    82590,   103403
*SPRING, ELSET=WK_2057

2.453384e-02
*ELEMENT, TYPE=SPRINGA, ELSET=WK_2058
   95243,    82595,   103404
*SPRING, ELSET=WK_2058

2.453384e-02
*ELEMENT, TYPE=SPRINGA, ELSET=WK_2059
   95244,    82600,   103405
*SPRING, ELSET=WK_2059

2.453384e-02
*ELEMENT, TYPE=SPRINGA, ELSET=WK_2060
   95245,    82605,   103406
*SPRING, ELSET=WK_2060

2.453384e-02
*ELEMENT, TYPE=SPRINGA, ELSET=WK_2061
   95246,    82610,   103407
*SPRING, ELSET=WK_2061

2.453384e-02
*ELEMENT, TYPE=SPRINGA, ELSET=WK_2062
   95247,    82615,   103408
*SPRING, ELSET=WK_2062

2.453384e-02
*ELEMENT, TYPE=SPRINGA, ELSET=WK_2063
   95248,    82620,   103409
*SPRING, ELSET=WK_2063

2.453384e-02
*ELEMENT, TYPE=SPRINGA, ELSET=WK_2064
   95249,    82625,   103410
*SPRING, ELSET=WK_2064

2.453384e-02
*ELEMENT, TYPE=SPRINGA, ELSET=WK_2065
   95250,    82630,   103411
*SPRING, ELSET=WK_2065

2.453384e-02
*ELEMENT, TYPE=SPRINGA, ELSET=WK_2066
   95251,    82635,   103412
*SPRING, ELSET=WK_2066

2.453384e-02
*ELEMENT, TYPE=SPRINGA, ELSET=WK_2067
   95252,    82640,   103413
*SPRING, ELSET=WK_2067

2.453384e-02
*ELEMENT, TYPE=SPRINGA, ELSET=WK_2068
   95253,    82645,   103414
*SPRING, ELSET=WK_2068

2.453384e-02
*ELEMENT, TYPE=SPRINGA, ELSET=WK_2069
   95254,    82650,   103415
*SPRING, ELSET=WK_2069

2.453384e-02
*ELEMENT, TYPE=SPRINGA, ELSET=WK_2070
   95255,    82655,   103416
*SPRING, ELSET=WK_2070

2.453384e-02
*ELEMENT, TYPE=SPRINGA, ELSET=WK_2071
   95256,    82660,   103417
*SPRING, ELSET=WK_2071

2.453384e-02
*ELEMENT, TYPE=SPRINGA, ELSET=WK_2072
   95257,    82665,   103418
*SPRING, ELSET=WK_2072

2.453384e-02
*ELEMENT, TYPE=SPRINGA, ELSET=WK_2073
   95258,    82670,   103419
*SPRING, ELSET=WK_2073

2.453384e-02
*ELEMENT, TYPE=SPRINGA, ELSET=WK_2074
   95259,    82675,   103420
*SPRING, ELSET=WK_2074

2.453384e-02
*ELEMENT, TYPE=SPRINGA, ELSET=WK_2075
   95260,    82680,   103421
*SPRING, ELSET=WK_2075

2.453384e-02
*ELEMENT, TYPE=SPRINGA, ELSET=WK_2076
   95261,    82685,   103422
*SPRING, ELSET=WK_2076

2.453384e-02
*ELEMENT, TYPE=SPRINGA, ELSET=WK_2077
   95262,    82690,   103423
*SPRING, ELSET=WK_2077

2.453384e-02
*ELEMENT, TYPE=SPRINGA, ELSET=WK_2078
   95263,    82695,   103424
*SPRING, ELSET=WK_2078

2.453384e-02
*ELEMENT, TYPE=SPRINGA, ELSET=WK_2079
   95264,    82700,   103425
*SPRING, ELSET=WK_2079

2.453384e-02
*ELEMENT, TYPE=SPRINGA, ELSET=WK_2080
   95265,    82705,   103426
*SPRING, ELSET=WK_2080

2.453384e-02
*ELEMENT, TYPE=SPRINGA, ELSET=WK_2081
   95266,    82710,   103427
*SPRING, ELSET=WK_2081

2.453384e-02
*ELEMENT, TYPE=SPRINGA, ELSET=WK_2082
   95267,    82715,   103428
*SPRING, ELSET=WK_2082

2.453384e-02
*ELEMENT, TYPE=SPRINGA, ELSET=WK_2083
   95268,    82720,   103429
*SPRING, ELSET=WK_2083

2.453384e-02
*ELEMENT, TYPE=SPRINGA, ELSET=WK_2084
   95269,    82725,   103430
*SPRING, ELSET=WK_2084

2.453384e-02
*ELEMENT, TYPE=SPRINGA, ELSET=WK_2085
   95270,    82730,   103431
*SPRING, ELSET=WK_2085

2.453384e-02
*ELEMENT, TYPE=SPRINGA, ELSET=WK_2086
   95271,    82735,   103432
*SPRING, ELSET=WK_2086

2.453384e-02
*ELEMENT, TYPE=SPRINGA, ELSET=WK_2087
   95272,    82740,   103433
*SPRING, ELSET=WK_2087

2.453384e-02
*ELEMENT, TYPE=SPRINGA, ELSET=WK_2088
   95273,    82745,   103434
*SPRING, ELSET=WK_2088

2.453384e-02
*ELEMENT, TYPE=SPRINGA, ELSET=WK_2089
   95274,    82750,   103435
*SPRING, ELSET=WK_2089

2.453384e-02
*ELEMENT, TYPE=SPRINGA, ELSET=WK_2090
   95275,    82755,   103436
*SPRING, ELSET=WK_2090

2.453384e-02
*ELEMENT, TYPE=SPRINGA, ELSET=WK_2091
   95276,    82760,   103437
*SPRING, ELSET=WK_2091

2.453384e-02
*ELEMENT, TYPE=SPRINGA, ELSET=WK_2092
   95277,    82765,   103438
*SPRING, ELSET=WK_2092

2.453384e-02
*ELEMENT, TYPE=SPRINGA, ELSET=WK_2093
   95278,    82770,   103439
*SPRING, ELSET=WK_2093

2.453384e-02
*ELEMENT, TYPE=SPRINGA, ELSET=WK_2094
   95279,    82775,   103440
*SPRING, ELSET=WK_2094

2.453384e-02
*ELEMENT, TYPE=SPRINGA, ELSET=WK_2095
   95280,    82780,   103441
*SPRING, ELSET=WK_2095

2.453384e-02
*ELEMENT, TYPE=SPRINGA, ELSET=WK_2096
   95281,    82785,   103442
*SPRING, ELSET=WK_2096

2.453384e-02
*ELEMENT, TYPE=SPRINGA, ELSET=WK_2097
   95282,    82790,   103443
*SPRING, ELSET=WK_2097

2.453384e-02
*ELEMENT, TYPE=SPRINGA, ELSET=WK_2098
   95283,    82795,   103444
*SPRING, ELSET=WK_2098

2.453384e-02
*ELEMENT, TYPE=SPRINGA, ELSET=WK_2099
   95284,    82800,   103445
*SPRING, ELSET=WK_2099

2.453384e-02
*ELEMENT, TYPE=SPRINGA, ELSET=WK_2100
   95285,    82805,   103446
*SPRING, ELSET=WK_2100

2.453384e-02
*ELEMENT, TYPE=SPRINGA, ELSET=WK_2101
   95286,    82810,   103447
*SPRING, ELSET=WK_2101

2.453384e-02
*ELEMENT, TYPE=SPRINGA, ELSET=WK_2102
   95287,    82815,   103448
*SPRING, ELSET=WK_2102

2.453384e-02
*ELEMENT, TYPE=SPRINGA, ELSET=WK_2103
   95288,    82820,   103449
*SPRING, ELSET=WK_2103

2.453384e-02
*ELEMENT, TYPE=SPRINGA, ELSET=WK_2104
   95289,    82825,   103450
*SPRING, ELSET=WK_2104

2.453384e-02
*ELEMENT, TYPE=SPRINGA, ELSET=WK_2105
   95290,    82830,   103451
*SPRING, ELSET=WK_2105

2.453384e-02
*ELEMENT, TYPE=SPRINGA, ELSET=WK_2106
   95291,    82835,   103452
*SPRING, ELSET=WK_2106

2.453384e-02
*ELEMENT, TYPE=SPRINGA, ELSET=WK_2107
   95292,    82840,   103453
*SPRING, ELSET=WK_2107

2.453384e-02
*ELEMENT, TYPE=SPRINGA, ELSET=WK_2108
   95293,    82845,   103454
*SPRING, ELSET=WK_2108

2.453384e-02
*ELEMENT, TYPE=SPRINGA, ELSET=WK_2109
   95294,    82850,   103455
*SPRING, ELSET=WK_2109

2.453384e-02
*ELEMENT, TYPE=SPRINGA, ELSET=WK_2110
   95295,    82855,   103456
*SPRING, ELSET=WK_2110

2.453384e-02
*ELEMENT, TYPE=SPRINGA, ELSET=WK_2111
   95296,    82860,   103457
*SPRING, ELSET=WK_2111

2.453384e-02
*ELEMENT, TYPE=SPRINGA, ELSET=WK_2112
   95297,    82865,   103458
*SPRING, ELSET=WK_2112

2.453384e-02
*ELEMENT, TYPE=SPRINGA, ELSET=WK_2113
   95298,    82870,   103459
*SPRING, ELSET=WK_2113

2.453384e-02
*ELEMENT, TYPE=SPRINGA, ELSET=WK_2114
   95299,    82875,   103460
*SPRING, ELSET=WK_2114

2.453384e-02
*ELEMENT, TYPE=SPRINGA, ELSET=WK_2115
   95300,    82880,   103461
*SPRING, ELSET=WK_2115

2.453384e-02
*ELEMENT, TYPE=SPRINGA, ELSET=WK_2116
   95301,    82885,   103462
*SPRING, ELSET=WK_2116

2.453384e-02
*ELEMENT, TYPE=SPRINGA, ELSET=WK_2117
   95302,    82890,   103463
*SPRING, ELSET=WK_2117

2.453384e-02
*ELEMENT, TYPE=SPRINGA, ELSET=WK_2118
   95303,    82895,   103464
*SPRING, ELSET=WK_2118

2.453384e-02
*ELEMENT, TYPE=SPRINGA, ELSET=WK_2119
   95304,    82900,   103465
*SPRING, ELSET=WK_2119

2.453384e-02
*ELEMENT, TYPE=SPRINGA, ELSET=WK_2120
   95305,    82905,   103466
*SPRING, ELSET=WK_2120

2.453384e-02
*ELEMENT, TYPE=SPRINGA, ELSET=WK_2121
   95306,    82910,   103467
*SPRING, ELSET=WK_2121

2.453384e-02
*ELEMENT, TYPE=SPRINGA, ELSET=WK_2122
   95307,    82915,   103468
*SPRING, ELSET=WK_2122

2.453384e-02
*ELEMENT, TYPE=SPRINGA, ELSET=WK_2123
   95308,    82920,   103469
*SPRING, ELSET=WK_2123

2.453384e-02
*ELEMENT, TYPE=SPRINGA, ELSET=WK_2124
   95309,    82925,   103470
*SPRING, ELSET=WK_2124

2.453384e-02
*ELEMENT, TYPE=SPRINGA, ELSET=WK_2125
   95310,    82930,   103471
*SPRING, ELSET=WK_2125

2.453384e-02
*ELEMENT, TYPE=SPRINGA, ELSET=WK_2126
   95311,    82935,   103472
*SPRING, ELSET=WK_2126

2.453384e-02
*ELEMENT, TYPE=SPRINGA, ELSET=WK_2127
   95312,    82940,   103473
*SPRING, ELSET=WK_2127

2.453384e-02
*ELEMENT, TYPE=SPRINGA, ELSET=WK_2128
   95313,    82945,   103474
*SPRING, ELSET=WK_2128

2.453384e-02
*ELEMENT, TYPE=SPRINGA, ELSET=WK_2129
   95314,    82950,   103475
*SPRING, ELSET=WK_2129

2.453384e-02
*ELEMENT, TYPE=SPRINGA, ELSET=WK_2130
   95315,    82955,   103476
*SPRING, ELSET=WK_2130

2.453384e-02
*ELEMENT, TYPE=SPRINGA, ELSET=WK_2131
   95316,    82960,   103477
*SPRING, ELSET=WK_2131

2.453384e-02
*ELEMENT, TYPE=SPRINGA, ELSET=WK_2132
   95317,    82965,   103478
*SPRING, ELSET=WK_2132

2.453384e-02
*ELEMENT, TYPE=SPRINGA, ELSET=WK_2133
   95318,    82970,   103479
*SPRING, ELSET=WK_2133

2.453384e-02
*ELEMENT, TYPE=SPRINGA, ELSET=WK_2134
   95319,    82975,   103480
*SPRING, ELSET=WK_2134

2.453384e-02
*ELEMENT, TYPE=SPRINGA, ELSET=WK_2135
   95320,    82980,   103481
*SPRING, ELSET=WK_2135

2.453384e-02
*ELEMENT, TYPE=SPRINGA, ELSET=WK_2136
   95321,    82985,   103482
*SPRING, ELSET=WK_2136

2.453384e-02
*ELEMENT, TYPE=SPRINGA, ELSET=WK_2137
   95322,    82990,   103483
*SPRING, ELSET=WK_2137

2.453384e-02
*ELEMENT, TYPE=SPRINGA, ELSET=WK_2138
   95323,    82995,   103484
*SPRING, ELSET=WK_2138

2.453384e-02
*ELEMENT, TYPE=SPRINGA, ELSET=WK_2139
   95324,    83000,   103485
*SPRING, ELSET=WK_2139

2.453384e-02
*ELEMENT, TYPE=SPRINGA, ELSET=WK_2140
   95325,    83005,   103486
*SPRING, ELSET=WK_2140

2.453384e-02
*ELEMENT, TYPE=SPRINGA, ELSET=WK_2141
   95326,    83010,   103487
*SPRING, ELSET=WK_2141

2.453384e-02
*ELEMENT, TYPE=SPRINGA, ELSET=WK_2142
   95327,    83015,   103488
*SPRING, ELSET=WK_2142

2.453384e-02
*ELEMENT, TYPE=SPRINGA, ELSET=WK_2143
   95328,    83020,   103489
*SPRING, ELSET=WK_2143

2.453384e-02
*ELEMENT, TYPE=SPRINGA, ELSET=WK_2144
   95329,    83025,   103490
*SPRING, ELSET=WK_2144

2.453384e-02
*ELEMENT, TYPE=SPRINGA, ELSET=WK_2145
   95330,    83030,   103491
*SPRING, ELSET=WK_2145

2.453384e-02
*ELEMENT, TYPE=SPRINGA, ELSET=WK_2146
   95331,    83035,   103492
*SPRING, ELSET=WK_2146

2.453384e-02
*ELEMENT, TYPE=SPRINGA, ELSET=WK_2147
   95332,    83040,   103493
*SPRING, ELSET=WK_2147

2.453384e-02
*ELEMENT, TYPE=SPRINGA, ELSET=WK_2148
   95333,    83045,   103494
*SPRING, ELSET=WK_2148

2.453384e-02
*ELEMENT, TYPE=SPRINGA, ELSET=WK_2149
   95334,    83050,   103495
*SPRING, ELSET=WK_2149

2.453384e-02
*ELEMENT, TYPE=SPRINGA, ELSET=WK_2150
   95335,    83055,   103496
*SPRING, ELSET=WK_2150

2.453384e-02
*ELEMENT, TYPE=SPRINGA, ELSET=WK_2151
   95336,    83060,   103497
*SPRING, ELSET=WK_2151

2.453384e-02
*ELEMENT, TYPE=SPRINGA, ELSET=WK_2152
   95337,    83065,   103498
*SPRING, ELSET=WK_2152

2.453384e-02
*ELEMENT, TYPE=SPRINGA, ELSET=WK_2153
   95338,    83070,   103499
*SPRING, ELSET=WK_2153

2.453384e-02
*ELEMENT, TYPE=SPRINGA, ELSET=WK_2154
   95339,    83075,   103500
*SPRING, ELSET=WK_2154

2.453384e-02
*ELEMENT, TYPE=SPRINGA, ELSET=WK_2155
   95340,    83080,   103501
*SPRING, ELSET=WK_2155

2.453384e-02
*ELEMENT, TYPE=SPRINGA, ELSET=WK_2156
   95341,    83085,   103502
*SPRING, ELSET=WK_2156

2.453384e-02
*ELEMENT, TYPE=SPRINGA, ELSET=WK_2157
   95342,    83090,   103503
*SPRING, ELSET=WK_2157

2.453384e-02
*ELEMENT, TYPE=SPRINGA, ELSET=WK_2158
   95343,    83095,   103504
*SPRING, ELSET=WK_2158

2.453384e-02
*ELEMENT, TYPE=SPRINGA, ELSET=WK_2159
   95344,    83100,   103505
*SPRING, ELSET=WK_2159

2.453384e-02
*ELEMENT, TYPE=SPRINGA, ELSET=WK_2160
   95345,    83105,   103506
*SPRING, ELSET=WK_2160

2.453384e-02
*ELEMENT, TYPE=SPRINGA, ELSET=WK_2161
   95346,    83110,   103507
*SPRING, ELSET=WK_2161

2.453384e-02
*ELEMENT, TYPE=SPRINGA, ELSET=WK_2162
   95347,    83115,   103508
*SPRING, ELSET=WK_2162

2.453384e-02
*ELEMENT, TYPE=SPRINGA, ELSET=WK_2163
   95348,    83120,   103509
*SPRING, ELSET=WK_2163

2.453384e-02
*ELEMENT, TYPE=SPRINGA, ELSET=WK_2164
   95349,    83125,   103510
*SPRING, ELSET=WK_2164

2.453384e-02
*ELEMENT, TYPE=SPRINGA, ELSET=WK_2165
   95350,    83130,   103511
*SPRING, ELSET=WK_2165

2.453384e-02
*ELEMENT, TYPE=SPRINGA, ELSET=WK_2166
   95351,    83135,   103512
*SPRING, ELSET=WK_2166

2.453384e-02
*ELEMENT, TYPE=SPRINGA, ELSET=WK_2167
   95352,    83140,   103513
*SPRING, ELSET=WK_2167

2.453384e-02
*ELEMENT, TYPE=SPRINGA, ELSET=WK_2168
   95353,    83145,   103514
*SPRING, ELSET=WK_2168

2.453384e-02
*ELEMENT, TYPE=SPRINGA, ELSET=WK_2169
   95354,    83150,   103515
*SPRING, ELSET=WK_2169

2.453384e-02
*ELEMENT, TYPE=SPRINGA, ELSET=WK_2170
   95355,    83155,   103516
*SPRING, ELSET=WK_2170

2.453384e-02
*ELEMENT, TYPE=SPRINGA, ELSET=WK_2171
   95356,    83160,   103517
*SPRING, ELSET=WK_2171

2.453384e-02
*ELEMENT, TYPE=SPRINGA, ELSET=WK_2172
   95357,    83165,   103518
*SPRING, ELSET=WK_2172

2.453384e-02
*ELEMENT, TYPE=SPRINGA, ELSET=WK_2173
   95358,    83170,   103519
*SPRING, ELSET=WK_2173

2.453384e-02
*ELEMENT, TYPE=SPRINGA, ELSET=WK_2174
   95359,    83175,   103520
*SPRING, ELSET=WK_2174

2.453384e-02
*ELEMENT, TYPE=SPRINGA, ELSET=WK_2175
   95360,    83180,   103521
*SPRING, ELSET=WK_2175

2.453384e-02
*ELEMENT, TYPE=SPRINGA, ELSET=WK_2176
   95361,    83185,   103522
*SPRING, ELSET=WK_2176

2.453384e-02
*ELEMENT, TYPE=SPRINGA, ELSET=WK_2177
   95362,    83190,   103523
*SPRING, ELSET=WK_2177

2.453384e-02
*ELEMENT, TYPE=SPRINGA, ELSET=WK_2178
   95363,    83195,   103524
*SPRING, ELSET=WK_2178

2.453384e-02
*ELEMENT, TYPE=SPRINGA, ELSET=WK_2179
   95364,    83200,   103525
*SPRING, ELSET=WK_2179

2.453384e-02
*ELEMENT, TYPE=SPRINGA, ELSET=WK_2180
   95365,    83205,   103526
*SPRING, ELSET=WK_2180

2.453384e-02
*ELEMENT, TYPE=SPRINGA, ELSET=WK_2181
   95366,    83210,   103527
*SPRING, ELSET=WK_2181

2.453384e-02
*ELEMENT, TYPE=SPRINGA, ELSET=WK_2182
   95367,    83215,   103528
*SPRING, ELSET=WK_2182

2.453384e-02
*ELEMENT, TYPE=SPRINGA, ELSET=WK_2183
   95368,    83220,   103529
*SPRING, ELSET=WK_2183

2.453384e-02
*ELEMENT, TYPE=SPRINGA, ELSET=WK_2184
   95369,    83225,   103530
*SPRING, ELSET=WK_2184

2.453384e-02
*ELEMENT, TYPE=SPRINGA, ELSET=WK_2185
   95370,    83230,   103531
*SPRING, ELSET=WK_2185

2.453384e-02
*ELEMENT, TYPE=SPRINGA, ELSET=WK_2186
   95371,    83235,   103532
*SPRING, ELSET=WK_2186

2.453384e-02
*ELEMENT, TYPE=SPRINGA, ELSET=WK_2187
   95372,    83240,   103533
*SPRING, ELSET=WK_2187

2.453384e-02
*ELEMENT, TYPE=SPRINGA, ELSET=WK_2188
   95373,    83245,   103534
*SPRING, ELSET=WK_2188

2.453384e-02
*ELEMENT, TYPE=SPRINGA, ELSET=WK_2189
   95374,    83250,   103535
*SPRING, ELSET=WK_2189

2.453384e-02
*ELEMENT, TYPE=SPRINGA, ELSET=WK_2190
   95375,    83255,   103536
*SPRING, ELSET=WK_2190

2.453384e-02
*ELEMENT, TYPE=SPRINGA, ELSET=WK_2191
   95376,    83260,   103537
*SPRING, ELSET=WK_2191

2.453384e-02
*ELEMENT, TYPE=SPRINGA, ELSET=WK_2192
   95377,    83265,   103538
*SPRING, ELSET=WK_2192

2.453384e-02
*ELEMENT, TYPE=SPRINGA, ELSET=WK_2193
   95378,    83270,   103539
*SPRING, ELSET=WK_2193

2.453384e-02
*ELEMENT, TYPE=SPRINGA, ELSET=WK_2194
   95379,    83275,   103540
*SPRING, ELSET=WK_2194

2.453384e-02
*ELEMENT, TYPE=SPRINGA, ELSET=WK_2195
   95380,    83280,   103541
*SPRING, ELSET=WK_2195

2.453384e-02
*ELEMENT, TYPE=SPRINGA, ELSET=WK_2196
   95381,    83285,   103542
*SPRING, ELSET=WK_2196

2.453384e-02
*ELEMENT, TYPE=SPRINGA, ELSET=WK_2197
   95382,    83290,   103543
*SPRING, ELSET=WK_2197

2.453384e-02
*ELEMENT, TYPE=SPRINGA, ELSET=WK_2198
   95383,    83295,   103544
*SPRING, ELSET=WK_2198

2.453384e-02
*ELEMENT, TYPE=SPRINGA, ELSET=WK_2199
   95384,    83300,   103545
*SPRING, ELSET=WK_2199

2.453384e-02
*ELEMENT, TYPE=SPRINGA, ELSET=WK_2200
   95385,    83305,   103546
*SPRING, ELSET=WK_2200

2.453384e-02
*ELEMENT, TYPE=SPRINGA, ELSET=WK_2201
   95386,    83310,   103547
*SPRING, ELSET=WK_2201

2.453384e-02
*ELEMENT, TYPE=SPRINGA, ELSET=WK_2202
   95387,    83315,   103548
*SPRING, ELSET=WK_2202

2.453384e-02
*ELEMENT, TYPE=SPRINGA, ELSET=WK_2203
   95388,    83320,   103549
*SPRING, ELSET=WK_2203

2.453384e-02
*ELEMENT, TYPE=SPRINGA, ELSET=WK_2204
   95389,    83325,   103550
*SPRING, ELSET=WK_2204

2.453384e-02
*ELEMENT, TYPE=SPRINGA, ELSET=WK_2205
   95390,    83330,   103551
*SPRING, ELSET=WK_2205

2.453384e-02
*ELEMENT, TYPE=SPRINGA, ELSET=WK_2206
   95391,    83335,   103552
*SPRING, ELSET=WK_2206

2.453384e-02
*ELEMENT, TYPE=SPRINGA, ELSET=WK_2207
   95392,    83340,   103553
*SPRING, ELSET=WK_2207

2.453384e-02
*ELEMENT, TYPE=SPRINGA, ELSET=WK_2208
   95393,    83345,   103554
*SPRING, ELSET=WK_2208

2.453384e-02
*ELEMENT, TYPE=SPRINGA, ELSET=WK_2209
   95394,    83350,   103555
*SPRING, ELSET=WK_2209

2.453384e-02
*ELEMENT, TYPE=SPRINGA, ELSET=WK_2210
   95395,    83355,   103556
*SPRING, ELSET=WK_2210

2.453384e-02
*ELEMENT, TYPE=SPRINGA, ELSET=WK_2211
   95396,    83360,   103557
*SPRING, ELSET=WK_2211

2.453384e-02
*ELEMENT, TYPE=SPRINGA, ELSET=WK_2212
   95397,    83365,   103558
*SPRING, ELSET=WK_2212

2.453384e-02
*ELEMENT, TYPE=SPRINGA, ELSET=WK_2213
   95398,    83370,   103559
*SPRING, ELSET=WK_2213

2.453384e-02
*ELEMENT, TYPE=SPRINGA, ELSET=WK_2214
   95399,    83375,   103560
*SPRING, ELSET=WK_2214

2.453384e-02
*ELEMENT, TYPE=SPRINGA, ELSET=WK_2215
   95400,    83380,   103561
*SPRING, ELSET=WK_2215

2.453384e-02
*ELEMENT, TYPE=SPRINGA, ELSET=WK_2216
   95401,    83385,   103562
*SPRING, ELSET=WK_2216

2.453384e-02
*ELEMENT, TYPE=SPRINGA, ELSET=WK_2217
   95402,    83390,   103563
*SPRING, ELSET=WK_2217

2.453384e-02
*ELEMENT, TYPE=SPRINGA, ELSET=WK_2218
   95403,    83395,   103564
*SPRING, ELSET=WK_2218

2.453384e-02
*ELEMENT, TYPE=SPRINGA, ELSET=WK_2219
   95404,    83400,   103565
*SPRING, ELSET=WK_2219

2.453384e-02
*ELEMENT, TYPE=SPRINGA, ELSET=WK_2220
   95405,    83405,   103566
*SPRING, ELSET=WK_2220

2.453384e-02
*ELEMENT, TYPE=SPRINGA, ELSET=WK_2221
   95406,    83410,   103567
*SPRING, ELSET=WK_2221

2.453384e-02
*ELEMENT, TYPE=SPRINGA, ELSET=WK_2222
   95407,    83415,   103568
*SPRING, ELSET=WK_2222

2.453384e-02
*ELEMENT, TYPE=SPRINGA, ELSET=WK_2223
   95408,    83420,   103569
*SPRING, ELSET=WK_2223

2.453384e-02
*ELEMENT, TYPE=SPRINGA, ELSET=WK_2224
   95409,    83425,   103570
*SPRING, ELSET=WK_2224

2.453384e-02
*ELEMENT, TYPE=SPRINGA, ELSET=WK_2225
   95410,    83430,   103571
*SPRING, ELSET=WK_2225

2.453384e-02
*ELEMENT, TYPE=SPRINGA, ELSET=WK_2226
   95411,    83435,   103572
*SPRING, ELSET=WK_2226

2.453384e-02
*ELEMENT, TYPE=SPRINGA, ELSET=WK_2227
   95412,    83440,   103573
*SPRING, ELSET=WK_2227

2.453384e-02
*ELEMENT, TYPE=SPRINGA, ELSET=WK_2228
   95413,    83445,   103574
*SPRING, ELSET=WK_2228

2.453384e-02
*ELEMENT, TYPE=SPRINGA, ELSET=WK_2229
   95414,    83450,   103575
*SPRING, ELSET=WK_2229

2.453384e-02
*ELEMENT, TYPE=SPRINGA, ELSET=WK_2230
   95415,    83455,   103576
*SPRING, ELSET=WK_2230

2.453384e-02
*ELEMENT, TYPE=SPRINGA, ELSET=WK_2231
   95416,    83460,   103577
*SPRING, ELSET=WK_2231

2.453384e-02
*ELEMENT, TYPE=SPRINGA, ELSET=WK_2232
   95417,    83465,   103578
*SPRING, ELSET=WK_2232

2.453384e-02
*ELEMENT, TYPE=SPRINGA, ELSET=WK_2233
   95418,    83470,   103579
*SPRING, ELSET=WK_2233

2.453384e-02
*ELEMENT, TYPE=SPRINGA, ELSET=WK_2234
   95419,    83475,   103580
*SPRING, ELSET=WK_2234

2.453384e-02
*ELEMENT, TYPE=SPRINGA, ELSET=WK_2235
   95420,    83480,   103581
*SPRING, ELSET=WK_2235

2.453384e-02
*ELEMENT, TYPE=SPRINGA, ELSET=WK_2236
   95421,    83485,   103582
*SPRING, ELSET=WK_2236

2.453384e-02
*ELEMENT, TYPE=SPRINGA, ELSET=WK_2237
   95422,    83490,   103583
*SPRING, ELSET=WK_2237

2.453384e-02
*ELEMENT, TYPE=SPRINGA, ELSET=WK_2238
   95423,    83495,   103584
*SPRING, ELSET=WK_2238

2.453384e-02
*ELEMENT, TYPE=SPRINGA, ELSET=WK_2239
   95424,    83500,   103585
*SPRING, ELSET=WK_2239

2.453384e-02
*ELEMENT, TYPE=SPRINGA, ELSET=WK_2240
   95425,    83505,   103586
*SPRING, ELSET=WK_2240

2.453384e-02
*ELEMENT, TYPE=SPRINGA, ELSET=WK_2241
   95426,    83510,   103587
*SPRING, ELSET=WK_2241

2.453384e-02
*ELEMENT, TYPE=SPRINGA, ELSET=WK_2242
   95427,    83515,   103588
*SPRING, ELSET=WK_2242

2.453384e-02
*ELEMENT, TYPE=SPRINGA, ELSET=WK_2243
   95428,    83520,   103589
*SPRING, ELSET=WK_2243

2.453384e-02
*ELEMENT, TYPE=SPRINGA, ELSET=WK_2244
   95429,    83525,   103590
*SPRING, ELSET=WK_2244

2.453384e-02
*ELEMENT, TYPE=SPRINGA, ELSET=WK_2245
   95430,    83530,   103591
*SPRING, ELSET=WK_2245

2.453384e-02
*ELEMENT, TYPE=SPRINGA, ELSET=WK_2246
   95431,    83535,   103592
*SPRING, ELSET=WK_2246

2.453384e-02
*ELEMENT, TYPE=SPRINGA, ELSET=WK_2247
   95432,    83540,   103593
*SPRING, ELSET=WK_2247

2.453384e-02
*ELEMENT, TYPE=SPRINGA, ELSET=WK_2248
   95433,    83545,   103594
*SPRING, ELSET=WK_2248

2.453384e-02
*ELEMENT, TYPE=SPRINGA, ELSET=WK_2249
   95434,    83550,   103595
*SPRING, ELSET=WK_2249

2.453384e-02
*ELEMENT, TYPE=SPRINGA, ELSET=WK_2250
   95435,    83555,   103596
*SPRING, ELSET=WK_2250

2.453384e-02
*ELEMENT, TYPE=SPRINGA, ELSET=WK_2251
   95436,    83560,   103597
*SPRING, ELSET=WK_2251

2.453384e-02
*ELEMENT, TYPE=SPRINGA, ELSET=WK_2252
   95437,    83565,   103598
*SPRING, ELSET=WK_2252

2.453384e-02
*ELEMENT, TYPE=SPRINGA, ELSET=WK_2253
   95438,    83570,   103599
*SPRING, ELSET=WK_2253

2.453384e-02
*ELEMENT, TYPE=SPRINGA, ELSET=WK_2254
   95439,    83575,   103600
*SPRING, ELSET=WK_2254

2.453384e-02
*ELEMENT, TYPE=SPRINGA, ELSET=WK_2255
   95440,    83580,   103601
*SPRING, ELSET=WK_2255

2.453384e-02
*ELEMENT, TYPE=SPRINGA, ELSET=WK_2256
   95441,    83585,   103602
*SPRING, ELSET=WK_2256

2.453384e-02
*ELEMENT, TYPE=SPRINGA, ELSET=WK_2257
   95442,    83590,   103603
*SPRING, ELSET=WK_2257

2.453384e-02
*ELEMENT, TYPE=SPRINGA, ELSET=WK_2258
   95443,    83595,   103604
*SPRING, ELSET=WK_2258

2.453384e-02
*ELEMENT, TYPE=SPRINGA, ELSET=WK_2259
   95444,    83600,   103605
*SPRING, ELSET=WK_2259

2.453384e-02
*ELEMENT, TYPE=SPRINGA, ELSET=WK_2260
   95445,    83605,   103606
*SPRING, ELSET=WK_2260

2.453384e-02
*ELEMENT, TYPE=SPRINGA, ELSET=WK_2261
   95446,    83610,   103607
*SPRING, ELSET=WK_2261

2.453384e-02
*ELEMENT, TYPE=SPRINGA, ELSET=WK_2262
   95447,    83615,   103608
*SPRING, ELSET=WK_2262

2.453384e-02
*ELEMENT, TYPE=SPRINGA, ELSET=WK_2263
   95448,    83620,   103609
*SPRING, ELSET=WK_2263

2.453384e-02
*ELEMENT, TYPE=SPRINGA, ELSET=WK_2264
   95449,    83625,   103610
*SPRING, ELSET=WK_2264

2.453384e-02
*ELEMENT, TYPE=SPRINGA, ELSET=WK_2265
   95450,    83630,   103611
*SPRING, ELSET=WK_2265

2.453384e-02
*ELEMENT, TYPE=SPRINGA, ELSET=WK_2266
   95451,    83635,   103612
*SPRING, ELSET=WK_2266

2.453384e-02
*ELEMENT, TYPE=SPRINGA, ELSET=WK_2267
   95452,    83640,   103613
*SPRING, ELSET=WK_2267

2.453384e-02
*ELEMENT, TYPE=SPRINGA, ELSET=WK_2268
   95453,    83645,   103614
*SPRING, ELSET=WK_2268

2.453384e-02
*ELEMENT, TYPE=SPRINGA, ELSET=WK_2269
   95454,    83650,   103615
*SPRING, ELSET=WK_2269

2.453384e-02
*ELEMENT, TYPE=SPRINGA, ELSET=WK_2270
   95455,    83655,   103616
*SPRING, ELSET=WK_2270

2.453384e-02
*ELEMENT, TYPE=SPRINGA, ELSET=WK_2271
   95456,    83660,   103617
*SPRING, ELSET=WK_2271

2.453384e-02
*ELEMENT, TYPE=SPRINGA, ELSET=WK_2272
   95457,    83665,   103618
*SPRING, ELSET=WK_2272

2.453384e-02
*ELEMENT, TYPE=SPRINGA, ELSET=WK_2273
   95458,    83670,   103619
*SPRING, ELSET=WK_2273

2.453384e-02
*ELEMENT, TYPE=SPRINGA, ELSET=WK_2274
   95459,    83675,   103620
*SPRING, ELSET=WK_2274

2.453384e-02
*ELEMENT, TYPE=SPRINGA, ELSET=WK_2275
   95460,    83680,   103621
*SPRING, ELSET=WK_2275

2.453384e-02
*ELEMENT, TYPE=SPRINGA, ELSET=WK_2276
   95461,    83685,   103622
*SPRING, ELSET=WK_2276

2.453384e-02
*ELEMENT, TYPE=SPRINGA, ELSET=WK_2277
   95462,    83690,   103623
*SPRING, ELSET=WK_2277

2.453384e-02
*ELEMENT, TYPE=SPRINGA, ELSET=WK_2278
   95463,    83695,   103624
*SPRING, ELSET=WK_2278

2.453384e-02
*ELEMENT, TYPE=SPRINGA, ELSET=WK_2279
   95464,    83700,   103625
*SPRING, ELSET=WK_2279

2.453384e-02
*ELEMENT, TYPE=SPRINGA, ELSET=WK_2280
   95465,    83705,   103626
*SPRING, ELSET=WK_2280

2.453384e-02
*ELEMENT, TYPE=SPRINGA, ELSET=WK_2281
   95466,    83710,   103627
*SPRING, ELSET=WK_2281

2.453384e-02
*ELEMENT, TYPE=SPRINGA, ELSET=WK_2282
   95467,    83715,   103628
*SPRING, ELSET=WK_2282

2.453384e-02
*ELEMENT, TYPE=SPRINGA, ELSET=WK_2283
   95468,    83720,   103629
*SPRING, ELSET=WK_2283

2.453384e-02
*ELEMENT, TYPE=SPRINGA, ELSET=WK_2284
   95469,    83725,   103630
*SPRING, ELSET=WK_2284

2.453384e-02
*ELEMENT, TYPE=SPRINGA, ELSET=WK_2285
   95470,    83730,   103631
*SPRING, ELSET=WK_2285

2.453384e-02
*ELEMENT, TYPE=SPRINGA, ELSET=WK_2286
   95471,    83735,   103632
*SPRING, ELSET=WK_2286

2.453384e-02
*ELEMENT, TYPE=SPRINGA, ELSET=WK_2287
   95472,    83740,   103633
*SPRING, ELSET=WK_2287

2.453384e-02
*ELEMENT, TYPE=SPRINGA, ELSET=WK_2288
   95473,    83745,   103634
*SPRING, ELSET=WK_2288

2.453384e-02
*ELEMENT, TYPE=SPRINGA, ELSET=WK_2289
   95474,    83750,   103635
*SPRING, ELSET=WK_2289

2.453384e-02
*ELEMENT, TYPE=SPRINGA, ELSET=WK_2290
   95475,    83755,   103636
*SPRING, ELSET=WK_2290

2.453384e-02
*ELEMENT, TYPE=SPRINGA, ELSET=WK_2291
   95476,    83760,   103637
*SPRING, ELSET=WK_2291

2.453384e-02
*ELEMENT, TYPE=SPRINGA, ELSET=WK_2292
   95477,    83765,   103638
*SPRING, ELSET=WK_2292

2.453384e-02
*ELEMENT, TYPE=SPRINGA, ELSET=WK_2293
   95478,    83770,   103639
*SPRING, ELSET=WK_2293

2.453384e-02
*ELEMENT, TYPE=SPRINGA, ELSET=WK_2294
   95479,    83775,   103640
*SPRING, ELSET=WK_2294

2.453384e-02
*ELEMENT, TYPE=SPRINGA, ELSET=WK_2295
   95480,    83780,   103641
*SPRING, ELSET=WK_2295

2.453384e-02
*ELEMENT, TYPE=SPRINGA, ELSET=WK_2296
   95481,    83785,   103642
*SPRING, ELSET=WK_2296

2.453384e-02
*ELEMENT, TYPE=SPRINGA, ELSET=WK_2297
   95482,    83790,   103643
*SPRING, ELSET=WK_2297

2.453384e-02
*ELEMENT, TYPE=SPRINGA, ELSET=WK_2298
   95483,    83795,   103644
*SPRING, ELSET=WK_2298

2.453384e-02
*ELEMENT, TYPE=SPRINGA, ELSET=WK_2299
   95484,    83800,   103645
*SPRING, ELSET=WK_2299

2.453384e-02
*ELEMENT, TYPE=SPRINGA, ELSET=WK_2300
   95485,    83805,   103646
*SPRING, ELSET=WK_2300

2.453384e-02
*ELEMENT, TYPE=SPRINGA, ELSET=WK_2301
   95486,    83810,   103647
*SPRING, ELSET=WK_2301

2.453384e-02
*ELEMENT, TYPE=SPRINGA, ELSET=WK_2302
   95487,    83815,   103648
*SPRING, ELSET=WK_2302

2.453384e-02
*ELEMENT, TYPE=SPRINGA, ELSET=WK_2303
   95488,    83820,   103649
*SPRING, ELSET=WK_2303

2.453384e-02
*ELEMENT, TYPE=SPRINGA, ELSET=WK_2304
   95489,    83825,   103650
*SPRING, ELSET=WK_2304

2.453384e-02
*ELEMENT, TYPE=SPRINGA, ELSET=WK_2305
   95490,    83830,   103651
*SPRING, ELSET=WK_2305

2.453384e-02
*ELEMENT, TYPE=SPRINGA, ELSET=WK_2306
   95491,    83835,   103652
*SPRING, ELSET=WK_2306

2.453384e-02
*ELEMENT, TYPE=SPRINGA, ELSET=WK_2307
   95492,    83840,   103653
*SPRING, ELSET=WK_2307

2.453384e-02
*ELEMENT, TYPE=SPRINGA, ELSET=WK_2308
   95493,    83845,   103654
*SPRING, ELSET=WK_2308

2.453384e-02
*ELEMENT, TYPE=SPRINGA, ELSET=WK_2309
   95494,    83850,   103655
*SPRING, ELSET=WK_2309

2.453384e-02
*ELEMENT, TYPE=SPRINGA, ELSET=WK_2310
   95495,    83855,   103656
*SPRING, ELSET=WK_2310

2.453384e-02
*ELEMENT, TYPE=SPRINGA, ELSET=WK_2311
   95496,    83860,   103657
*SPRING, ELSET=WK_2311

2.453384e-02
*ELEMENT, TYPE=SPRINGA, ELSET=WK_2312
   95497,    83865,   103658
*SPRING, ELSET=WK_2312

2.453384e-02
*ELEMENT, TYPE=SPRINGA, ELSET=WK_2313
   95498,    83870,   103659
*SPRING, ELSET=WK_2313

2.453384e-02
*ELEMENT, TYPE=SPRINGA, ELSET=WK_2314
   95499,    83875,   103660
*SPRING, ELSET=WK_2314

2.453384e-02
*ELEMENT, TYPE=SPRINGA, ELSET=WK_2315
   95500,    83880,   103661
*SPRING, ELSET=WK_2315

2.453384e-02
*ELEMENT, TYPE=SPRINGA, ELSET=WK_2316
   95501,    83885,   103662
*SPRING, ELSET=WK_2316

2.453384e-02
*ELEMENT, TYPE=SPRINGA, ELSET=WK_2317
   95502,    83890,   103663
*SPRING, ELSET=WK_2317

2.453384e-02
*ELEMENT, TYPE=SPRINGA, ELSET=WK_2318
   95503,    83895,   103664
*SPRING, ELSET=WK_2318

2.453384e-02
*ELEMENT, TYPE=SPRINGA, ELSET=WK_2319
   95504,    83900,   103665
*SPRING, ELSET=WK_2319

2.453384e-02
*ELEMENT, TYPE=SPRINGA, ELSET=WK_2320
   95505,    83905,   103666
*SPRING, ELSET=WK_2320

2.453384e-02
*ELEMENT, TYPE=SPRINGA, ELSET=WK_2321
   95506,    83910,   103667
*SPRING, ELSET=WK_2321

2.453384e-02
*ELEMENT, TYPE=SPRINGA, ELSET=WK_2322
   95507,    83915,   103668
*SPRING, ELSET=WK_2322

2.453384e-02
*ELEMENT, TYPE=SPRINGA, ELSET=WK_2323
   95508,    83920,   103669
*SPRING, ELSET=WK_2323

2.453384e-02
*ELEMENT, TYPE=SPRINGA, ELSET=WK_2324
   95509,    83925,   103670
*SPRING, ELSET=WK_2324

2.453384e-02
*ELEMENT, TYPE=SPRINGA, ELSET=WK_2325
   95510,    83930,   103671
*SPRING, ELSET=WK_2325

2.453384e-02
*ELEMENT, TYPE=SPRINGA, ELSET=WK_2326
   95511,    83935,   103672
*SPRING, ELSET=WK_2326

2.453384e-02
*ELEMENT, TYPE=SPRINGA, ELSET=WK_2327
   95512,    83940,   103673
*SPRING, ELSET=WK_2327

2.453384e-02
*ELEMENT, TYPE=SPRINGA, ELSET=WK_2328
   95513,    83945,   103674
*SPRING, ELSET=WK_2328

2.453384e-02
*ELEMENT, TYPE=SPRINGA, ELSET=WK_2329
   95514,    83950,   103675
*SPRING, ELSET=WK_2329

2.453384e-02
*ELEMENT, TYPE=SPRINGA, ELSET=WK_2330
   95515,    83955,   103676
*SPRING, ELSET=WK_2330

2.453384e-02
*ELEMENT, TYPE=SPRINGA, ELSET=WK_2331
   95516,    83960,   103677
*SPRING, ELSET=WK_2331

2.453384e-02
*ELEMENT, TYPE=SPRINGA, ELSET=WK_2332
   95517,    83965,   103678
*SPRING, ELSET=WK_2332

2.453384e-02
*ELEMENT, TYPE=SPRINGA, ELSET=WK_2333
   95518,    83970,   103679
*SPRING, ELSET=WK_2333

2.453384e-02
*ELEMENT, TYPE=SPRINGA, ELSET=WK_2334
   95519,    83975,   103680
*SPRING, ELSET=WK_2334

2.453384e-02
*ELEMENT, TYPE=SPRINGA, ELSET=WK_2335
   95520,    83980,   103681
*SPRING, ELSET=WK_2335

2.453384e-02
*ELEMENT, TYPE=SPRINGA, ELSET=WK_2336
   95521,    83985,   103682
*SPRING, ELSET=WK_2336

2.453384e-02
*ELEMENT, TYPE=SPRINGA, ELSET=WK_2337
   95522,    83990,   103683
*SPRING, ELSET=WK_2337

2.453384e-02
*ELEMENT, TYPE=SPRINGA, ELSET=WK_2338
   95523,    83995,   103684
*SPRING, ELSET=WK_2338

2.453384e-02
*ELEMENT, TYPE=SPRINGA, ELSET=WK_2339
   95524,    84000,   103685
*SPRING, ELSET=WK_2339

2.453384e-02
*ELEMENT, TYPE=SPRINGA, ELSET=WK_2340
   95525,    84005,   103686
*SPRING, ELSET=WK_2340

2.453384e-02
*ELEMENT, TYPE=SPRINGA, ELSET=WK_2341
   95526,    84010,   103687
*SPRING, ELSET=WK_2341

2.453384e-02
*ELEMENT, TYPE=SPRINGA, ELSET=WK_2342
   95527,    84015,   103688
*SPRING, ELSET=WK_2342

2.453384e-02
*ELEMENT, TYPE=SPRINGA, ELSET=WK_2343
   95528,    84020,   103689
*SPRING, ELSET=WK_2343

2.453384e-02
*ELEMENT, TYPE=SPRINGA, ELSET=WK_2344
   95529,    84025,   103690
*SPRING, ELSET=WK_2344

2.453384e-02
*ELEMENT, TYPE=SPRINGA, ELSET=WK_2345
   95530,    84030,   103691
*SPRING, ELSET=WK_2345

2.453384e-02
*ELEMENT, TYPE=SPRINGA, ELSET=WK_2346
   95531,    84035,   103692
*SPRING, ELSET=WK_2346

2.453384e-02
*ELEMENT, TYPE=SPRINGA, ELSET=WK_2347
   95532,    84040,   103693
*SPRING, ELSET=WK_2347

2.453384e-02
*ELEMENT, TYPE=SPRINGA, ELSET=WK_2348
   95533,    84045,   103694
*SPRING, ELSET=WK_2348

2.453384e-02
*ELEMENT, TYPE=SPRINGA, ELSET=WK_2349
   95534,    84050,   103695
*SPRING, ELSET=WK_2349

2.453384e-02
*ELEMENT, TYPE=SPRINGA, ELSET=WK_2350
   95535,    84055,   103696
*SPRING, ELSET=WK_2350

2.453384e-02
*ELEMENT, TYPE=SPRINGA, ELSET=WK_2351
   95536,    84060,   103697
*SPRING, ELSET=WK_2351

2.453384e-02
*ELEMENT, TYPE=SPRINGA, ELSET=WK_2352
   95537,    84065,   103698
*SPRING, ELSET=WK_2352

2.453384e-02
*ELEMENT, TYPE=SPRINGA, ELSET=WK_2353
   95538,    84070,   103699
*SPRING, ELSET=WK_2353

2.453384e-02
*ELEMENT, TYPE=SPRINGA, ELSET=WK_2354
   95539,    84075,   103700
*SPRING, ELSET=WK_2354

2.453384e-02
*ELEMENT, TYPE=SPRINGA, ELSET=WK_2355
   95540,    84080,   103701
*SPRING, ELSET=WK_2355

2.453384e-02
*ELEMENT, TYPE=SPRINGA, ELSET=WK_2356
   95541,    84085,   103702
*SPRING, ELSET=WK_2356

2.453384e-02
*ELEMENT, TYPE=SPRINGA, ELSET=WK_2357
   95542,    84090,   103703
*SPRING, ELSET=WK_2357

2.453384e-02
*ELEMENT, TYPE=SPRINGA, ELSET=WK_2358
   95543,    84095,   103704
*SPRING, ELSET=WK_2358

2.453384e-02
*ELEMENT, TYPE=SPRINGA, ELSET=WK_2359
   95544,    84100,   103705
*SPRING, ELSET=WK_2359

2.453384e-02
*ELEMENT, TYPE=SPRINGA, ELSET=WK_2360
   95545,    84105,   103706
*SPRING, ELSET=WK_2360

2.453384e-02
*ELEMENT, TYPE=SPRINGA, ELSET=WK_2361
   95546,    84110,   103707
*SPRING, ELSET=WK_2361

2.453384e-02
*ELEMENT, TYPE=SPRINGA, ELSET=WK_2362
   95547,    84115,   103708
*SPRING, ELSET=WK_2362

2.453384e-02
*ELEMENT, TYPE=SPRINGA, ELSET=WK_2363
   95548,    84120,   103709
*SPRING, ELSET=WK_2363

2.453384e-02
*ELEMENT, TYPE=SPRINGA, ELSET=WK_2364
   95549,    84125,   103710
*SPRING, ELSET=WK_2364

2.453384e-02
*ELEMENT, TYPE=SPRINGA, ELSET=WK_2365
   95550,    84130,   103711
*SPRING, ELSET=WK_2365

2.453384e-02
*ELEMENT, TYPE=SPRINGA, ELSET=WK_2366
   95551,    84135,   103712
*SPRING, ELSET=WK_2366

2.453384e-02
*ELEMENT, TYPE=SPRINGA, ELSET=WK_2367
   95552,    84140,   103713
*SPRING, ELSET=WK_2367

2.453384e-02
*ELEMENT, TYPE=SPRINGA, ELSET=WK_2368
   95553,    84145,   103714
*SPRING, ELSET=WK_2368

2.453384e-02
*ELEMENT, TYPE=SPRINGA, ELSET=WK_2369
   95554,    84150,   103715
*SPRING, ELSET=WK_2369

2.453384e-02
*ELEMENT, TYPE=SPRINGA, ELSET=WK_2370
   95555,    84155,   103716
*SPRING, ELSET=WK_2370

2.453384e-02
*ELEMENT, TYPE=SPRINGA, ELSET=WK_2371
   95556,    84160,   103717
*SPRING, ELSET=WK_2371

2.453384e-02
*ELEMENT, TYPE=SPRINGA, ELSET=WK_2372
   95557,    84165,   103718
*SPRING, ELSET=WK_2372

2.453384e-02
*ELEMENT, TYPE=SPRINGA, ELSET=WK_2373
   95558,    84170,   103719
*SPRING, ELSET=WK_2373

2.453384e-02
*ELEMENT, TYPE=SPRINGA, ELSET=WK_2374
   95559,    84175,   103720
*SPRING, ELSET=WK_2374

2.453384e-02
*ELEMENT, TYPE=SPRINGA, ELSET=WK_2375
   95560,    84180,   103721
*SPRING, ELSET=WK_2375

2.453384e-02
*ELEMENT, TYPE=SPRINGA, ELSET=WK_2376
   95561,    84185,   103722
*SPRING, ELSET=WK_2376

2.453384e-02
*ELEMENT, TYPE=SPRINGA, ELSET=WK_2377
   95562,    84190,   103723
*SPRING, ELSET=WK_2377

2.453384e-02
*ELEMENT, TYPE=SPRINGA, ELSET=WK_2378
   95563,    84195,   103724
*SPRING, ELSET=WK_2378

2.453384e-02
*ELEMENT, TYPE=SPRINGA, ELSET=WK_2379
   95564,    84200,   103725
*SPRING, ELSET=WK_2379

2.453384e-02
*ELEMENT, TYPE=SPRINGA, ELSET=WK_2380
   95565,    84205,   103726
*SPRING, ELSET=WK_2380

2.453384e-02
*ELEMENT, TYPE=SPRINGA, ELSET=WK_2381
   95566,    84210,   103727
*SPRING, ELSET=WK_2381

2.453384e-02
*ELEMENT, TYPE=SPRINGA, ELSET=WK_2382
   95567,    84215,   103728
*SPRING, ELSET=WK_2382

2.453384e-02
*ELEMENT, TYPE=SPRINGA, ELSET=WK_2383
   95568,    84220,   103729
*SPRING, ELSET=WK_2383

2.453384e-02
*ELEMENT, TYPE=SPRINGA, ELSET=WK_2384
   95569,    84225,   103730
*SPRING, ELSET=WK_2384

2.453384e-02
*ELEMENT, TYPE=SPRINGA, ELSET=WK_2385
   95570,    84230,   103731
*SPRING, ELSET=WK_2385

2.453384e-02
*ELEMENT, TYPE=SPRINGA, ELSET=WK_2386
   95571,    84235,   103732
*SPRING, ELSET=WK_2386

2.453384e-02
*ELEMENT, TYPE=SPRINGA, ELSET=WK_2387
   95572,    84240,   103733
*SPRING, ELSET=WK_2387

2.453384e-02
*ELEMENT, TYPE=SPRINGA, ELSET=WK_2388
   95573,    84245,   103734
*SPRING, ELSET=WK_2388

2.453384e-02
*ELEMENT, TYPE=SPRINGA, ELSET=WK_2389
   95574,    84250,   103735
*SPRING, ELSET=WK_2389

2.453384e-02
*ELEMENT, TYPE=SPRINGA, ELSET=WK_2390
   95575,    84255,   103736
*SPRING, ELSET=WK_2390

2.453384e-02
*ELEMENT, TYPE=SPRINGA, ELSET=WK_2391
   95576,    84260,   103737
*SPRING, ELSET=WK_2391

2.453384e-02
*ELEMENT, TYPE=SPRINGA, ELSET=WK_2392
   95577,    84265,   103738
*SPRING, ELSET=WK_2392

2.453384e-02
*ELEMENT, TYPE=SPRINGA, ELSET=WK_2393
   95578,    84270,   103739
*SPRING, ELSET=WK_2393

2.453384e-02
*ELEMENT, TYPE=SPRINGA, ELSET=WK_2394
   95579,    84275,   103740
*SPRING, ELSET=WK_2394

2.453384e-02
*ELEMENT, TYPE=SPRINGA, ELSET=WK_2395
   95580,    84280,   103741
*SPRING, ELSET=WK_2395

2.453384e-02
*ELEMENT, TYPE=SPRINGA, ELSET=WK_2396
   95581,    84285,   103742
*SPRING, ELSET=WK_2396

2.453384e-02
*ELEMENT, TYPE=SPRINGA, ELSET=WK_2397
   95582,    84290,   103743
*SPRING, ELSET=WK_2397

2.453384e-02
*ELEMENT, TYPE=SPRINGA, ELSET=WK_2398
   95583,    84295,   103744
*SPRING, ELSET=WK_2398

2.453384e-02
*ELEMENT, TYPE=SPRINGA, ELSET=WK_2399
   95584,    84300,   103745
*SPRING, ELSET=WK_2399

2.453384e-02
*ELEMENT, TYPE=SPRINGA, ELSET=WK_2400
   95585,    84305,   103746
*SPRING, ELSET=WK_2400

2.453384e-02
*ELEMENT, TYPE=SPRINGA, ELSET=WK_2401
   95586,    84310,   103747
*SPRING, ELSET=WK_2401

2.453384e-02
*ELEMENT, TYPE=SPRINGA, ELSET=WK_2402
   95587,    84315,   103748
*SPRING, ELSET=WK_2402

2.453384e-02
*ELEMENT, TYPE=SPRINGA, ELSET=WK_2403
   95588,    84320,   103749
*SPRING, ELSET=WK_2403

2.453384e-02
*ELEMENT, TYPE=SPRINGA, ELSET=WK_2404
   95589,    84325,   103750
*SPRING, ELSET=WK_2404

2.453384e-02
*ELEMENT, TYPE=SPRINGA, ELSET=WK_2405
   95590,    84330,   103751
*SPRING, ELSET=WK_2405

2.453384e-02
*ELEMENT, TYPE=SPRINGA, ELSET=WK_2406
   95591,    84335,   103752
*SPRING, ELSET=WK_2406

2.453384e-02
*ELEMENT, TYPE=SPRINGA, ELSET=WK_2407
   95592,    84340,   103753
*SPRING, ELSET=WK_2407

2.453384e-02
*ELEMENT, TYPE=SPRINGA, ELSET=WK_2408
   95593,    84345,   103754
*SPRING, ELSET=WK_2408

2.453384e-02
*ELEMENT, TYPE=SPRINGA, ELSET=WK_2409
   95594,    84350,   103755
*SPRING, ELSET=WK_2409

2.453384e-02
*ELEMENT, TYPE=SPRINGA, ELSET=WK_2410
   95595,    84355,   103756
*SPRING, ELSET=WK_2410

2.453384e-02
*ELEMENT, TYPE=SPRINGA, ELSET=WK_2411
   95596,    84360,   103757
*SPRING, ELSET=WK_2411

2.453384e-02
*ELEMENT, TYPE=SPRINGA, ELSET=WK_2412
   95597,    84365,   103758
*SPRING, ELSET=WK_2412

2.453384e-02
*ELEMENT, TYPE=SPRINGA, ELSET=WK_2413
   95598,    84370,   103759
*SPRING, ELSET=WK_2413

2.453384e-02
*ELEMENT, TYPE=SPRINGA, ELSET=WK_2414
   95599,    84375,   103760
*SPRING, ELSET=WK_2414

2.453384e-02
*ELEMENT, TYPE=SPRINGA, ELSET=WK_2415
   95600,    84380,   103761
*SPRING, ELSET=WK_2415

2.453384e-02
*ELEMENT, TYPE=SPRINGA, ELSET=WK_2416
   95601,    84385,   103762
*SPRING, ELSET=WK_2416

2.453384e-02
*ELEMENT, TYPE=SPRINGA, ELSET=WK_2417
   95602,    84390,   103763
*SPRING, ELSET=WK_2417

2.453384e-02
*ELEMENT, TYPE=SPRINGA, ELSET=WK_2418
   95603,    84395,   103764
*SPRING, ELSET=WK_2418

2.453384e-02
*ELEMENT, TYPE=SPRINGA, ELSET=WK_2419
   95604,    84400,   103765
*SPRING, ELSET=WK_2419

2.453384e-02
*ELEMENT, TYPE=SPRINGA, ELSET=WK_2420
   95605,    84405,   103766
*SPRING, ELSET=WK_2420

2.453384e-02
*ELEMENT, TYPE=SPRINGA, ELSET=WK_2421
   95606,    84410,   103767
*SPRING, ELSET=WK_2421

2.453384e-02
*ELEMENT, TYPE=SPRINGA, ELSET=WK_2422
   95607,    84415,   103768
*SPRING, ELSET=WK_2422

2.453384e-02
*ELEMENT, TYPE=SPRINGA, ELSET=WK_2423
   95608,    84420,   103769
*SPRING, ELSET=WK_2423

2.453384e-02
*ELEMENT, TYPE=SPRINGA, ELSET=WK_2424
   95609,    84425,   103770
*SPRING, ELSET=WK_2424

2.453384e-02
*ELEMENT, TYPE=SPRINGA, ELSET=WK_2425
   95610,    84430,   103771
*SPRING, ELSET=WK_2425

2.453384e-02
*ELEMENT, TYPE=SPRINGA, ELSET=WK_2426
   95611,    84435,   103772
*SPRING, ELSET=WK_2426

2.453384e-02
*ELEMENT, TYPE=SPRINGA, ELSET=WK_2427
   95612,    84440,   103773
*SPRING, ELSET=WK_2427

2.453384e-02
*ELEMENT, TYPE=SPRINGA, ELSET=WK_2428
   95613,    84445,   103774
*SPRING, ELSET=WK_2428

2.453384e-02
*ELEMENT, TYPE=SPRINGA, ELSET=WK_2429
   95614,    84450,   103775
*SPRING, ELSET=WK_2429

2.453384e-02
*ELEMENT, TYPE=SPRINGA, ELSET=WK_2430
   95615,    84455,   103776
*SPRING, ELSET=WK_2430

2.453384e-02
*ELEMENT, TYPE=SPRINGA, ELSET=WK_2431
   95616,    84460,   103777
*SPRING, ELSET=WK_2431

2.453384e-02
*ELEMENT, TYPE=SPRINGA, ELSET=WK_2432
   95617,    84465,   103778
*SPRING, ELSET=WK_2432

2.453384e-02
*ELEMENT, TYPE=SPRINGA, ELSET=WK_2433
   95618,    84470,   103779
*SPRING, ELSET=WK_2433

2.453384e-02
*ELEMENT, TYPE=SPRINGA, ELSET=WK_2434
   95619,    84475,   103780
*SPRING, ELSET=WK_2434

2.453384e-02
*ELEMENT, TYPE=SPRINGA, ELSET=WK_2435
   95620,    84480,   103781
*SPRING, ELSET=WK_2435

2.453384e-02
*ELEMENT, TYPE=SPRINGA, ELSET=WK_2436
   95621,    84485,   103782
*SPRING, ELSET=WK_2436

2.453384e-02
*ELEMENT, TYPE=SPRINGA, ELSET=WK_2437
   95622,    84490,   103783
*SPRING, ELSET=WK_2437

2.453384e-02
*ELEMENT, TYPE=SPRINGA, ELSET=WK_2438
   95623,    84495,   103784
*SPRING, ELSET=WK_2438

2.453384e-02
*ELEMENT, TYPE=SPRINGA, ELSET=WK_2439
   95624,    84500,   103785
*SPRING, ELSET=WK_2439

2.453384e-02
*ELEMENT, TYPE=SPRINGA, ELSET=WK_2440
   95625,    84505,   103786
*SPRING, ELSET=WK_2440

2.453384e-02
*ELEMENT, TYPE=SPRINGA, ELSET=WK_2441
   95626,    84510,   103787
*SPRING, ELSET=WK_2441

2.453384e-02
*ELEMENT, TYPE=SPRINGA, ELSET=WK_2442
   95627,    84515,   103788
*SPRING, ELSET=WK_2442

2.453384e-02
*ELEMENT, TYPE=SPRINGA, ELSET=WK_2443
   95628,    84520,   103789
*SPRING, ELSET=WK_2443

2.453384e-02
*ELEMENT, TYPE=SPRINGA, ELSET=WK_2444
   95629,    84525,   103790
*SPRING, ELSET=WK_2444

2.453384e-02
*ELEMENT, TYPE=SPRINGA, ELSET=WK_2445
   95630,    84530,   103791
*SPRING, ELSET=WK_2445

2.453384e-02
*ELEMENT, TYPE=SPRINGA, ELSET=WK_2446
   95631,    84535,   103792
*SPRING, ELSET=WK_2446

2.453384e-02
*ELEMENT, TYPE=SPRINGA, ELSET=WK_2447
   95632,    84540,   103793
*SPRING, ELSET=WK_2447

2.453384e-02
*ELEMENT, TYPE=SPRINGA, ELSET=WK_2448
   95633,    84545,   103794
*SPRING, ELSET=WK_2448

2.453384e-02
*ELEMENT, TYPE=SPRINGA, ELSET=WK_2449
   95634,    84550,   103795
*SPRING, ELSET=WK_2449

2.453384e-02
*ELEMENT, TYPE=SPRINGA, ELSET=WK_2450
   95635,    84555,   103796
*SPRING, ELSET=WK_2450

2.453384e-02
*ELEMENT, TYPE=SPRINGA, ELSET=WK_2451
   95636,    84560,   103797
*SPRING, ELSET=WK_2451

2.453384e-02
*ELEMENT, TYPE=SPRINGA, ELSET=WK_2452
   95637,    84565,   103798
*SPRING, ELSET=WK_2452

2.453384e-02
*ELEMENT, TYPE=SPRINGA, ELSET=WK_2453
   95638,    84570,   103799
*SPRING, ELSET=WK_2453

2.453384e-02
*ELEMENT, TYPE=SPRINGA, ELSET=WK_2454
   95639,    84575,   103800
*SPRING, ELSET=WK_2454

2.453384e-02
*ELEMENT, TYPE=SPRINGA, ELSET=WK_2455
   95640,    84580,   103801
*SPRING, ELSET=WK_2455

2.453384e-02
*ELEMENT, TYPE=SPRINGA, ELSET=WK_2456
   95641,    84585,   103802
*SPRING, ELSET=WK_2456

2.453384e-02
*ELEMENT, TYPE=SPRINGA, ELSET=WK_2457
   95642,    84590,   103803
*SPRING, ELSET=WK_2457

2.453384e-02
*ELEMENT, TYPE=SPRINGA, ELSET=WK_2458
   95643,    84595,   103804
*SPRING, ELSET=WK_2458

2.453384e-02
*ELEMENT, TYPE=SPRINGA, ELSET=WK_2459
   95644,    84600,   103805
*SPRING, ELSET=WK_2459

2.453384e-02
*ELEMENT, TYPE=SPRINGA, ELSET=WK_2460
   95645,    84605,   103806
*SPRING, ELSET=WK_2460

2.453384e-02
*ELEMENT, TYPE=SPRINGA, ELSET=WK_2461
   95646,    84610,   103807
*SPRING, ELSET=WK_2461

2.453384e-02
*ELEMENT, TYPE=SPRINGA, ELSET=WK_2462
   95647,    84615,   103808
*SPRING, ELSET=WK_2462

2.453384e-02
*ELEMENT, TYPE=SPRINGA, ELSET=WK_2463
   95648,    84620,   103809
*SPRING, ELSET=WK_2463

2.453384e-02
*ELEMENT, TYPE=SPRINGA, ELSET=WK_2464
   95649,    84625,   103810
*SPRING, ELSET=WK_2464

2.453384e-02
*ELEMENT, TYPE=SPRINGA, ELSET=WK_2465
   95650,    84630,   103811
*SPRING, ELSET=WK_2465

2.453384e-02
*ELEMENT, TYPE=SPRINGA, ELSET=WK_2466
   95651,    84635,   103812
*SPRING, ELSET=WK_2466

2.453384e-02
*ELEMENT, TYPE=SPRINGA, ELSET=WK_2467
   95652,    84640,   103813
*SPRING, ELSET=WK_2467

2.453384e-02
*ELEMENT, TYPE=SPRINGA, ELSET=WK_2468
   95653,    84645,   103814
*SPRING, ELSET=WK_2468

2.453384e-02
*ELEMENT, TYPE=SPRINGA, ELSET=WK_2469
   95654,    84650,   103815
*SPRING, ELSET=WK_2469

2.453384e-02
*ELEMENT, TYPE=SPRINGA, ELSET=WK_2470
   95655,    84655,   103816
*SPRING, ELSET=WK_2470

2.453384e-02
*ELEMENT, TYPE=SPRINGA, ELSET=WK_2471
   95656,    84660,   103817
*SPRING, ELSET=WK_2471

2.453384e-02
*ELEMENT, TYPE=SPRINGA, ELSET=WK_2472
   95657,    84665,   103818
*SPRING, ELSET=WK_2472

2.453384e-02
*ELEMENT, TYPE=SPRINGA, ELSET=WK_2473
   95658,    84670,   103819
*SPRING, ELSET=WK_2473

2.453384e-02
*ELEMENT, TYPE=SPRINGA, ELSET=WK_2474
   95659,    84675,   103820
*SPRING, ELSET=WK_2474

2.453384e-02
*ELEMENT, TYPE=SPRINGA, ELSET=WK_2475
   95660,    84680,   103821
*SPRING, ELSET=WK_2475

2.453384e-02
*ELEMENT, TYPE=SPRINGA, ELSET=WK_2476
   95661,    84685,   103822
*SPRING, ELSET=WK_2476

2.453384e-02
*ELEMENT, TYPE=SPRINGA, ELSET=WK_2477
   95662,    84690,   103823
*SPRING, ELSET=WK_2477

2.453384e-02
*ELEMENT, TYPE=SPRINGA, ELSET=WK_2478
   95663,    84695,   103824
*SPRING, ELSET=WK_2478

2.453384e-02
*ELEMENT, TYPE=SPRINGA, ELSET=WK_2479
   95664,    84700,   103825
*SPRING, ELSET=WK_2479

2.453384e-02
*ELEMENT, TYPE=SPRINGA, ELSET=WK_2480
   95665,    84705,   103826
*SPRING, ELSET=WK_2480

2.453384e-02
*ELEMENT, TYPE=SPRINGA, ELSET=WK_2481
   95666,    84710,   103827
*SPRING, ELSET=WK_2481

2.453384e-02
*ELEMENT, TYPE=SPRINGA, ELSET=WK_2482
   95667,    84715,   103828
*SPRING, ELSET=WK_2482

2.453384e-02
*ELEMENT, TYPE=SPRINGA, ELSET=WK_2483
   95668,    84720,   103829
*SPRING, ELSET=WK_2483

2.453384e-02
*ELEMENT, TYPE=SPRINGA, ELSET=WK_2484
   95669,    84725,   103830
*SPRING, ELSET=WK_2484

2.453384e-02
*ELEMENT, TYPE=SPRINGA, ELSET=WK_2485
   95670,    84730,   103831
*SPRING, ELSET=WK_2485

2.453384e-02
*ELEMENT, TYPE=SPRINGA, ELSET=WK_2486
   95671,    84735,   103832
*SPRING, ELSET=WK_2486

2.453384e-02
*ELEMENT, TYPE=SPRINGA, ELSET=WK_2487
   95672,    84740,   103833
*SPRING, ELSET=WK_2487

2.453384e-02
*ELEMENT, TYPE=SPRINGA, ELSET=WK_2488
   95673,    84745,   103834
*SPRING, ELSET=WK_2488

2.453384e-02
*ELEMENT, TYPE=SPRINGA, ELSET=WK_2489
   95674,    84750,   103835
*SPRING, ELSET=WK_2489

2.453384e-02
*ELEMENT, TYPE=SPRINGA, ELSET=WK_2490
   95675,    84755,   103836
*SPRING, ELSET=WK_2490

2.453384e-02
*ELEMENT, TYPE=SPRINGA, ELSET=WK_2491
   95676,    84760,   103837
*SPRING, ELSET=WK_2491

2.453384e-02
*ELEMENT, TYPE=SPRINGA, ELSET=WK_2492
   95677,    84765,   103838
*SPRING, ELSET=WK_2492

2.453384e-02
*ELEMENT, TYPE=SPRINGA, ELSET=WK_2493
   95678,    84770,   103839
*SPRING, ELSET=WK_2493

2.453384e-02
*ELEMENT, TYPE=SPRINGA, ELSET=WK_2494
   95679,    84775,   103840
*SPRING, ELSET=WK_2494

2.453384e-02
*ELEMENT, TYPE=SPRINGA, ELSET=WK_2495
   95680,    84780,   103841
*SPRING, ELSET=WK_2495

2.453384e-02
*ELEMENT, TYPE=SPRINGA, ELSET=WK_2496
   95681,    84785,   103842
*SPRING, ELSET=WK_2496

2.453384e-02
*ELEMENT, TYPE=SPRINGA, ELSET=WK_2497
   95682,    84790,   103843
*SPRING, ELSET=WK_2497

2.453384e-02
*ELEMENT, TYPE=SPRINGA, ELSET=WK_2498
   95683,    84795,   103844
*SPRING, ELSET=WK_2498

2.453384e-02
*ELEMENT, TYPE=SPRINGA, ELSET=WK_2499
   95684,    84800,   103845
*SPRING, ELSET=WK_2499

2.453384e-02
*ELEMENT, TYPE=SPRINGA, ELSET=WK_2500
   95685,    84805,   103846
*SPRING, ELSET=WK_2500

2.453384e-02
*ELEMENT, TYPE=SPRINGA, ELSET=WK_2501
   95686,    84810,   103847
*SPRING, ELSET=WK_2501

2.453384e-02
*ELEMENT, TYPE=SPRINGA, ELSET=WK_2502
   95687,    84815,   103848
*SPRING, ELSET=WK_2502

2.453384e-02
*ELEMENT, TYPE=SPRINGA, ELSET=WK_2503
   95688,    84820,   103849
*SPRING, ELSET=WK_2503

2.453384e-02
*ELEMENT, TYPE=SPRINGA, ELSET=WK_2504
   95689,    84825,   103850
*SPRING, ELSET=WK_2504

2.453384e-02
*ELEMENT, TYPE=SPRINGA, ELSET=WK_2505
   95690,    84830,   103851
*SPRING, ELSET=WK_2505

2.453384e-02
*ELEMENT, TYPE=SPRINGA, ELSET=WK_2506
   95691,    84835,   103852
*SPRING, ELSET=WK_2506

2.453384e-02
*ELEMENT, TYPE=SPRINGA, ELSET=WK_2507
   95692,    84840,   103853
*SPRING, ELSET=WK_2507

2.453384e-02
*ELEMENT, TYPE=SPRINGA, ELSET=WK_2508
   95693,    84845,   103854
*SPRING, ELSET=WK_2508

2.453384e-02
*ELEMENT, TYPE=SPRINGA, ELSET=WK_2509
   95694,    84850,   103855
*SPRING, ELSET=WK_2509

2.453384e-02
*ELEMENT, TYPE=SPRINGA, ELSET=WK_2510
   95695,    84855,   103856
*SPRING, ELSET=WK_2510

2.453384e-02
*ELEMENT, TYPE=SPRINGA, ELSET=WK_2511
   95696,    84860,   103857
*SPRING, ELSET=WK_2511

2.453384e-02
*ELEMENT, TYPE=SPRINGA, ELSET=WK_2512
   95697,    84865,   103858
*SPRING, ELSET=WK_2512

2.453384e-02
*ELEMENT, TYPE=SPRINGA, ELSET=WK_2513
   95698,    84870,   103859
*SPRING, ELSET=WK_2513

2.453384e-02
*ELEMENT, TYPE=SPRINGA, ELSET=WK_2514
   95699,    84875,   103860
*SPRING, ELSET=WK_2514

2.453384e-02
*ELEMENT, TYPE=SPRINGA, ELSET=WK_2515
   95700,    84880,   103861
*SPRING, ELSET=WK_2515

2.453384e-02
*ELEMENT, TYPE=SPRINGA, ELSET=WK_2516
   95701,    84885,   103862
*SPRING, ELSET=WK_2516

2.453384e-02
*ELEMENT, TYPE=SPRINGA, ELSET=WK_2517
   95702,    84890,   103863
*SPRING, ELSET=WK_2517

2.453384e-02
*ELEMENT, TYPE=SPRINGA, ELSET=WK_2518
   95703,    84895,   103864
*SPRING, ELSET=WK_2518

2.453384e-02
*ELEMENT, TYPE=SPRINGA, ELSET=WK_2519
   95704,    84900,   103865
*SPRING, ELSET=WK_2519

2.453384e-02
*ELEMENT, TYPE=SPRINGA, ELSET=WK_2520
   95705,    84905,   103866
*SPRING, ELSET=WK_2520

2.453384e-02
*ELEMENT, TYPE=SPRINGA, ELSET=WK_2521
   95706,    84910,   103867
*SPRING, ELSET=WK_2521

2.453384e-02
*ELEMENT, TYPE=SPRINGA, ELSET=WK_2522
   95707,    84915,   103868
*SPRING, ELSET=WK_2522

2.453384e-02
*ELEMENT, TYPE=SPRINGA, ELSET=WK_2523
   95708,    84920,   103869
*SPRING, ELSET=WK_2523

2.453384e-02
*ELEMENT, TYPE=SPRINGA, ELSET=WK_2524
   95709,    84925,   103870
*SPRING, ELSET=WK_2524

2.453384e-02
*ELEMENT, TYPE=SPRINGA, ELSET=WK_2525
   95710,    84930,   103871
*SPRING, ELSET=WK_2525

2.453384e-02
*ELEMENT, TYPE=SPRINGA, ELSET=WK_2526
   95711,    84935,   103872
*SPRING, ELSET=WK_2526

2.453384e-02
*ELEMENT, TYPE=SPRINGA, ELSET=WK_2527
   95712,    84940,   103873
*SPRING, ELSET=WK_2527

2.453384e-02
*ELEMENT, TYPE=SPRINGA, ELSET=WK_2528
   95713,    84945,   103874
*SPRING, ELSET=WK_2528

2.453384e-02
*ELEMENT, TYPE=SPRINGA, ELSET=WK_2529
   95714,    84950,   103875
*SPRING, ELSET=WK_2529

2.453384e-02
*ELEMENT, TYPE=SPRINGA, ELSET=WK_2530
   95715,    84955,   103876
*SPRING, ELSET=WK_2530

2.453384e-02
*ELEMENT, TYPE=SPRINGA, ELSET=WK_2531
   95716,    84960,   103877
*SPRING, ELSET=WK_2531

2.453384e-02
*ELEMENT, TYPE=SPRINGA, ELSET=WK_2532
   95717,    84965,   103878
*SPRING, ELSET=WK_2532

2.453384e-02
*ELEMENT, TYPE=SPRINGA, ELSET=WK_2533
   95718,    84970,   103879
*SPRING, ELSET=WK_2533

2.453384e-02
*ELEMENT, TYPE=SPRINGA, ELSET=WK_2534
   95719,    84975,   103880
*SPRING, ELSET=WK_2534

2.453384e-02
*ELEMENT, TYPE=SPRINGA, ELSET=WK_2535
   95720,    84980,   103881
*SPRING, ELSET=WK_2535

2.453384e-02
*ELEMENT, TYPE=SPRINGA, ELSET=WK_2536
   95721,    84985,   103882
*SPRING, ELSET=WK_2536

2.453384e-02
*ELEMENT, TYPE=SPRINGA, ELSET=WK_2537
   95722,    84990,   103883
*SPRING, ELSET=WK_2537

2.453384e-02
*ELEMENT, TYPE=SPRINGA, ELSET=WK_2538
   95723,    84995,   103884
*SPRING, ELSET=WK_2538

2.453384e-02
*ELEMENT, TYPE=SPRINGA, ELSET=WK_2539
   95724,    85000,   103885
*SPRING, ELSET=WK_2539

2.453384e-02
*ELEMENT, TYPE=SPRINGA, ELSET=WK_2540
   95725,    85005,   103886
*SPRING, ELSET=WK_2540

2.453384e-02
*ELEMENT, TYPE=SPRINGA, ELSET=WK_2541
   95726,    85010,   103887
*SPRING, ELSET=WK_2541

2.453384e-02
*ELEMENT, TYPE=SPRINGA, ELSET=WK_2542
   95727,    85015,   103888
*SPRING, ELSET=WK_2542

2.453384e-02
*ELEMENT, TYPE=SPRINGA, ELSET=WK_2543
   95728,    85020,   103889
*SPRING, ELSET=WK_2543

2.453384e-02
*ELEMENT, TYPE=SPRINGA, ELSET=WK_2544
   95729,    85025,   103890
*SPRING, ELSET=WK_2544

2.453384e-02
*ELEMENT, TYPE=SPRINGA, ELSET=WK_2545
   95730,    85030,   103891
*SPRING, ELSET=WK_2545

2.453384e-02
*ELEMENT, TYPE=SPRINGA, ELSET=WK_2546
   95731,    85035,   103892
*SPRING, ELSET=WK_2546

2.453384e-02
*ELEMENT, TYPE=SPRINGA, ELSET=WK_2547
   95732,    85040,   103893
*SPRING, ELSET=WK_2547

2.453384e-02
*ELEMENT, TYPE=SPRINGA, ELSET=WK_2548
   95733,    85045,   103894
*SPRING, ELSET=WK_2548

2.453384e-02
*ELEMENT, TYPE=SPRINGA, ELSET=WK_2549
   95734,    85050,   103895
*SPRING, ELSET=WK_2549

2.453384e-02
*ELEMENT, TYPE=SPRINGA, ELSET=WK_2550
   95735,    85055,   103896
*SPRING, ELSET=WK_2550

2.453384e-02
*ELEMENT, TYPE=SPRINGA, ELSET=WK_2551
   95736,    85060,   103897
*SPRING, ELSET=WK_2551

2.453384e-02
*ELEMENT, TYPE=SPRINGA, ELSET=WK_2552
   95737,    85065,   103898
*SPRING, ELSET=WK_2552

2.453384e-02
*ELEMENT, TYPE=SPRINGA, ELSET=WK_2553
   95738,    85070,   103899
*SPRING, ELSET=WK_2553

2.453384e-02
*ELEMENT, TYPE=SPRINGA, ELSET=WK_2554
   95739,    85075,   103900
*SPRING, ELSET=WK_2554

2.453384e-02
*ELEMENT, TYPE=SPRINGA, ELSET=WK_2555
   95740,    85080,   103901
*SPRING, ELSET=WK_2555

2.453384e-02
*ELEMENT, TYPE=SPRINGA, ELSET=WK_2556
   95741,    85085,   103902
*SPRING, ELSET=WK_2556

2.453384e-02
*ELEMENT, TYPE=SPRINGA, ELSET=WK_2557
   95742,    85090,   103903
*SPRING, ELSET=WK_2557

2.453384e-02
*ELEMENT, TYPE=SPRINGA, ELSET=WK_2558
   95743,    85095,   103904
*SPRING, ELSET=WK_2558

2.453384e-02
*ELEMENT, TYPE=SPRINGA, ELSET=WK_2559
   95744,    85100,   103905
*SPRING, ELSET=WK_2559

2.453384e-02
*ELEMENT, TYPE=SPRINGA, ELSET=WK_2560
   95745,    85105,   103906
*SPRING, ELSET=WK_2560

2.453384e-02
*ELEMENT, TYPE=SPRINGA, ELSET=WK_2561
   95746,    85110,   103907
*SPRING, ELSET=WK_2561

2.453384e-02
*ELEMENT, TYPE=SPRINGA, ELSET=WK_2562
   95747,    85115,   103908
*SPRING, ELSET=WK_2562

2.453384e-02
*ELEMENT, TYPE=SPRINGA, ELSET=WK_2563
   95748,    85120,   103909
*SPRING, ELSET=WK_2563

2.453384e-02
*ELEMENT, TYPE=SPRINGA, ELSET=WK_2564
   95749,    85125,   103910
*SPRING, ELSET=WK_2564

2.453384e-02
*ELEMENT, TYPE=SPRINGA, ELSET=WK_2565
   95750,    85130,   103911
*SPRING, ELSET=WK_2565

2.453384e-02
*ELEMENT, TYPE=SPRINGA, ELSET=WK_2566
   95751,    85135,   103912
*SPRING, ELSET=WK_2566

2.453384e-02
*ELEMENT, TYPE=SPRINGA, ELSET=WK_2567
   95752,    85140,   103913
*SPRING, ELSET=WK_2567

2.453384e-02
*ELEMENT, TYPE=SPRINGA, ELSET=WK_2568
   95753,    85145,   103914
*SPRING, ELSET=WK_2568

2.453384e-02
*ELEMENT, TYPE=SPRINGA, ELSET=WK_2569
   95754,    85150,   103915
*SPRING, ELSET=WK_2569

2.453384e-02
*ELEMENT, TYPE=SPRINGA, ELSET=WK_2570
   95755,    85155,   103916
*SPRING, ELSET=WK_2570

2.453384e-02
*ELEMENT, TYPE=SPRINGA, ELSET=WK_2571
   95756,    85160,   103917
*SPRING, ELSET=WK_2571

2.453384e-02
*ELEMENT, TYPE=SPRINGA, ELSET=WK_2572
   95757,    85165,   103918
*SPRING, ELSET=WK_2572

2.453384e-02
*ELEMENT, TYPE=SPRINGA, ELSET=WK_2573
   95758,    85170,   103919
*SPRING, ELSET=WK_2573

2.453384e-02
*ELEMENT, TYPE=SPRINGA, ELSET=WK_2574
   95759,    85175,   103920
*SPRING, ELSET=WK_2574

2.453384e-02
*ELEMENT, TYPE=SPRINGA, ELSET=WK_2575
   95760,    85180,   103921
*SPRING, ELSET=WK_2575

2.453384e-02
*ELEMENT, TYPE=SPRINGA, ELSET=WK_2576
   95761,    85185,   103922
*SPRING, ELSET=WK_2576

2.453384e-02
*ELEMENT, TYPE=SPRINGA, ELSET=WK_2577
   95762,    85190,   103923
*SPRING, ELSET=WK_2577

2.453384e-02
*ELEMENT, TYPE=SPRINGA, ELSET=WK_2578
   95763,    85195,   103924
*SPRING, ELSET=WK_2578

2.453384e-02
*ELEMENT, TYPE=SPRINGA, ELSET=WK_2579
   95764,    85200,   103925
*SPRING, ELSET=WK_2579

2.453384e-02
*ELEMENT, TYPE=SPRINGA, ELSET=WK_2580
   95765,    85205,   103926
*SPRING, ELSET=WK_2580

2.453384e-02
*ELEMENT, TYPE=SPRINGA, ELSET=WK_2581
   95766,    85210,   103927
*SPRING, ELSET=WK_2581

2.453384e-02
*ELEMENT, TYPE=SPRINGA, ELSET=WK_2582
   95767,    85215,   103928
*SPRING, ELSET=WK_2582

2.453384e-02
*ELEMENT, TYPE=SPRINGA, ELSET=WK_2583
   95768,    85220,   103929
*SPRING, ELSET=WK_2583

2.453384e-02
*ELEMENT, TYPE=SPRINGA, ELSET=WK_2584
   95769,    85225,   103930
*SPRING, ELSET=WK_2584

2.453384e-02
*ELEMENT, TYPE=SPRINGA, ELSET=WK_2585
   95770,    85230,   103931
*SPRING, ELSET=WK_2585

2.453384e-02
*ELEMENT, TYPE=SPRINGA, ELSET=WK_2586
   95771,    85235,   103932
*SPRING, ELSET=WK_2586

2.453384e-02
*ELEMENT, TYPE=SPRINGA, ELSET=WK_2587
   95772,    85240,   103933
*SPRING, ELSET=WK_2587

2.453384e-02
*ELEMENT, TYPE=SPRINGA, ELSET=WK_2588
   95773,    85245,   103934
*SPRING, ELSET=WK_2588

2.453384e-02
*ELEMENT, TYPE=SPRINGA, ELSET=WK_2589
   95774,    85250,   103935
*SPRING, ELSET=WK_2589

2.453384e-02
*ELEMENT, TYPE=SPRINGA, ELSET=WK_2590
   95775,    85255,   103936
*SPRING, ELSET=WK_2590

2.453384e-02
*ELEMENT, TYPE=SPRINGA, ELSET=WK_2591
   95776,    85260,   103937
*SPRING, ELSET=WK_2591

2.453384e-02
*ELEMENT, TYPE=SPRINGA, ELSET=WK_2592
   95777,    85265,   103938
*SPRING, ELSET=WK_2592

2.453384e-02
*ELEMENT, TYPE=SPRINGA, ELSET=WK_2593
   95778,    85270,   103939
*SPRING, ELSET=WK_2593

2.453384e-02
*ELEMENT, TYPE=SPRINGA, ELSET=WK_2594
   95779,    85275,   103940
*SPRING, ELSET=WK_2594

2.453384e-02
*ELEMENT, TYPE=SPRINGA, ELSET=WK_2595
   95780,    85280,   103941
*SPRING, ELSET=WK_2595

2.453384e-02
*ELEMENT, TYPE=SPRINGA, ELSET=WK_2596
   95781,    85285,   103942
*SPRING, ELSET=WK_2596

2.453384e-02
*ELEMENT, TYPE=SPRINGA, ELSET=WK_2597
   95782,    85290,   103943
*SPRING, ELSET=WK_2597

2.453384e-02
*ELEMENT, TYPE=SPRINGA, ELSET=WK_2598
   95783,    85295,   103944
*SPRING, ELSET=WK_2598

2.453384e-02
*ELEMENT, TYPE=SPRINGA, ELSET=WK_2599
   95784,    85300,   103945
*SPRING, ELSET=WK_2599

2.453384e-02
*ELEMENT, TYPE=SPRINGA, ELSET=WK_2600
   95785,    85305,   103946
*SPRING, ELSET=WK_2600

2.453384e-02
*ELEMENT, TYPE=SPRINGA, ELSET=WK_2601
   95786,    85310,   103947
*SPRING, ELSET=WK_2601

2.453384e-02
*ELEMENT, TYPE=SPRINGA, ELSET=WK_2602
   95787,    85315,   103948
*SPRING, ELSET=WK_2602

2.453384e-02
*ELEMENT, TYPE=SPRINGA, ELSET=WK_2603
   95788,    85320,   103949
*SPRING, ELSET=WK_2603

2.453384e-02
*ELEMENT, TYPE=SPRINGA, ELSET=WK_2604
   95789,    85325,   103950
*SPRING, ELSET=WK_2604

2.453384e-02
*ELEMENT, TYPE=SPRINGA, ELSET=WK_2605
   95790,    85330,   103951
*SPRING, ELSET=WK_2605

2.453384e-02
*ELEMENT, TYPE=SPRINGA, ELSET=WK_2606
   95791,    85335,   103952
*SPRING, ELSET=WK_2606

2.453384e-02
*ELEMENT, TYPE=SPRINGA, ELSET=WK_2607
   95792,    85340,   103953
*SPRING, ELSET=WK_2607

2.453384e-02
*ELEMENT, TYPE=SPRINGA, ELSET=WK_2608
   95793,    85345,   103954
*SPRING, ELSET=WK_2608

2.453384e-02
*ELEMENT, TYPE=SPRINGA, ELSET=WK_2609
   95794,    85350,   103955
*SPRING, ELSET=WK_2609

2.453384e-02
*ELEMENT, TYPE=SPRINGA, ELSET=WK_2610
   95795,    85355,   103956
*SPRING, ELSET=WK_2610

2.453384e-02
*ELEMENT, TYPE=SPRINGA, ELSET=WK_2611
   95796,    85360,   103957
*SPRING, ELSET=WK_2611

2.453384e-02
*ELEMENT, TYPE=SPRINGA, ELSET=WK_2612
   95797,    85365,   103958
*SPRING, ELSET=WK_2612

2.453384e-02
*ELEMENT, TYPE=SPRINGA, ELSET=WK_2613
   95798,    85370,   103959
*SPRING, ELSET=WK_2613

2.453384e-02
*ELEMENT, TYPE=SPRINGA, ELSET=WK_2614
   95799,    85375,   103960
*SPRING, ELSET=WK_2614

2.453384e-02
*ELEMENT, TYPE=SPRINGA, ELSET=WK_2615
   95800,    85380,   103961
*SPRING, ELSET=WK_2615

2.453384e-02
*ELEMENT, TYPE=SPRINGA, ELSET=WK_2616
   95801,    85385,   103962
*SPRING, ELSET=WK_2616

2.453384e-02
*ELEMENT, TYPE=SPRINGA, ELSET=WK_2617
   95802,    85390,   103963
*SPRING, ELSET=WK_2617

2.453384e-02
*ELEMENT, TYPE=SPRINGA, ELSET=WK_2618
   95803,    85395,   103964
*SPRING, ELSET=WK_2618

2.453384e-02
*ELEMENT, TYPE=SPRINGA, ELSET=WK_2619
   95804,    85400,   103965
*SPRING, ELSET=WK_2619

2.453384e-02
*ELEMENT, TYPE=SPRINGA, ELSET=WK_2620
   95805,    85405,   103966
*SPRING, ELSET=WK_2620

2.453384e-02
*ELEMENT, TYPE=SPRINGA, ELSET=WK_2621
   95806,    85410,   103967
*SPRING, ELSET=WK_2621

2.453384e-02
*ELEMENT, TYPE=SPRINGA, ELSET=WK_2622
   95807,    85415,   103968
*SPRING, ELSET=WK_2622

2.453384e-02
*ELEMENT, TYPE=SPRINGA, ELSET=WK_2623
   95808,    85420,   103969
*SPRING, ELSET=WK_2623

2.453384e-02
*ELEMENT, TYPE=SPRINGA, ELSET=WK_2624
   95809,    85425,   103970
*SPRING, ELSET=WK_2624

2.453384e-02
*ELEMENT, TYPE=SPRINGA, ELSET=WK_2625
   95810,    85430,   103971
*SPRING, ELSET=WK_2625

2.453384e-02
*ELEMENT, TYPE=SPRINGA, ELSET=WK_2626
   95811,    85435,   103972
*SPRING, ELSET=WK_2626

2.453384e-02
*ELEMENT, TYPE=SPRINGA, ELSET=WK_2627
   95812,    85440,   103973
*SPRING, ELSET=WK_2627

2.453384e-02
*ELEMENT, TYPE=SPRINGA, ELSET=WK_2628
   95813,    85445,   103974
*SPRING, ELSET=WK_2628

2.453384e-02
*ELEMENT, TYPE=SPRINGA, ELSET=WK_2629
   95814,    85450,   103975
*SPRING, ELSET=WK_2629

2.453384e-02
*ELEMENT, TYPE=SPRINGA, ELSET=WK_2630
   95815,    85455,   103976
*SPRING, ELSET=WK_2630

2.453384e-02
*ELEMENT, TYPE=SPRINGA, ELSET=WK_2631
   95816,    85460,   103977
*SPRING, ELSET=WK_2631

2.453384e-02
*ELEMENT, TYPE=SPRINGA, ELSET=WK_2632
   95817,    85465,   103978
*SPRING, ELSET=WK_2632

2.453384e-02
*ELEMENT, TYPE=SPRINGA, ELSET=WK_2633
   95818,    85470,   103979
*SPRING, ELSET=WK_2633

2.453384e-02
*ELEMENT, TYPE=SPRINGA, ELSET=WK_2634
   95819,    85475,   103980
*SPRING, ELSET=WK_2634

2.453384e-02
*ELEMENT, TYPE=SPRINGA, ELSET=WK_2635
   95820,    85480,   103981
*SPRING, ELSET=WK_2635

2.453384e-02
*ELEMENT, TYPE=SPRINGA, ELSET=WK_2636
   95821,    85485,   103982
*SPRING, ELSET=WK_2636

2.453384e-02
*ELEMENT, TYPE=SPRINGA, ELSET=WK_2637
   95822,    85490,   103983
*SPRING, ELSET=WK_2637

2.453384e-02
*ELEMENT, TYPE=SPRINGA, ELSET=WK_2638
   95823,    85495,   103984
*SPRING, ELSET=WK_2638

2.453384e-02
*ELEMENT, TYPE=SPRINGA, ELSET=WK_2639
   95824,    85500,   103985
*SPRING, ELSET=WK_2639

2.453384e-02
*ELEMENT, TYPE=SPRINGA, ELSET=WK_2640
   95825,    85505,   103986
*SPRING, ELSET=WK_2640

2.453384e-02
*ELEMENT, TYPE=SPRINGA, ELSET=WK_2641
   95826,    85510,   103987
*SPRING, ELSET=WK_2641

2.453384e-02
*ELEMENT, TYPE=SPRINGA, ELSET=WK_2642
   95827,    85515,   103988
*SPRING, ELSET=WK_2642

2.453384e-02
*ELEMENT, TYPE=SPRINGA, ELSET=WK_2643
   95828,    85520,   103989
*SPRING, ELSET=WK_2643

2.453384e-02
*ELEMENT, TYPE=SPRINGA, ELSET=WK_2644
   95829,    85525,   103990
*SPRING, ELSET=WK_2644

2.453384e-02
*ELEMENT, TYPE=SPRINGA, ELSET=WK_2645
   95830,    85530,   103991
*SPRING, ELSET=WK_2645

2.453384e-02
*ELEMENT, TYPE=SPRINGA, ELSET=WK_2646
   95831,    85535,   103992
*SPRING, ELSET=WK_2646

2.453384e-02
*ELEMENT, TYPE=SPRINGA, ELSET=WK_2647
   95832,    85540,   103993
*SPRING, ELSET=WK_2647

2.453384e-02
*ELEMENT, TYPE=SPRINGA, ELSET=WK_2648
   95833,    85545,   103994
*SPRING, ELSET=WK_2648

2.453384e-02
*ELEMENT, TYPE=SPRINGA, ELSET=WK_2649
   95834,    85550,   103995
*SPRING, ELSET=WK_2649

2.453384e-02
*ELEMENT, TYPE=SPRINGA, ELSET=WK_2650
   95835,    85555,   103996
*SPRING, ELSET=WK_2650

2.453384e-02
*ELEMENT, TYPE=SPRINGA, ELSET=WK_2651
   95836,    85560,   103997
*SPRING, ELSET=WK_2651

2.453384e-02
*ELEMENT, TYPE=SPRINGA, ELSET=WK_2652
   95837,    85565,   103998
*SPRING, ELSET=WK_2652

2.453384e-02
*ELEMENT, TYPE=SPRINGA, ELSET=WK_2653
   95838,    85570,   103999
*SPRING, ELSET=WK_2653

2.453384e-02
*ELEMENT, TYPE=SPRINGA, ELSET=WK_2654
   95839,    85575,   104000
*SPRING, ELSET=WK_2654

2.453384e-02
*ELEMENT, TYPE=SPRINGA, ELSET=WK_2655
   95840,    85580,   104001
*SPRING, ELSET=WK_2655

2.453384e-02
*ELEMENT, TYPE=SPRINGA, ELSET=WK_2656
   95841,    85585,   104002
*SPRING, ELSET=WK_2656

2.453384e-02
*ELEMENT, TYPE=SPRINGA, ELSET=WK_2657
   95842,    85590,   104003
*SPRING, ELSET=WK_2657

2.453384e-02
*ELEMENT, TYPE=SPRINGA, ELSET=WK_2658
   95843,    85595,   104004
*SPRING, ELSET=WK_2658

2.453384e-02
*ELEMENT, TYPE=SPRINGA, ELSET=WK_2659
   95844,    85600,   104005
*SPRING, ELSET=WK_2659

2.453384e-02
*ELEMENT, TYPE=SPRINGA, ELSET=WK_2660
   95845,    85605,   104006
*SPRING, ELSET=WK_2660

2.453384e-02
*ELEMENT, TYPE=SPRINGA, ELSET=WK_2661
   95846,    85610,   104007
*SPRING, ELSET=WK_2661

2.453384e-02
*ELEMENT, TYPE=SPRINGA, ELSET=WK_2662
   95847,    85615,   104008
*SPRING, ELSET=WK_2662

2.453384e-02
*ELEMENT, TYPE=SPRINGA, ELSET=WK_2663
   95848,    85620,   104009
*SPRING, ELSET=WK_2663

2.453384e-02
*ELEMENT, TYPE=SPRINGA, ELSET=WK_2664
   95849,    85625,   104010
*SPRING, ELSET=WK_2664

2.453384e-02
*ELEMENT, TYPE=SPRINGA, ELSET=WK_2665
   95850,    85630,   104011
*SPRING, ELSET=WK_2665

2.453384e-02
*ELEMENT, TYPE=SPRINGA, ELSET=WK_2666
   95851,    85635,   104012
*SPRING, ELSET=WK_2666

2.453384e-02
*ELEMENT, TYPE=SPRINGA, ELSET=WK_2667
   95852,    85640,   104013
*SPRING, ELSET=WK_2667

2.453384e-02
*ELEMENT, TYPE=SPRINGA, ELSET=WK_2668
   95853,    85645,   104014
*SPRING, ELSET=WK_2668

2.453384e-02
*ELEMENT, TYPE=SPRINGA, ELSET=WK_2669
   95854,    85650,   104015
*SPRING, ELSET=WK_2669

2.453384e-02
*ELEMENT, TYPE=SPRINGA, ELSET=WK_2670
   95855,    85655,   104016
*SPRING, ELSET=WK_2670

2.453384e-02
*ELEMENT, TYPE=SPRINGA, ELSET=WK_2671
   95856,    85660,   104017
*SPRING, ELSET=WK_2671

2.453384e-02
*ELEMENT, TYPE=SPRINGA, ELSET=WK_2672
   95857,    85665,   104018
*SPRING, ELSET=WK_2672

2.453384e-02
*ELEMENT, TYPE=SPRINGA, ELSET=WK_2673
   95858,    85670,   104019
*SPRING, ELSET=WK_2673

2.453384e-02
*ELEMENT, TYPE=SPRINGA, ELSET=WK_2674
   95859,    85675,   104020
*SPRING, ELSET=WK_2674

2.453384e-02
*ELEMENT, TYPE=SPRINGA, ELSET=WK_2675
   95860,    85680,   104021
*SPRING, ELSET=WK_2675

2.453384e-02
*ELEMENT, TYPE=SPRINGA, ELSET=WK_2676
   95861,    85685,   104022
*SPRING, ELSET=WK_2676

2.453384e-02
*ELEMENT, TYPE=SPRINGA, ELSET=WK_2677
   95862,    85690,   104023
*SPRING, ELSET=WK_2677

2.453384e-02
*ELEMENT, TYPE=SPRINGA, ELSET=WK_2678
   95863,    85695,   104024
*SPRING, ELSET=WK_2678

2.453384e-02
*ELEMENT, TYPE=SPRINGA, ELSET=WK_2679
   95864,    85700,   104025
*SPRING, ELSET=WK_2679

2.453384e-02
*ELEMENT, TYPE=SPRINGA, ELSET=WK_2680
   95865,    85705,   104026
*SPRING, ELSET=WK_2680

2.453384e-02
*ELEMENT, TYPE=SPRINGA, ELSET=WK_2681
   95866,    85710,   104027
*SPRING, ELSET=WK_2681

2.453384e-02
*ELEMENT, TYPE=SPRINGA, ELSET=WK_2682
   95867,    85715,   104028
*SPRING, ELSET=WK_2682

2.453384e-02
*ELEMENT, TYPE=SPRINGA, ELSET=WK_2683
   95868,    85720,   104029
*SPRING, ELSET=WK_2683

2.453384e-02
*ELEMENT, TYPE=SPRINGA, ELSET=WK_2684
   95869,    85725,   104030
*SPRING, ELSET=WK_2684

2.453384e-02
*ELEMENT, TYPE=SPRINGA, ELSET=WK_2685
   95870,    85730,   104031
*SPRING, ELSET=WK_2685

2.453384e-02
*ELEMENT, TYPE=SPRINGA, ELSET=WK_2686
   95871,    85735,   104032
*SPRING, ELSET=WK_2686

2.453384e-02
*ELEMENT, TYPE=SPRINGA, ELSET=WK_2687
   95872,    85740,   104033
*SPRING, ELSET=WK_2687

2.453384e-02
*ELEMENT, TYPE=SPRINGA, ELSET=WK_2688
   95873,    85745,   104034
*SPRING, ELSET=WK_2688

2.453384e-02
*ELEMENT, TYPE=SPRINGA, ELSET=WK_2689
   95874,    85750,   104035
*SPRING, ELSET=WK_2689

2.453384e-02
*ELEMENT, TYPE=SPRINGA, ELSET=WK_2690
   95875,    85755,   104036
*SPRING, ELSET=WK_2690

2.453384e-02
*ELEMENT, TYPE=SPRINGA, ELSET=WK_2691
   95876,    85760,   104037
*SPRING, ELSET=WK_2691

2.453384e-02
*ELEMENT, TYPE=SPRINGA, ELSET=WK_2692
   95877,    85765,   104038
*SPRING, ELSET=WK_2692

2.453384e-02
*ELEMENT, TYPE=SPRINGA, ELSET=WK_2693
   95878,    85770,   104039
*SPRING, ELSET=WK_2693

2.453384e-02
*ELEMENT, TYPE=SPRINGA, ELSET=WK_2694
   95879,    85775,   104040
*SPRING, ELSET=WK_2694

2.453384e-02
*ELEMENT, TYPE=SPRINGA, ELSET=WK_2695
   95880,    85780,   104041
*SPRING, ELSET=WK_2695

2.453384e-02
*ELEMENT, TYPE=SPRINGA, ELSET=WK_2696
   95881,    85785,   104042
*SPRING, ELSET=WK_2696

2.453384e-02
*ELEMENT, TYPE=SPRINGA, ELSET=WK_2697
   95882,    85790,   104043
*SPRING, ELSET=WK_2697

2.453384e-02
*ELEMENT, TYPE=SPRINGA, ELSET=WK_2698
   95883,    85795,   104044
*SPRING, ELSET=WK_2698

2.453384e-02
*ELEMENT, TYPE=SPRINGA, ELSET=WK_2699
   95884,    85800,   104045
*SPRING, ELSET=WK_2699

2.453384e-02
*ELEMENT, TYPE=SPRINGA, ELSET=WK_2700
   95885,    85805,   104046
*SPRING, ELSET=WK_2700

2.453384e-02
*ELEMENT, TYPE=SPRINGA, ELSET=WK_2701
   95886,    85810,   104047
*SPRING, ELSET=WK_2701

2.453384e-02
*ELEMENT, TYPE=SPRINGA, ELSET=WK_2702
   95887,    85815,   104048
*SPRING, ELSET=WK_2702

2.453384e-02
*ELEMENT, TYPE=SPRINGA, ELSET=WK_2703
   95888,    85820,   104049
*SPRING, ELSET=WK_2703

2.453384e-02
*ELEMENT, TYPE=SPRINGA, ELSET=WK_2704
   95889,    85825,   104050
*SPRING, ELSET=WK_2704

2.453384e-02
*ELEMENT, TYPE=SPRINGA, ELSET=WK_2705
   95890,    85830,   104051
*SPRING, ELSET=WK_2705

2.453384e-02
*ELEMENT, TYPE=SPRINGA, ELSET=WK_2706
   95891,    85835,   104052
*SPRING, ELSET=WK_2706

2.453384e-02
*ELEMENT, TYPE=SPRINGA, ELSET=WK_2707
   95892,    85840,   104053
*SPRING, ELSET=WK_2707

2.453384e-02
*ELEMENT, TYPE=SPRINGA, ELSET=WK_2708
   95893,    85845,   104054
*SPRING, ELSET=WK_2708

2.453384e-02
*ELEMENT, TYPE=SPRINGA, ELSET=WK_2709
   95894,    85850,   104055
*SPRING, ELSET=WK_2709

2.453384e-02
*ELEMENT, TYPE=SPRINGA, ELSET=WK_2710
   95895,    85855,   104056
*SPRING, ELSET=WK_2710

2.453384e-02
*ELEMENT, TYPE=SPRINGA, ELSET=WK_2711
   95896,    85860,   104057
*SPRING, ELSET=WK_2711

2.453384e-02
*ELEMENT, TYPE=SPRINGA, ELSET=WK_2712
   95897,    85865,   104058
*SPRING, ELSET=WK_2712

2.453384e-02
*ELEMENT, TYPE=SPRINGA, ELSET=WK_2713
   95898,    85870,   104059
*SPRING, ELSET=WK_2713

2.453384e-02
*ELEMENT, TYPE=SPRINGA, ELSET=WK_2714
   95899,    85875,   104060
*SPRING, ELSET=WK_2714

2.453384e-02
*ELEMENT, TYPE=SPRINGA, ELSET=WK_2715
   95900,    85880,   104061
*SPRING, ELSET=WK_2715

2.453384e-02
*ELEMENT, TYPE=SPRINGA, ELSET=WK_2716
   95901,    85885,   104062
*SPRING, ELSET=WK_2716

2.453384e-02
*ELEMENT, TYPE=SPRINGA, ELSET=WK_2717
   95902,    85890,   104063
*SPRING, ELSET=WK_2717

2.453384e-02
*ELEMENT, TYPE=SPRINGA, ELSET=WK_2718
   95903,    85895,   104064
*SPRING, ELSET=WK_2718

2.453384e-02
*ELEMENT, TYPE=SPRINGA, ELSET=WK_2719
   95904,    85900,   104065
*SPRING, ELSET=WK_2719

2.453384e-02
*ELEMENT, TYPE=SPRINGA, ELSET=WK_2720
   95905,    85905,   104066
*SPRING, ELSET=WK_2720

2.453384e-02
*ELEMENT, TYPE=SPRINGA, ELSET=WK_2721
   95906,    85910,   104067
*SPRING, ELSET=WK_2721

2.453384e-02
*ELEMENT, TYPE=SPRINGA, ELSET=WK_2722
   95907,    85915,   104068
*SPRING, ELSET=WK_2722

2.453384e-02
*ELEMENT, TYPE=SPRINGA, ELSET=WK_2723
   95908,    85920,   104069
*SPRING, ELSET=WK_2723

2.453384e-02
*ELEMENT, TYPE=SPRINGA, ELSET=WK_2724
   95909,    85925,   104070
*SPRING, ELSET=WK_2724

2.453384e-02
*ELEMENT, TYPE=SPRINGA, ELSET=WK_2725
   95910,    85930,   104071
*SPRING, ELSET=WK_2725

2.453384e-02
*ELEMENT, TYPE=SPRINGA, ELSET=WK_2726
   95911,    85935,   104072
*SPRING, ELSET=WK_2726

2.453384e-02
*ELEMENT, TYPE=SPRINGA, ELSET=WK_2727
   95912,    85940,   104073
*SPRING, ELSET=WK_2727

2.453384e-02
*ELEMENT, TYPE=SPRINGA, ELSET=WK_2728
   95913,    85945,   104074
*SPRING, ELSET=WK_2728

2.453384e-02
*ELEMENT, TYPE=SPRINGA, ELSET=WK_2729
   95914,    85950,   104075
*SPRING, ELSET=WK_2729

2.453384e-02
*ELEMENT, TYPE=SPRINGA, ELSET=WK_2730
   95915,    85955,   104076
*SPRING, ELSET=WK_2730

2.453384e-02
*ELEMENT, TYPE=SPRINGA, ELSET=WK_2731
   95916,    85960,   104077
*SPRING, ELSET=WK_2731

2.453384e-02
*ELEMENT, TYPE=SPRINGA, ELSET=WK_2732
   95917,    85965,   104078
*SPRING, ELSET=WK_2732

2.453384e-02
*ELEMENT, TYPE=SPRINGA, ELSET=WK_2733
   95918,    85970,   104079
*SPRING, ELSET=WK_2733

2.453384e-02
*ELEMENT, TYPE=SPRINGA, ELSET=WK_2734
   95919,    85975,   104080
*SPRING, ELSET=WK_2734

2.453384e-02
*ELEMENT, TYPE=SPRINGA, ELSET=WK_2735
   95920,    85980,   104081
*SPRING, ELSET=WK_2735

2.453384e-02
*ELEMENT, TYPE=SPRINGA, ELSET=WK_2736
   95921,    85985,   104082
*SPRING, ELSET=WK_2736

2.453384e-02
*ELEMENT, TYPE=SPRINGA, ELSET=WK_2737
   95922,    85990,   104083
*SPRING, ELSET=WK_2737

2.453384e-02
*ELEMENT, TYPE=SPRINGA, ELSET=WK_2738
   95923,    85995,   104084
*SPRING, ELSET=WK_2738

2.453384e-02
*ELEMENT, TYPE=SPRINGA, ELSET=WK_2739
   95924,    86000,   104085
*SPRING, ELSET=WK_2739

2.453384e-02
*ELEMENT, TYPE=SPRINGA, ELSET=WK_2740
   95925,    86005,   104086
*SPRING, ELSET=WK_2740

2.453384e-02
*ELEMENT, TYPE=SPRINGA, ELSET=WK_2741
   95926,    86010,   104087
*SPRING, ELSET=WK_2741

2.453384e-02
*ELEMENT, TYPE=SPRINGA, ELSET=WK_2742
   95927,    86015,   104088
*SPRING, ELSET=WK_2742

2.453384e-02
*ELEMENT, TYPE=SPRINGA, ELSET=WK_2743
   95928,    86020,   104089
*SPRING, ELSET=WK_2743

2.453384e-02
*ELEMENT, TYPE=SPRINGA, ELSET=WK_2744
   95929,    86025,   104090
*SPRING, ELSET=WK_2744

2.453384e-02
*ELEMENT, TYPE=SPRINGA, ELSET=WK_2745
   95930,    86030,   104091
*SPRING, ELSET=WK_2745

2.453384e-02
*ELEMENT, TYPE=SPRINGA, ELSET=WK_2746
   95931,    86035,   104092
*SPRING, ELSET=WK_2746

2.453384e-02
*ELEMENT, TYPE=SPRINGA, ELSET=WK_2747
   95932,    86040,   104093
*SPRING, ELSET=WK_2747

2.453384e-02
*ELEMENT, TYPE=SPRINGA, ELSET=WK_2748
   95933,    86045,   104094
*SPRING, ELSET=WK_2748

2.453384e-02
*ELEMENT, TYPE=SPRINGA, ELSET=WK_2749
   95934,    86050,   104095
*SPRING, ELSET=WK_2749

2.453384e-02
*ELEMENT, TYPE=SPRINGA, ELSET=WK_2750
   95935,    86055,   104096
*SPRING, ELSET=WK_2750

2.453384e-02
*ELEMENT, TYPE=SPRINGA, ELSET=WK_2751
   95936,    86060,   104097
*SPRING, ELSET=WK_2751

2.453384e-02
*ELEMENT, TYPE=SPRINGA, ELSET=WK_2752
   95937,    86065,   104098
*SPRING, ELSET=WK_2752

2.453384e-02
*ELEMENT, TYPE=SPRINGA, ELSET=WK_2753
   95938,    86070,   104099
*SPRING, ELSET=WK_2753

2.453384e-02
*ELEMENT, TYPE=SPRINGA, ELSET=WK_2754
   95939,    86075,   104100
*SPRING, ELSET=WK_2754

2.453384e-02
*ELEMENT, TYPE=SPRINGA, ELSET=WK_2755
   95940,    86080,   104101
*SPRING, ELSET=WK_2755

2.453384e-02
*ELEMENT, TYPE=SPRINGA, ELSET=WK_2756
   95941,    86085,   104102
*SPRING, ELSET=WK_2756

2.453384e-02
*ELEMENT, TYPE=SPRINGA, ELSET=WK_2757
   95942,    86090,   104103
*SPRING, ELSET=WK_2757

2.453384e-02
*ELEMENT, TYPE=SPRINGA, ELSET=WK_2758
   95943,    86095,   104104
*SPRING, ELSET=WK_2758

2.453384e-02
*ELEMENT, TYPE=SPRINGA, ELSET=WK_2759
   95944,    86100,   104105
*SPRING, ELSET=WK_2759

2.453384e-02
*ELEMENT, TYPE=SPRINGA, ELSET=WK_2760
   95945,    86105,   104106
*SPRING, ELSET=WK_2760

2.453384e-02
*ELEMENT, TYPE=SPRINGA, ELSET=WK_2761
   95946,    86110,   104107
*SPRING, ELSET=WK_2761

2.453384e-02
*ELEMENT, TYPE=SPRINGA, ELSET=WK_2762
   95947,    86115,   104108
*SPRING, ELSET=WK_2762

2.453384e-02
*ELEMENT, TYPE=SPRINGA, ELSET=WK_2763
   95948,    86120,   104109
*SPRING, ELSET=WK_2763

2.453384e-02
*ELEMENT, TYPE=SPRINGA, ELSET=WK_2764
   95949,    86125,   104110
*SPRING, ELSET=WK_2764

2.453384e-02
*ELEMENT, TYPE=SPRINGA, ELSET=WK_2765
   95950,    86130,   104111
*SPRING, ELSET=WK_2765

2.453384e-02
*ELEMENT, TYPE=SPRINGA, ELSET=WK_2766
   95951,    86135,   104112
*SPRING, ELSET=WK_2766

2.453384e-02
*ELEMENT, TYPE=SPRINGA, ELSET=WK_2767
   95952,    86140,   104113
*SPRING, ELSET=WK_2767

2.453384e-02
*ELEMENT, TYPE=SPRINGA, ELSET=WK_2768
   95953,    86145,   104114
*SPRING, ELSET=WK_2768

2.453384e-02
*ELEMENT, TYPE=SPRINGA, ELSET=WK_2769
   95954,    86150,   104115
*SPRING, ELSET=WK_2769

2.453384e-02
*ELEMENT, TYPE=SPRINGA, ELSET=WK_2770
   95955,    86155,   104116
*SPRING, ELSET=WK_2770

2.453384e-02
*ELEMENT, TYPE=SPRINGA, ELSET=WK_2771
   95956,    86160,   104117
*SPRING, ELSET=WK_2771

2.453384e-02
*ELEMENT, TYPE=SPRINGA, ELSET=WK_2772
   95957,    86165,   104118
*SPRING, ELSET=WK_2772

2.453384e-02
*ELEMENT, TYPE=SPRINGA, ELSET=WK_2773
   95958,    86170,   104119
*SPRING, ELSET=WK_2773

2.453384e-02
*ELEMENT, TYPE=SPRINGA, ELSET=WK_2774
   95959,    86175,   104120
*SPRING, ELSET=WK_2774

2.453384e-02
*ELEMENT, TYPE=SPRINGA, ELSET=WK_2775
   95960,    86180,   104121
*SPRING, ELSET=WK_2775

2.453384e-02
*ELEMENT, TYPE=SPRINGA, ELSET=WK_2776
   95961,    86185,   104122
*SPRING, ELSET=WK_2776

2.453384e-02
*ELEMENT, TYPE=SPRINGA, ELSET=WK_2777
   95962,    86190,   104123
*SPRING, ELSET=WK_2777

2.453384e-02
*ELEMENT, TYPE=SPRINGA, ELSET=WK_2778
   95963,    86195,   104124
*SPRING, ELSET=WK_2778

2.453384e-02
*ELEMENT, TYPE=SPRINGA, ELSET=WK_2779
   95964,    86200,   104125
*SPRING, ELSET=WK_2779

2.453384e-02
*ELEMENT, TYPE=SPRINGA, ELSET=WK_2780
   95965,    86205,   104126
*SPRING, ELSET=WK_2780

2.453384e-02
*ELEMENT, TYPE=SPRINGA, ELSET=WK_2781
   95966,    86210,   104127
*SPRING, ELSET=WK_2781

2.453384e-02
*ELEMENT, TYPE=SPRINGA, ELSET=WK_2782
   95967,    86215,   104128
*SPRING, ELSET=WK_2782

2.453384e-02
*ELEMENT, TYPE=SPRINGA, ELSET=WK_2783
   95968,    86220,   104129
*SPRING, ELSET=WK_2783

2.453384e-02
*ELEMENT, TYPE=SPRINGA, ELSET=WK_2784
   95969,    86225,   104130
*SPRING, ELSET=WK_2784

2.453384e-02
*ELEMENT, TYPE=SPRINGA, ELSET=WK_2785
   95970,    86230,   104131
*SPRING, ELSET=WK_2785

2.453384e-02
*ELEMENT, TYPE=SPRINGA, ELSET=WK_2786
   95971,    86235,   104132
*SPRING, ELSET=WK_2786

2.453384e-02
*ELEMENT, TYPE=SPRINGA, ELSET=WK_2787
   95972,    86240,   104133
*SPRING, ELSET=WK_2787

2.453384e-02
*ELEMENT, TYPE=SPRINGA, ELSET=WK_2788
   95973,    86245,   104134
*SPRING, ELSET=WK_2788

2.453384e-02
*ELEMENT, TYPE=SPRINGA, ELSET=WK_2789
   95974,    86250,   104135
*SPRING, ELSET=WK_2789

2.453384e-02
*ELEMENT, TYPE=SPRINGA, ELSET=WK_2790
   95975,    86255,   104136
*SPRING, ELSET=WK_2790

2.453384e-02
*ELEMENT, TYPE=SPRINGA, ELSET=WK_2791
   95976,    86260,   104137
*SPRING, ELSET=WK_2791

2.453384e-02
*ELEMENT, TYPE=SPRINGA, ELSET=WK_2792
   95977,    86265,   104138
*SPRING, ELSET=WK_2792

2.453384e-02
*ELEMENT, TYPE=SPRINGA, ELSET=WK_2793
   95978,    86270,   104139
*SPRING, ELSET=WK_2793

2.453384e-02
*ELEMENT, TYPE=SPRINGA, ELSET=WK_2794
   95979,    86275,   104140
*SPRING, ELSET=WK_2794

2.453384e-02
*ELEMENT, TYPE=SPRINGA, ELSET=WK_2795
   95980,    86280,   104141
*SPRING, ELSET=WK_2795

2.453384e-02
*ELEMENT, TYPE=SPRINGA, ELSET=WK_2796
   95981,    86285,   104142
*SPRING, ELSET=WK_2796

2.453384e-02
*ELEMENT, TYPE=SPRINGA, ELSET=WK_2797
   95982,    86290,   104143
*SPRING, ELSET=WK_2797

2.453384e-02
*ELEMENT, TYPE=SPRINGA, ELSET=WK_2798
   95983,    86295,   104144
*SPRING, ELSET=WK_2798

2.453384e-02
*ELEMENT, TYPE=SPRINGA, ELSET=WK_2799
   95984,    86300,   104145
*SPRING, ELSET=WK_2799

2.453384e-02
*ELEMENT, TYPE=SPRINGA, ELSET=WK_2800
   95985,    86305,   104146
*SPRING, ELSET=WK_2800

2.453384e-02
*ELEMENT, TYPE=SPRINGA, ELSET=WK_2801
   95986,    86310,   104147
*SPRING, ELSET=WK_2801

2.453384e-02
*ELEMENT, TYPE=SPRINGA, ELSET=WK_2802
   95987,    86315,   104148
*SPRING, ELSET=WK_2802

2.453384e-02
*ELEMENT, TYPE=SPRINGA, ELSET=WK_2803
   95988,    86320,   104149
*SPRING, ELSET=WK_2803

2.453384e-02
*ELEMENT, TYPE=SPRINGA, ELSET=WK_2804
   95989,    86325,   104150
*SPRING, ELSET=WK_2804

2.453384e-02
*ELEMENT, TYPE=SPRINGA, ELSET=WK_2805
   95990,    86330,   104151
*SPRING, ELSET=WK_2805

2.453384e-02
*ELEMENT, TYPE=SPRINGA, ELSET=WK_2806
   95991,    86335,   104152
*SPRING, ELSET=WK_2806

2.453384e-02
*ELEMENT, TYPE=SPRINGA, ELSET=WK_2807
   95992,    86340,   104153
*SPRING, ELSET=WK_2807

2.453384e-02
*ELEMENT, TYPE=SPRINGA, ELSET=WK_2808
   95993,    86345,   104154
*SPRING, ELSET=WK_2808

2.453384e-02
*ELEMENT, TYPE=SPRINGA, ELSET=WK_2809
   95994,    86350,   104155
*SPRING, ELSET=WK_2809

2.453384e-02
*ELEMENT, TYPE=SPRINGA, ELSET=WK_2810
   95995,    86355,   104156
*SPRING, ELSET=WK_2810

2.453384e-02
*ELEMENT, TYPE=SPRINGA, ELSET=WK_2811
   95996,    86360,   104157
*SPRING, ELSET=WK_2811

2.453384e-02
*ELEMENT, TYPE=SPRINGA, ELSET=WK_2812
   95997,    86365,   104158
*SPRING, ELSET=WK_2812

2.453384e-02
*ELEMENT, TYPE=SPRINGA, ELSET=WK_2813
   95998,    86370,   104159
*SPRING, ELSET=WK_2813

2.453384e-02
*ELEMENT, TYPE=SPRINGA, ELSET=WK_2814
   95999,    86375,   104160
*SPRING, ELSET=WK_2814

2.453384e-02
*ELEMENT, TYPE=SPRINGA, ELSET=WK_2815
   96000,    86380,   104161
*SPRING, ELSET=WK_2815

2.453384e-02
*ELEMENT, TYPE=SPRINGA, ELSET=WK_2816
   96001,    86385,   104162
*SPRING, ELSET=WK_2816

2.453384e-02
*ELEMENT, TYPE=SPRINGA, ELSET=WK_2817
   96002,    86390,   104163
*SPRING, ELSET=WK_2817

2.453384e-02
*ELEMENT, TYPE=SPRINGA, ELSET=WK_2818
   96003,    86395,   104164
*SPRING, ELSET=WK_2818

2.453384e-02
*ELEMENT, TYPE=SPRINGA, ELSET=WK_2819
   96004,    86400,   104165
*SPRING, ELSET=WK_2819

2.453384e-02
*ELEMENT, TYPE=SPRINGA, ELSET=WK_2820
   96005,    86405,   104166
*SPRING, ELSET=WK_2820

2.453384e-02
*ELEMENT, TYPE=SPRINGA, ELSET=WK_2821
   96006,    86410,   104167
*SPRING, ELSET=WK_2821

2.453384e-02
*ELEMENT, TYPE=SPRINGA, ELSET=WK_2822
   96007,    86415,   104168
*SPRING, ELSET=WK_2822

2.453384e-02
*ELEMENT, TYPE=SPRINGA, ELSET=WK_2823
   96008,    86420,   104169
*SPRING, ELSET=WK_2823

2.453384e-02
*ELEMENT, TYPE=SPRINGA, ELSET=WK_2824
   96009,    86425,   104170
*SPRING, ELSET=WK_2824

2.453384e-02
*ELEMENT, TYPE=SPRINGA, ELSET=WK_2825
   96010,    86430,   104171
*SPRING, ELSET=WK_2825

2.453384e-02
*ELEMENT, TYPE=SPRINGA, ELSET=WK_2826
   96011,    86435,   104172
*SPRING, ELSET=WK_2826

2.453384e-02
*ELEMENT, TYPE=SPRINGA, ELSET=WK_2827
   96012,    86440,   104173
*SPRING, ELSET=WK_2827

2.453384e-02
*ELEMENT, TYPE=SPRINGA, ELSET=WK_2828
   96013,    86445,   104174
*SPRING, ELSET=WK_2828

2.453384e-02
*ELEMENT, TYPE=SPRINGA, ELSET=WK_2829
   96014,    86450,   104175
*SPRING, ELSET=WK_2829

2.453384e-02
*ELEMENT, TYPE=SPRINGA, ELSET=WK_2830
   96015,    86455,   104176
*SPRING, ELSET=WK_2830

2.453384e-02
*ELEMENT, TYPE=SPRINGA, ELSET=WK_2831
   96016,    86460,   104177
*SPRING, ELSET=WK_2831

2.453384e-02
*ELEMENT, TYPE=SPRINGA, ELSET=WK_2832
   96017,    86465,   104178
*SPRING, ELSET=WK_2832

2.453384e-02
*ELEMENT, TYPE=SPRINGA, ELSET=WK_2833
   96018,    86470,   104179
*SPRING, ELSET=WK_2833

2.453384e-02
*ELEMENT, TYPE=SPRINGA, ELSET=WK_2834
   96019,    86475,   104180
*SPRING, ELSET=WK_2834

2.453384e-02
*ELEMENT, TYPE=SPRINGA, ELSET=WK_2835
   96020,    86480,   104181
*SPRING, ELSET=WK_2835

2.453384e-02
*ELEMENT, TYPE=SPRINGA, ELSET=WK_2836
   96021,    86485,   104182
*SPRING, ELSET=WK_2836

2.453384e-02
*ELEMENT, TYPE=SPRINGA, ELSET=WK_2837
   96022,    86490,   104183
*SPRING, ELSET=WK_2837

2.453384e-02
*ELEMENT, TYPE=SPRINGA, ELSET=WK_2838
   96023,    86495,   104184
*SPRING, ELSET=WK_2838

2.453384e-02
*ELEMENT, TYPE=SPRINGA, ELSET=WK_2839
   96024,    86500,   104185
*SPRING, ELSET=WK_2839

2.453384e-02
*ELEMENT, TYPE=SPRINGA, ELSET=WK_2840
   96025,    86505,   104186
*SPRING, ELSET=WK_2840

2.453384e-02
*ELEMENT, TYPE=SPRINGA, ELSET=WK_2841
   96026,    86510,   104187
*SPRING, ELSET=WK_2841

2.453384e-02
*ELEMENT, TYPE=SPRINGA, ELSET=WK_2842
   96027,    86515,   104188
*SPRING, ELSET=WK_2842

2.453384e-02
*ELEMENT, TYPE=SPRINGA, ELSET=WK_2843
   96028,    86520,   104189
*SPRING, ELSET=WK_2843

2.453384e-02
*ELEMENT, TYPE=SPRINGA, ELSET=WK_2844
   96029,    86525,   104190
*SPRING, ELSET=WK_2844

2.453384e-02
*ELEMENT, TYPE=SPRINGA, ELSET=WK_2845
   96030,    86530,   104191
*SPRING, ELSET=WK_2845

2.453384e-02
*ELEMENT, TYPE=SPRINGA, ELSET=WK_2846
   96031,    86535,   104192
*SPRING, ELSET=WK_2846

2.453384e-02
*ELEMENT, TYPE=SPRINGA, ELSET=WK_2847
   96032,    86540,   104193
*SPRING, ELSET=WK_2847

2.453384e-02
*ELEMENT, TYPE=SPRINGA, ELSET=WK_2848
   96033,    86545,   104194
*SPRING, ELSET=WK_2848

2.453384e-02
*ELEMENT, TYPE=SPRINGA, ELSET=WK_2849
   96034,    86550,   104195
*SPRING, ELSET=WK_2849

2.453384e-02
*ELEMENT, TYPE=SPRINGA, ELSET=WK_2850
   96035,    86555,   104196
*SPRING, ELSET=WK_2850

2.453384e-02
*ELEMENT, TYPE=SPRINGA, ELSET=WK_2851
   96036,    86560,   104197
*SPRING, ELSET=WK_2851

2.453384e-02
*ELEMENT, TYPE=SPRINGA, ELSET=WK_2852
   96037,    86565,   104198
*SPRING, ELSET=WK_2852

2.453384e-02
*ELEMENT, TYPE=SPRINGA, ELSET=WK_2853
   96038,    86570,   104199
*SPRING, ELSET=WK_2853

2.453384e-02
*ELEMENT, TYPE=SPRINGA, ELSET=WK_2854
   96039,    86575,   104200
*SPRING, ELSET=WK_2854

2.453384e-02
*ELEMENT, TYPE=SPRINGA, ELSET=WK_2855
   96040,    86580,   104201
*SPRING, ELSET=WK_2855

2.453384e-02
*ELEMENT, TYPE=SPRINGA, ELSET=WK_2856
   96041,    86585,   104202
*SPRING, ELSET=WK_2856

2.453384e-02
*ELEMENT, TYPE=SPRINGA, ELSET=WK_2857
   96042,    86590,   104203
*SPRING, ELSET=WK_2857

2.453384e-02
*ELEMENT, TYPE=SPRINGA, ELSET=WK_2858
   96043,    86595,   104204
*SPRING, ELSET=WK_2858

2.453384e-02
*ELEMENT, TYPE=SPRINGA, ELSET=WK_2859
   96044,    86600,   104205
*SPRING, ELSET=WK_2859

2.453384e-02
*ELEMENT, TYPE=SPRINGA, ELSET=WK_2860
   96045,    86605,   104206
*SPRING, ELSET=WK_2860

2.453384e-02
*ELEMENT, TYPE=SPRINGA, ELSET=WK_2861
   96046,    86610,   104207
*SPRING, ELSET=WK_2861

2.453384e-02
*ELEMENT, TYPE=SPRINGA, ELSET=WK_2862
   96047,    86615,   104208
*SPRING, ELSET=WK_2862

2.453384e-02
*ELEMENT, TYPE=SPRINGA, ELSET=WK_2863
   96048,    86620,   104209
*SPRING, ELSET=WK_2863

2.453384e-02
*ELEMENT, TYPE=SPRINGA, ELSET=WK_2864
   96049,    86625,   104210
*SPRING, ELSET=WK_2864

2.453384e-02
*ELEMENT, TYPE=SPRINGA, ELSET=WK_2865
   96050,    86630,   104211
*SPRING, ELSET=WK_2865

2.453384e-02
*ELEMENT, TYPE=SPRINGA, ELSET=WK_2866
   96051,    86635,   104212
*SPRING, ELSET=WK_2866

2.453384e-02
*ELEMENT, TYPE=SPRINGA, ELSET=WK_2867
   96052,    86640,   104213
*SPRING, ELSET=WK_2867

2.453384e-02
*ELEMENT, TYPE=SPRINGA, ELSET=WK_2868
   96053,    86645,   104214
*SPRING, ELSET=WK_2868

2.453384e-02
*ELEMENT, TYPE=SPRINGA, ELSET=WK_2869
   96054,    86650,   104215
*SPRING, ELSET=WK_2869

2.453384e-02
*ELEMENT, TYPE=SPRINGA, ELSET=WK_2870
   96055,    86655,   104216
*SPRING, ELSET=WK_2870

2.453384e-02
*ELEMENT, TYPE=SPRINGA, ELSET=WK_2871
   96056,    86660,   104217
*SPRING, ELSET=WK_2871

2.453384e-02
*ELEMENT, TYPE=SPRINGA, ELSET=WK_2872
   96057,    86665,   104218
*SPRING, ELSET=WK_2872

2.453384e-02
*ELEMENT, TYPE=SPRINGA, ELSET=WK_2873
   96058,    86670,   104219
*SPRING, ELSET=WK_2873

2.453384e-02
*ELEMENT, TYPE=SPRINGA, ELSET=WK_2874
   96059,    86675,   104220
*SPRING, ELSET=WK_2874

2.453384e-02
*ELEMENT, TYPE=SPRINGA, ELSET=WK_2875
   96060,    86680,   104221
*SPRING, ELSET=WK_2875

2.453384e-02
*ELEMENT, TYPE=SPRINGA, ELSET=WK_2876
   96061,    86685,   104222
*SPRING, ELSET=WK_2876

2.453384e-02
*ELEMENT, TYPE=SPRINGA, ELSET=WK_2877
   96062,    86690,   104223
*SPRING, ELSET=WK_2877

2.453384e-02
*ELEMENT, TYPE=SPRINGA, ELSET=WK_2878
   96063,    86695,   104224
*SPRING, ELSET=WK_2878

2.453384e-02
*ELEMENT, TYPE=SPRINGA, ELSET=WK_2879
   96064,    86700,   104225
*SPRING, ELSET=WK_2879

2.453384e-02
*ELEMENT, TYPE=SPRINGA, ELSET=WK_2880
   96065,    86705,   104226
*SPRING, ELSET=WK_2880

2.453384e-02
*ELEMENT, TYPE=SPRINGA, ELSET=WK_2881
   96066,    86710,   104227
*SPRING, ELSET=WK_2881

2.453384e-02
*ELEMENT, TYPE=SPRINGA, ELSET=WK_2882
   96067,    86715,   104228
*SPRING, ELSET=WK_2882

2.453384e-02
*ELEMENT, TYPE=SPRINGA, ELSET=WK_2883
   96068,    86720,   104229
*SPRING, ELSET=WK_2883

2.453384e-02
*ELEMENT, TYPE=SPRINGA, ELSET=WK_2884
   96069,    86725,   104230
*SPRING, ELSET=WK_2884

2.453384e-02
*ELEMENT, TYPE=SPRINGA, ELSET=WK_2885
   96070,    86730,   104231
*SPRING, ELSET=WK_2885

2.453384e-02
*ELEMENT, TYPE=SPRINGA, ELSET=WK_2886
   96071,    86735,   104232
*SPRING, ELSET=WK_2886

2.453384e-02
*ELEMENT, TYPE=SPRINGA, ELSET=WK_2887
   96072,    86740,   104233
*SPRING, ELSET=WK_2887

2.453384e-02
*ELEMENT, TYPE=SPRINGA, ELSET=WK_2888
   96073,    86745,   104234
*SPRING, ELSET=WK_2888

2.453384e-02
*ELEMENT, TYPE=SPRINGA, ELSET=WK_2889
   96074,    86750,   104235
*SPRING, ELSET=WK_2889

2.453384e-02
*ELEMENT, TYPE=SPRINGA, ELSET=WK_2890
   96075,    86755,   104236
*SPRING, ELSET=WK_2890

2.453384e-02
*ELEMENT, TYPE=SPRINGA, ELSET=WK_2891
   96076,    86760,   104237
*SPRING, ELSET=WK_2891

2.453384e-02
*ELEMENT, TYPE=SPRINGA, ELSET=WK_2892
   96077,    86765,   104238
*SPRING, ELSET=WK_2892

2.453384e-02
*ELEMENT, TYPE=SPRINGA, ELSET=WK_2893
   96078,    86770,   104239
*SPRING, ELSET=WK_2893

2.453384e-02
*ELEMENT, TYPE=SPRINGA, ELSET=WK_2894
   96079,    86775,   104240
*SPRING, ELSET=WK_2894

2.453384e-02
*ELEMENT, TYPE=SPRINGA, ELSET=WK_2895
   96080,    86780,   104241
*SPRING, ELSET=WK_2895

2.453384e-02
*ELEMENT, TYPE=SPRINGA, ELSET=WK_2896
   96081,    86785,   104242
*SPRING, ELSET=WK_2896

2.453384e-02
*ELEMENT, TYPE=SPRINGA, ELSET=WK_2897
   96082,    86790,   104243
*SPRING, ELSET=WK_2897

2.453384e-02
*ELEMENT, TYPE=SPRINGA, ELSET=WK_2898
   96083,    86795,   104244
*SPRING, ELSET=WK_2898

2.453384e-02
*ELEMENT, TYPE=SPRINGA, ELSET=WK_2899
   96084,    86800,   104245
*SPRING, ELSET=WK_2899

2.453384e-02
*ELEMENT, TYPE=SPRINGA, ELSET=WK_2900
   96085,    86805,   104246
*SPRING, ELSET=WK_2900

2.453384e-02
*ELEMENT, TYPE=SPRINGA, ELSET=WK_2901
   96086,    86810,   104247
*SPRING, ELSET=WK_2901

2.453384e-02
*ELEMENT, TYPE=SPRINGA, ELSET=WK_2902
   96087,    86815,   104248
*SPRING, ELSET=WK_2902

2.453384e-02
*ELEMENT, TYPE=SPRINGA, ELSET=WK_2903
   96088,    86820,   104249
*SPRING, ELSET=WK_2903

2.453384e-02
*ELEMENT, TYPE=SPRINGA, ELSET=WK_2904
   96089,    86825,   104250
*SPRING, ELSET=WK_2904

2.453384e-02
*ELEMENT, TYPE=SPRINGA, ELSET=WK_2905
   96090,    86830,   104251
*SPRING, ELSET=WK_2905

2.453384e-02
*ELEMENT, TYPE=SPRINGA, ELSET=WK_2906
   96091,    86835,   104252
*SPRING, ELSET=WK_2906

2.453384e-02
*ELEMENT, TYPE=SPRINGA, ELSET=WK_2907
   96092,    86840,   104253
*SPRING, ELSET=WK_2907

2.453384e-02
*ELEMENT, TYPE=SPRINGA, ELSET=WK_2908
   96093,    86845,   104254
*SPRING, ELSET=WK_2908

2.453384e-02
*ELEMENT, TYPE=SPRINGA, ELSET=WK_2909
   96094,    86850,   104255
*SPRING, ELSET=WK_2909

2.453384e-02
*ELEMENT, TYPE=SPRINGA, ELSET=WK_2910
   96095,    86855,   104256
*SPRING, ELSET=WK_2910

2.453384e-02
*ELEMENT, TYPE=SPRINGA, ELSET=WK_2911
   96096,    86860,   104257
*SPRING, ELSET=WK_2911

2.453384e-02
*ELEMENT, TYPE=SPRINGA, ELSET=WK_2912
   96097,    86865,   104258
*SPRING, ELSET=WK_2912

2.453384e-02
*ELEMENT, TYPE=SPRINGA, ELSET=WK_2913
   96098,    86870,   104259
*SPRING, ELSET=WK_2913

2.453384e-02
*ELEMENT, TYPE=SPRINGA, ELSET=WK_2914
   96099,    86875,   104260
*SPRING, ELSET=WK_2914

2.453384e-02
*ELEMENT, TYPE=SPRINGA, ELSET=WK_2915
   96100,    86880,   104261
*SPRING, ELSET=WK_2915

2.453384e-02
*ELEMENT, TYPE=SPRINGA, ELSET=WK_2916
   96101,    86885,   104262
*SPRING, ELSET=WK_2916

2.453384e-02
*ELEMENT, TYPE=SPRINGA, ELSET=WK_2917
   96102,    86890,   104263
*SPRING, ELSET=WK_2917

2.453384e-02
*ELEMENT, TYPE=SPRINGA, ELSET=WK_2918
   96103,    86895,   104264
*SPRING, ELSET=WK_2918

2.453384e-02
*ELEMENT, TYPE=SPRINGA, ELSET=WK_2919
   96104,    86900,   104265
*SPRING, ELSET=WK_2919

2.453384e-02
*ELEMENT, TYPE=SPRINGA, ELSET=WK_2920
   96105,    86905,   104266
*SPRING, ELSET=WK_2920

2.453384e-02
*ELEMENT, TYPE=SPRINGA, ELSET=WK_2921
   96106,    86910,   104267
*SPRING, ELSET=WK_2921

2.453384e-02
*ELEMENT, TYPE=SPRINGA, ELSET=WK_2922
   96107,    86915,   104268
*SPRING, ELSET=WK_2922

2.453384e-02
*ELEMENT, TYPE=SPRINGA, ELSET=WK_2923
   96108,    86920,   104269
*SPRING, ELSET=WK_2923

2.453384e-02
*ELEMENT, TYPE=SPRINGA, ELSET=WK_2924
   96109,    86925,   104270
*SPRING, ELSET=WK_2924

2.453384e-02
*ELEMENT, TYPE=SPRINGA, ELSET=WK_2925
   96110,    86930,   104271
*SPRING, ELSET=WK_2925

2.453384e-02
*ELEMENT, TYPE=SPRINGA, ELSET=WK_2926
   96111,    86935,   104272
*SPRING, ELSET=WK_2926

2.453384e-02
*ELEMENT, TYPE=SPRINGA, ELSET=WK_2927
   96112,    86940,   104273
*SPRING, ELSET=WK_2927

2.453384e-02
*ELEMENT, TYPE=SPRINGA, ELSET=WK_2928
   96113,    86945,   104274
*SPRING, ELSET=WK_2928

2.453384e-02
*ELEMENT, TYPE=SPRINGA, ELSET=WK_2929
   96114,    86950,   104275
*SPRING, ELSET=WK_2929

2.453384e-02
*ELEMENT, TYPE=SPRINGA, ELSET=WK_2930
   96115,    86955,   104276
*SPRING, ELSET=WK_2930

2.453384e-02
*ELEMENT, TYPE=SPRINGA, ELSET=WK_2931
   96116,    86960,   104277
*SPRING, ELSET=WK_2931

2.453384e-02
*ELEMENT, TYPE=SPRINGA, ELSET=WK_2932
   96117,    86965,   104278
*SPRING, ELSET=WK_2932

2.453384e-02
*ELEMENT, TYPE=SPRINGA, ELSET=WK_2933
   96118,    86970,   104279
*SPRING, ELSET=WK_2933

2.453384e-02
*ELEMENT, TYPE=SPRINGA, ELSET=WK_2934
   96119,    86975,   104280
*SPRING, ELSET=WK_2934

2.453384e-02
*ELEMENT, TYPE=SPRINGA, ELSET=WK_2935
   96120,    86980,   104281
*SPRING, ELSET=WK_2935

2.453384e-02
*ELEMENT, TYPE=SPRINGA, ELSET=WK_2936
   96121,    86985,   104282
*SPRING, ELSET=WK_2936

2.453384e-02
*ELEMENT, TYPE=SPRINGA, ELSET=WK_2937
   96122,    86990,   104283
*SPRING, ELSET=WK_2937

2.453384e-02
*ELEMENT, TYPE=SPRINGA, ELSET=WK_2938
   96123,    86995,   104284
*SPRING, ELSET=WK_2938

2.453384e-02
*ELEMENT, TYPE=SPRINGA, ELSET=WK_2939
   96124,    87000,   104285
*SPRING, ELSET=WK_2939

2.453384e-02
*ELEMENT, TYPE=SPRINGA, ELSET=WK_2940
   96125,    87005,   104286
*SPRING, ELSET=WK_2940

2.453384e-02
*ELEMENT, TYPE=SPRINGA, ELSET=WK_2941
   96126,    87010,   104287
*SPRING, ELSET=WK_2941

2.453384e-02
*ELEMENT, TYPE=SPRINGA, ELSET=WK_2942
   96127,    87015,   104288
*SPRING, ELSET=WK_2942

2.453384e-02
*ELEMENT, TYPE=SPRINGA, ELSET=WK_2943
   96128,    87020,   104289
*SPRING, ELSET=WK_2943

2.453384e-02
*ELEMENT, TYPE=SPRINGA, ELSET=WK_2944
   96129,    87025,   104290
*SPRING, ELSET=WK_2944

2.453384e-02
*ELEMENT, TYPE=SPRINGA, ELSET=WK_2945
   96130,    87030,   104291
*SPRING, ELSET=WK_2945

2.453384e-02
*ELEMENT, TYPE=SPRINGA, ELSET=WK_2946
   96131,    87035,   104292
*SPRING, ELSET=WK_2946

2.453384e-02
*ELEMENT, TYPE=SPRINGA, ELSET=WK_2947
   96132,    87040,   104293
*SPRING, ELSET=WK_2947

2.453384e-02
*ELEMENT, TYPE=SPRINGA, ELSET=WK_2948
   96133,    87045,   104294
*SPRING, ELSET=WK_2948

2.453384e-02
*ELEMENT, TYPE=SPRINGA, ELSET=WK_2949
   96134,    87050,   104295
*SPRING, ELSET=WK_2949

2.453384e-02
*ELEMENT, TYPE=SPRINGA, ELSET=WK_2950
   96135,    87055,   104296
*SPRING, ELSET=WK_2950

2.453384e-02
*ELEMENT, TYPE=SPRINGA, ELSET=WK_2951
   96136,    87060,   104297
*SPRING, ELSET=WK_2951

2.453384e-02
*ELEMENT, TYPE=SPRINGA, ELSET=WK_2952
   96137,    87065,   104298
*SPRING, ELSET=WK_2952

2.453384e-02
*ELEMENT, TYPE=SPRINGA, ELSET=WK_2953
   96138,    87070,   104299
*SPRING, ELSET=WK_2953

2.453384e-02
*ELEMENT, TYPE=SPRINGA, ELSET=WK_2954
   96139,    87075,   104300
*SPRING, ELSET=WK_2954

2.453384e-02
*ELEMENT, TYPE=SPRINGA, ELSET=WK_2955
   96140,    87080,   104301
*SPRING, ELSET=WK_2955

2.453384e-02
*ELEMENT, TYPE=SPRINGA, ELSET=WK_2956
   96141,    87085,   104302
*SPRING, ELSET=WK_2956

2.453384e-02
*ELEMENT, TYPE=SPRINGA, ELSET=WK_2957
   96142,    87090,   104303
*SPRING, ELSET=WK_2957

2.453384e-02
*ELEMENT, TYPE=SPRINGA, ELSET=WK_2958
   96143,    87095,   104304
*SPRING, ELSET=WK_2958

2.453384e-02
*ELEMENT, TYPE=SPRINGA, ELSET=WK_2959
   96144,    87100,   104305
*SPRING, ELSET=WK_2959

2.453384e-02
*ELEMENT, TYPE=SPRINGA, ELSET=WK_2960
   96145,    87105,   104306
*SPRING, ELSET=WK_2960

2.453384e-02
*ELEMENT, TYPE=SPRINGA, ELSET=WK_2961
   96146,    87110,   104307
*SPRING, ELSET=WK_2961

2.453384e-02
*ELEMENT, TYPE=SPRINGA, ELSET=WK_2962
   96147,    87115,   104308
*SPRING, ELSET=WK_2962

2.453384e-02
*ELEMENT, TYPE=SPRINGA, ELSET=WK_2963
   96148,    87120,   104309
*SPRING, ELSET=WK_2963

2.453384e-02
*ELEMENT, TYPE=SPRINGA, ELSET=WK_2964
   96149,    87125,   104310
*SPRING, ELSET=WK_2964

2.453384e-02
*ELEMENT, TYPE=SPRINGA, ELSET=WK_2965
   96150,    87130,   104311
*SPRING, ELSET=WK_2965

2.453384e-02
*ELEMENT, TYPE=SPRINGA, ELSET=WK_2966
   96151,    87135,   104312
*SPRING, ELSET=WK_2966

2.453384e-02
*ELEMENT, TYPE=SPRINGA, ELSET=WK_2967
   96152,    87140,   104313
*SPRING, ELSET=WK_2967

2.453384e-02
*ELEMENT, TYPE=SPRINGA, ELSET=WK_2968
   96153,    87145,   104314
*SPRING, ELSET=WK_2968

2.453384e-02
*ELEMENT, TYPE=SPRINGA, ELSET=WK_2969
   96154,    87150,   104315
*SPRING, ELSET=WK_2969

2.453384e-02
*ELEMENT, TYPE=SPRINGA, ELSET=WK_2970
   96155,    87155,   104316
*SPRING, ELSET=WK_2970

1.226692e-02
*ELEMENT, TYPE=SPRINGA, ELSET=WK_2971
   96156,    87160,   104317
*SPRING, ELSET=WK_2971

1.226692e-02
*ELEMENT, TYPE=SPRINGA, ELSET=WK_2972
   96157,    87165,   104318
*SPRING, ELSET=WK_2972

1.226692e-02
*ELEMENT, TYPE=SPRINGA, ELSET=WK_2973
   96158,    87170,   104319
*SPRING, ELSET=WK_2973

1.226692e-02
*ELEMENT, TYPE=SPRINGA, ELSET=WK_2974
   96159,    87175,   104320
*SPRING, ELSET=WK_2974

1.226692e-02
*ELEMENT, TYPE=SPRINGA, ELSET=WK_2975
   96160,    87180,   104321
*SPRING, ELSET=WK_2975

1.226692e-02
*ELEMENT, TYPE=SPRINGA, ELSET=WK_2976
   96161,    87185,   104322
*SPRING, ELSET=WK_2976

1.226692e-02
*ELEMENT, TYPE=SPRINGA, ELSET=WK_2977
   96162,    87190,   104323
*SPRING, ELSET=WK_2977

1.226692e-02
*ELEMENT, TYPE=SPRINGA, ELSET=WK_2978
   96163,    87195,   104324
*SPRING, ELSET=WK_2978

1.226692e-02
*ELEMENT, TYPE=SPRINGA, ELSET=WK_2979
   96164,    87200,   104325
*SPRING, ELSET=WK_2979

1.226692e-02
*ELEMENT, TYPE=SPRINGA, ELSET=WK_2980
   96165,    87205,   104326
*SPRING, ELSET=WK_2980

1.226692e-02
*ELEMENT, TYPE=SPRINGA, ELSET=WK_2981
   96166,    87210,   104327
*SPRING, ELSET=WK_2981

1.226692e-02
*ELEMENT, TYPE=SPRINGA, ELSET=WK_2982
   96167,    87215,   104328
*SPRING, ELSET=WK_2982

1.226692e-02
*ELEMENT, TYPE=SPRINGA, ELSET=WK_2983
   96168,    87220,   104329
*SPRING, ELSET=WK_2983

1.226692e-02
*ELEMENT, TYPE=SPRINGA, ELSET=WK_2984
   96169,    87225,   104330
*SPRING, ELSET=WK_2984

1.226692e-02
*ELEMENT, TYPE=SPRINGA, ELSET=WK_2985
   96170,    87230,   104331
*SPRING, ELSET=WK_2985

1.226692e-02
*ELEMENT, TYPE=SPRINGA, ELSET=WK_2986
   96171,    87235,   104332
*SPRING, ELSET=WK_2986

1.226692e-02
*ELEMENT, TYPE=SPRINGA, ELSET=WK_2987
   96172,    87240,   104333
*SPRING, ELSET=WK_2987

1.226692e-02
*ELEMENT, TYPE=SPRINGA, ELSET=WK_2988
   96173,    87245,   104334
*SPRING, ELSET=WK_2988

1.226692e-02
*ELEMENT, TYPE=SPRINGA, ELSET=WK_2989
   96174,    87250,   104335
*SPRING, ELSET=WK_2989

1.226692e-02
*ELEMENT, TYPE=SPRINGA, ELSET=WK_2990
   96175,    87255,   104336
*SPRING, ELSET=WK_2990

1.226692e-02
*ELEMENT, TYPE=SPRINGA, ELSET=WK_2991
   96176,    87260,   104337
*SPRING, ELSET=WK_2991

1.226692e-02
*ELEMENT, TYPE=SPRINGA, ELSET=WK_2992
   96177,    87265,   104338
*SPRING, ELSET=WK_2992

1.226692e-02
*ELEMENT, TYPE=SPRINGA, ELSET=WK_2993
   96178,    87270,   104339
*SPRING, ELSET=WK_2993

1.226692e-02
*ELEMENT, TYPE=SPRINGA, ELSET=WK_2994
   96179,    87275,   104340
*SPRING, ELSET=WK_2994

1.226692e-02
*ELEMENT, TYPE=SPRINGA, ELSET=WK_2995
   96180,    87280,   104341
*SPRING, ELSET=WK_2995

1.226692e-02
*ELEMENT, TYPE=SPRINGA, ELSET=WK_2996
   96181,    87285,   104342
*SPRING, ELSET=WK_2996

1.226692e-02
*ELEMENT, TYPE=SPRINGA, ELSET=WK_2997
   96182,    87290,   104343
*SPRING, ELSET=WK_2997

1.226692e-02
*ELEMENT, TYPE=SPRINGA, ELSET=WK_2998
   96183,    87295,   104344
*SPRING, ELSET=WK_2998

1.226692e-02
*ELEMENT, TYPE=SPRINGA, ELSET=WK_2999
   96184,    87300,   104345
*SPRING, ELSET=WK_2999

1.226692e-02
*ELEMENT, TYPE=SPRINGA, ELSET=WK_3000
   96185,    87305,   104346
*SPRING, ELSET=WK_3000

1.226692e-02
*ELEMENT, TYPE=SPRINGA, ELSET=WK_3001
   96186,    87310,   104347
*SPRING, ELSET=WK_3001

2.453384e-02
*ELEMENT, TYPE=SPRINGA, ELSET=WK_3002
   96187,    87315,   104348
*SPRING, ELSET=WK_3002

2.453384e-02
*ELEMENT, TYPE=SPRINGA, ELSET=WK_3003
   96188,    87320,   104349
*SPRING, ELSET=WK_3003

2.453384e-02
*ELEMENT, TYPE=SPRINGA, ELSET=WK_3004
   96189,    87325,   104350
*SPRING, ELSET=WK_3004

2.453384e-02
*ELEMENT, TYPE=SPRINGA, ELSET=WK_3005
   96190,    87330,   104351
*SPRING, ELSET=WK_3005

2.453384e-02
*ELEMENT, TYPE=SPRINGA, ELSET=WK_3006
   96191,    87335,   104352
*SPRING, ELSET=WK_3006

2.453384e-02
*ELEMENT, TYPE=SPRINGA, ELSET=WK_3007
   96192,    87340,   104353
*SPRING, ELSET=WK_3007

2.453384e-02
*ELEMENT, TYPE=SPRINGA, ELSET=WK_3008
   96193,    87345,   104354
*SPRING, ELSET=WK_3008

2.453384e-02
*ELEMENT, TYPE=SPRINGA, ELSET=WK_3009
   96194,    87350,   104355
*SPRING, ELSET=WK_3009

2.453384e-02
*ELEMENT, TYPE=SPRINGA, ELSET=WK_3010
   96195,    87355,   104356
*SPRING, ELSET=WK_3010

2.453384e-02
*ELEMENT, TYPE=SPRINGA, ELSET=WK_3011
   96196,    87360,   104357
*SPRING, ELSET=WK_3011

2.453384e-02
*ELEMENT, TYPE=SPRINGA, ELSET=WK_3012
   96197,    87365,   104358
*SPRING, ELSET=WK_3012

2.453384e-02
*ELEMENT, TYPE=SPRINGA, ELSET=WK_3013
   96198,    87370,   104359
*SPRING, ELSET=WK_3013

2.453384e-02
*ELEMENT, TYPE=SPRINGA, ELSET=WK_3014
   96199,    87375,   104360
*SPRING, ELSET=WK_3014

2.453384e-02
*ELEMENT, TYPE=SPRINGA, ELSET=WK_3015
   96200,    87380,   104361
*SPRING, ELSET=WK_3015

2.453384e-02
*ELEMENT, TYPE=SPRINGA, ELSET=WK_3016
   96201,    87385,   104362
*SPRING, ELSET=WK_3016

2.453384e-02
*ELEMENT, TYPE=SPRINGA, ELSET=WK_3017
   96202,    87390,   104363
*SPRING, ELSET=WK_3017

2.453384e-02
*ELEMENT, TYPE=SPRINGA, ELSET=WK_3018
   96203,    87395,   104364
*SPRING, ELSET=WK_3018

2.453384e-02
*ELEMENT, TYPE=SPRINGA, ELSET=WK_3019
   96204,    87400,   104365
*SPRING, ELSET=WK_3019

2.453384e-02
*ELEMENT, TYPE=SPRINGA, ELSET=WK_3020
   96205,    87405,   104366
*SPRING, ELSET=WK_3020

2.453384e-02
*ELEMENT, TYPE=SPRINGA, ELSET=WK_3021
   96206,    87410,   104367
*SPRING, ELSET=WK_3021

2.453384e-02
*ELEMENT, TYPE=SPRINGA, ELSET=WK_3022
   96207,    87415,   104368
*SPRING, ELSET=WK_3022

2.453384e-02
*ELEMENT, TYPE=SPRINGA, ELSET=WK_3023
   96208,    87420,   104369
*SPRING, ELSET=WK_3023

2.453384e-02
*ELEMENT, TYPE=SPRINGA, ELSET=WK_3024
   96209,    87425,   104370
*SPRING, ELSET=WK_3024

2.453384e-02
*ELEMENT, TYPE=SPRINGA, ELSET=WK_3025
   96210,    87430,   104371
*SPRING, ELSET=WK_3025

2.453384e-02
*ELEMENT, TYPE=SPRINGA, ELSET=WK_3026
   96211,    87435,   104372
*SPRING, ELSET=WK_3026

2.453384e-02
*ELEMENT, TYPE=SPRINGA, ELSET=WK_3027
   96212,    87440,   104373
*SPRING, ELSET=WK_3027

2.453384e-02
*ELEMENT, TYPE=SPRINGA, ELSET=WK_3028
   96213,    87445,   104374
*SPRING, ELSET=WK_3028

2.453384e-02
*ELEMENT, TYPE=SPRINGA, ELSET=WK_3029
   96214,    87450,   104375
*SPRING, ELSET=WK_3029

2.453384e-02
*ELEMENT, TYPE=SPRINGA, ELSET=WK_3030
   96215,    87455,   104376
*SPRING, ELSET=WK_3030

2.453384e-02
*ELEMENT, TYPE=SPRINGA, ELSET=WK_3031
   96216,    87460,   104377
*SPRING, ELSET=WK_3031

2.453384e-02
*ELEMENT, TYPE=SPRINGA, ELSET=WK_3032
   96217,    87465,   104378
*SPRING, ELSET=WK_3032

2.453384e-02
*ELEMENT, TYPE=SPRINGA, ELSET=WK_3033
   96218,    87470,   104379
*SPRING, ELSET=WK_3033

2.453384e-02
*ELEMENT, TYPE=SPRINGA, ELSET=WK_3034
   96219,    87475,   104380
*SPRING, ELSET=WK_3034

2.453384e-02
*ELEMENT, TYPE=SPRINGA, ELSET=WK_3035
   96220,    87480,   104381
*SPRING, ELSET=WK_3035

2.453384e-02
*ELEMENT, TYPE=SPRINGA, ELSET=WK_3036
   96221,    87485,   104382
*SPRING, ELSET=WK_3036

2.453384e-02
*ELEMENT, TYPE=SPRINGA, ELSET=WK_3037
   96222,    87490,   104383
*SPRING, ELSET=WK_3037

2.453384e-02
*ELEMENT, TYPE=SPRINGA, ELSET=WK_3038
   96223,    87495,   104384
*SPRING, ELSET=WK_3038

2.453384e-02
*ELEMENT, TYPE=SPRINGA, ELSET=WK_3039
   96224,    87500,   104385
*SPRING, ELSET=WK_3039

2.453384e-02
*ELEMENT, TYPE=SPRINGA, ELSET=WK_3040
   96225,    87505,   104386
*SPRING, ELSET=WK_3040

2.453384e-02
*ELEMENT, TYPE=SPRINGA, ELSET=WK_3041
   96226,    87510,   104387
*SPRING, ELSET=WK_3041

2.453384e-02
*ELEMENT, TYPE=SPRINGA, ELSET=WK_3042
   96227,    87515,   104388
*SPRING, ELSET=WK_3042

2.453384e-02
*ELEMENT, TYPE=SPRINGA, ELSET=WK_3043
   96228,    87520,   104389
*SPRING, ELSET=WK_3043

2.453384e-02
*ELEMENT, TYPE=SPRINGA, ELSET=WK_3044
   96229,    87525,   104390
*SPRING, ELSET=WK_3044

2.453384e-02
*ELEMENT, TYPE=SPRINGA, ELSET=WK_3045
   96230,    87530,   104391
*SPRING, ELSET=WK_3045

2.453384e-02
*ELEMENT, TYPE=SPRINGA, ELSET=WK_3046
   96231,    87535,   104392
*SPRING, ELSET=WK_3046

2.453384e-02
*ELEMENT, TYPE=SPRINGA, ELSET=WK_3047
   96232,    87540,   104393
*SPRING, ELSET=WK_3047

2.453384e-02
*ELEMENT, TYPE=SPRINGA, ELSET=WK_3048
   96233,    87545,   104394
*SPRING, ELSET=WK_3048

2.453384e-02
*ELEMENT, TYPE=SPRINGA, ELSET=WK_3049
   96234,    87550,   104395
*SPRING, ELSET=WK_3049

2.453384e-02
*ELEMENT, TYPE=SPRINGA, ELSET=WK_3050
   96235,    87555,   104396
*SPRING, ELSET=WK_3050

2.453384e-02
*ELEMENT, TYPE=SPRINGA, ELSET=WK_3051
   96236,    87560,   104397
*SPRING, ELSET=WK_3051

2.453384e-02
*ELEMENT, TYPE=SPRINGA, ELSET=WK_3052
   96237,    87565,   104398
*SPRING, ELSET=WK_3052

2.453384e-02
*ELEMENT, TYPE=SPRINGA, ELSET=WK_3053
   96238,    87570,   104399
*SPRING, ELSET=WK_3053

2.453384e-02
*ELEMENT, TYPE=SPRINGA, ELSET=WK_3054
   96239,    87575,   104400
*SPRING, ELSET=WK_3054

2.453384e-02
*ELEMENT, TYPE=SPRINGA, ELSET=WK_3055
   96240,    87580,   104401
*SPRING, ELSET=WK_3055

2.453384e-02
*ELEMENT, TYPE=SPRINGA, ELSET=WK_3056
   96241,    87585,   104402
*SPRING, ELSET=WK_3056

2.453384e-02
*ELEMENT, TYPE=SPRINGA, ELSET=WK_3057
   96242,    87590,   104403
*SPRING, ELSET=WK_3057

2.453384e-02
*ELEMENT, TYPE=SPRINGA, ELSET=WK_3058
   96243,    87595,   104404
*SPRING, ELSET=WK_3058

2.453384e-02
*ELEMENT, TYPE=SPRINGA, ELSET=WK_3059
   96244,    87600,   104405
*SPRING, ELSET=WK_3059

2.453384e-02
*ELEMENT, TYPE=SPRINGA, ELSET=WK_3060
   96245,    87605,   104406
*SPRING, ELSET=WK_3060

2.453384e-02
*ELEMENT, TYPE=SPRINGA, ELSET=WK_3061
   96246,    87610,   104407
*SPRING, ELSET=WK_3061

2.453384e-02
*ELEMENT, TYPE=SPRINGA, ELSET=WK_3062
   96247,    87615,   104408
*SPRING, ELSET=WK_3062

2.453384e-02
*ELEMENT, TYPE=SPRINGA, ELSET=WK_3063
   96248,    87620,   104409
*SPRING, ELSET=WK_3063

2.453384e-02
*ELEMENT, TYPE=SPRINGA, ELSET=WK_3064
   96249,    87625,   104410
*SPRING, ELSET=WK_3064

2.453384e-02
*ELEMENT, TYPE=SPRINGA, ELSET=WK_3065
   96250,    87630,   104411
*SPRING, ELSET=WK_3065

2.453384e-02
*ELEMENT, TYPE=SPRINGA, ELSET=WK_3066
   96251,    87635,   104412
*SPRING, ELSET=WK_3066

2.453384e-02
*ELEMENT, TYPE=SPRINGA, ELSET=WK_3067
   96252,    87640,   104413
*SPRING, ELSET=WK_3067

2.453384e-02
*ELEMENT, TYPE=SPRINGA, ELSET=WK_3068
   96253,    87645,   104414
*SPRING, ELSET=WK_3068

2.453384e-02
*ELEMENT, TYPE=SPRINGA, ELSET=WK_3069
   96254,    87650,   104415
*SPRING, ELSET=WK_3069

2.453384e-02
*ELEMENT, TYPE=SPRINGA, ELSET=WK_3070
   96255,    87655,   104416
*SPRING, ELSET=WK_3070

2.453384e-02
*ELEMENT, TYPE=SPRINGA, ELSET=WK_3071
   96256,    87660,   104417
*SPRING, ELSET=WK_3071

2.453384e-02
*ELEMENT, TYPE=SPRINGA, ELSET=WK_3072
   96257,    87665,   104418
*SPRING, ELSET=WK_3072

2.453384e-02
*ELEMENT, TYPE=SPRINGA, ELSET=WK_3073
   96258,    87670,   104419
*SPRING, ELSET=WK_3073

2.453384e-02
*ELEMENT, TYPE=SPRINGA, ELSET=WK_3074
   96259,    87675,   104420
*SPRING, ELSET=WK_3074

2.453384e-02
*ELEMENT, TYPE=SPRINGA, ELSET=WK_3075
   96260,    87680,   104421
*SPRING, ELSET=WK_3075

2.453384e-02
*ELEMENT, TYPE=SPRINGA, ELSET=WK_3076
   96261,    87685,   104422
*SPRING, ELSET=WK_3076

2.453384e-02
*ELEMENT, TYPE=SPRINGA, ELSET=WK_3077
   96262,    87690,   104423
*SPRING, ELSET=WK_3077

2.453384e-02
*ELEMENT, TYPE=SPRINGA, ELSET=WK_3078
   96263,    87695,   104424
*SPRING, ELSET=WK_3078

2.453384e-02
*ELEMENT, TYPE=SPRINGA, ELSET=WK_3079
   96264,    87700,   104425
*SPRING, ELSET=WK_3079

2.453384e-02
*ELEMENT, TYPE=SPRINGA, ELSET=WK_3080
   96265,    87705,   104426
*SPRING, ELSET=WK_3080

2.453384e-02
*ELEMENT, TYPE=SPRINGA, ELSET=WK_3081
   96266,    87710,   104427
*SPRING, ELSET=WK_3081

2.453384e-02
*ELEMENT, TYPE=SPRINGA, ELSET=WK_3082
   96267,    87715,   104428
*SPRING, ELSET=WK_3082

2.453384e-02
*ELEMENT, TYPE=SPRINGA, ELSET=WK_3083
   96268,    87720,   104429
*SPRING, ELSET=WK_3083

2.453384e-02
*ELEMENT, TYPE=SPRINGA, ELSET=WK_3084
   96269,    87725,   104430
*SPRING, ELSET=WK_3084

2.453384e-02
*ELEMENT, TYPE=SPRINGA, ELSET=WK_3085
   96270,    87730,   104431
*SPRING, ELSET=WK_3085

2.453384e-02
*ELEMENT, TYPE=SPRINGA, ELSET=WK_3086
   96271,    87735,   104432
*SPRING, ELSET=WK_3086

2.453384e-02
*ELEMENT, TYPE=SPRINGA, ELSET=WK_3087
   96272,    87740,   104433
*SPRING, ELSET=WK_3087

2.453384e-02
*ELEMENT, TYPE=SPRINGA, ELSET=WK_3088
   96273,    87745,   104434
*SPRING, ELSET=WK_3088

2.453384e-02
*ELEMENT, TYPE=SPRINGA, ELSET=WK_3089
   96274,    87750,   104435
*SPRING, ELSET=WK_3089

2.453384e-02
*ELEMENT, TYPE=SPRINGA, ELSET=WK_3090
   96275,    87755,   104436
*SPRING, ELSET=WK_3090

2.453384e-02
*ELEMENT, TYPE=SPRINGA, ELSET=WK_3091
   96276,    87760,   104437
*SPRING, ELSET=WK_3091

2.453384e-02
*ELEMENT, TYPE=SPRINGA, ELSET=WK_3092
   96277,    87765,   104438
*SPRING, ELSET=WK_3092

2.453384e-02
*ELEMENT, TYPE=SPRINGA, ELSET=WK_3093
   96278,    87770,   104439
*SPRING, ELSET=WK_3093

2.453384e-02
*ELEMENT, TYPE=SPRINGA, ELSET=WK_3094
   96279,    87775,   104440
*SPRING, ELSET=WK_3094

2.453384e-02
*ELEMENT, TYPE=SPRINGA, ELSET=WK_3095
   96280,    87780,   104441
*SPRING, ELSET=WK_3095

2.453384e-02
*ELEMENT, TYPE=SPRINGA, ELSET=WK_3096
   96281,    87785,   104442
*SPRING, ELSET=WK_3096

2.453384e-02
*ELEMENT, TYPE=SPRINGA, ELSET=WK_3097
   96282,    87790,   104443
*SPRING, ELSET=WK_3097

2.453384e-02
*ELEMENT, TYPE=SPRINGA, ELSET=WK_3098
   96283,    87795,   104444
*SPRING, ELSET=WK_3098

2.453384e-02
*ELEMENT, TYPE=SPRINGA, ELSET=WK_3099
   96284,    87800,   104445
*SPRING, ELSET=WK_3099

2.453384e-02
*ELEMENT, TYPE=SPRINGA, ELSET=WK_3100
   96285,    87805,   104446
*SPRING, ELSET=WK_3100

2.453384e-02
*ELEMENT, TYPE=SPRINGA, ELSET=WK_3101
   96286,    87810,   104447
*SPRING, ELSET=WK_3101

2.453384e-02
*ELEMENT, TYPE=SPRINGA, ELSET=WK_3102
   96287,    87815,   104448
*SPRING, ELSET=WK_3102

2.453384e-02
*ELEMENT, TYPE=SPRINGA, ELSET=WK_3103
   96288,    87820,   104449
*SPRING, ELSET=WK_3103

2.453384e-02
*ELEMENT, TYPE=SPRINGA, ELSET=WK_3104
   96289,    87825,   104450
*SPRING, ELSET=WK_3104

2.453384e-02
*ELEMENT, TYPE=SPRINGA, ELSET=WK_3105
   96290,    87830,   104451
*SPRING, ELSET=WK_3105

2.453384e-02
*ELEMENT, TYPE=SPRINGA, ELSET=WK_3106
   96291,    87835,   104452
*SPRING, ELSET=WK_3106

2.453384e-02
*ELEMENT, TYPE=SPRINGA, ELSET=WK_3107
   96292,    87840,   104453
*SPRING, ELSET=WK_3107

2.453384e-02
*ELEMENT, TYPE=SPRINGA, ELSET=WK_3108
   96293,    87845,   104454
*SPRING, ELSET=WK_3108

2.453384e-02
*ELEMENT, TYPE=SPRINGA, ELSET=WK_3109
   96294,    87850,   104455
*SPRING, ELSET=WK_3109

2.453384e-02
*ELEMENT, TYPE=SPRINGA, ELSET=WK_3110
   96295,    87855,   104456
*SPRING, ELSET=WK_3110

2.453384e-02
*ELEMENT, TYPE=SPRINGA, ELSET=WK_3111
   96296,    87860,   104457
*SPRING, ELSET=WK_3111

2.453384e-02
*ELEMENT, TYPE=SPRINGA, ELSET=WK_3112
   96297,    87865,   104458
*SPRING, ELSET=WK_3112

2.453384e-02
*ELEMENT, TYPE=SPRINGA, ELSET=WK_3113
   96298,    87870,   104459
*SPRING, ELSET=WK_3113

2.453384e-02
*ELEMENT, TYPE=SPRINGA, ELSET=WK_3114
   96299,    87875,   104460
*SPRING, ELSET=WK_3114

2.453384e-02
*ELEMENT, TYPE=SPRINGA, ELSET=WK_3115
   96300,    87880,   104461
*SPRING, ELSET=WK_3115

2.453384e-02
*ELEMENT, TYPE=SPRINGA, ELSET=WK_3116
   96301,    87885,   104462
*SPRING, ELSET=WK_3116

2.453384e-02
*ELEMENT, TYPE=SPRINGA, ELSET=WK_3117
   96302,    87890,   104463
*SPRING, ELSET=WK_3117

2.453384e-02
*ELEMENT, TYPE=SPRINGA, ELSET=WK_3118
   96303,    87895,   104464
*SPRING, ELSET=WK_3118

2.453384e-02
*ELEMENT, TYPE=SPRINGA, ELSET=WK_3119
   96304,    87900,   104465
*SPRING, ELSET=WK_3119

2.453384e-02
*ELEMENT, TYPE=SPRINGA, ELSET=WK_3120
   96305,    87905,   104466
*SPRING, ELSET=WK_3120

2.453384e-02
*ELEMENT, TYPE=SPRINGA, ELSET=WK_3121
   96306,    87910,   104467
*SPRING, ELSET=WK_3121

2.453384e-02
*ELEMENT, TYPE=SPRINGA, ELSET=WK_3122
   96307,    87915,   104468
*SPRING, ELSET=WK_3122

2.453384e-02
*ELEMENT, TYPE=SPRINGA, ELSET=WK_3123
   96308,    87920,   104469
*SPRING, ELSET=WK_3123

2.453384e-02
*ELEMENT, TYPE=SPRINGA, ELSET=WK_3124
   96309,    87925,   104470
*SPRING, ELSET=WK_3124

2.453384e-02
*ELEMENT, TYPE=SPRINGA, ELSET=WK_3125
   96310,    87930,   104471
*SPRING, ELSET=WK_3125

2.453384e-02
*ELEMENT, TYPE=SPRINGA, ELSET=WK_3126
   96311,    87935,   104472
*SPRING, ELSET=WK_3126

2.453384e-02
*ELEMENT, TYPE=SPRINGA, ELSET=WK_3127
   96312,    87940,   104473
*SPRING, ELSET=WK_3127

2.453384e-02
*ELEMENT, TYPE=SPRINGA, ELSET=WK_3128
   96313,    87945,   104474
*SPRING, ELSET=WK_3128

2.453384e-02
*ELEMENT, TYPE=SPRINGA, ELSET=WK_3129
   96314,    87950,   104475
*SPRING, ELSET=WK_3129

2.453384e-02
*ELEMENT, TYPE=SPRINGA, ELSET=WK_3130
   96315,    87955,   104476
*SPRING, ELSET=WK_3130

2.453384e-02
*ELEMENT, TYPE=SPRINGA, ELSET=WK_3131
   96316,    87960,   104477
*SPRING, ELSET=WK_3131

2.453384e-02
*ELEMENT, TYPE=SPRINGA, ELSET=WK_3132
   96317,    87965,   104478
*SPRING, ELSET=WK_3132

2.453384e-02
*ELEMENT, TYPE=SPRINGA, ELSET=WK_3133
   96318,    87970,   104479
*SPRING, ELSET=WK_3133

2.453384e-02
*ELEMENT, TYPE=SPRINGA, ELSET=WK_3134
   96319,    87975,   104480
*SPRING, ELSET=WK_3134

2.453384e-02
*ELEMENT, TYPE=SPRINGA, ELSET=WK_3135
   96320,    87980,   104481
*SPRING, ELSET=WK_3135

2.453384e-02
*ELEMENT, TYPE=SPRINGA, ELSET=WK_3136
   96321,    87985,   104482
*SPRING, ELSET=WK_3136

2.453384e-02
*ELEMENT, TYPE=SPRINGA, ELSET=WK_3137
   96322,    87990,   104483
*SPRING, ELSET=WK_3137

2.453384e-02
*ELEMENT, TYPE=SPRINGA, ELSET=WK_3138
   96323,    87995,   104484
*SPRING, ELSET=WK_3138

2.453384e-02
*ELEMENT, TYPE=SPRINGA, ELSET=WK_3139
   96324,    88000,   104485
*SPRING, ELSET=WK_3139

2.453384e-02
*ELEMENT, TYPE=SPRINGA, ELSET=WK_3140
   96325,    88005,   104486
*SPRING, ELSET=WK_3140

2.453384e-02
*ELEMENT, TYPE=SPRINGA, ELSET=WK_3141
   96326,    88010,   104487
*SPRING, ELSET=WK_3141

2.453384e-02
*ELEMENT, TYPE=SPRINGA, ELSET=WK_3142
   96327,    88015,   104488
*SPRING, ELSET=WK_3142

2.453384e-02
*ELEMENT, TYPE=SPRINGA, ELSET=WK_3143
   96328,    88020,   104489
*SPRING, ELSET=WK_3143

2.453384e-02
*ELEMENT, TYPE=SPRINGA, ELSET=WK_3144
   96329,    88025,   104490
*SPRING, ELSET=WK_3144

2.453384e-02
*ELEMENT, TYPE=SPRINGA, ELSET=WK_3145
   96330,    88030,   104491
*SPRING, ELSET=WK_3145

2.453384e-02
*ELEMENT, TYPE=SPRINGA, ELSET=WK_3146
   96331,    88035,   104492
*SPRING, ELSET=WK_3146

2.453384e-02
*ELEMENT, TYPE=SPRINGA, ELSET=WK_3147
   96332,    88040,   104493
*SPRING, ELSET=WK_3147

2.453384e-02
*ELEMENT, TYPE=SPRINGA, ELSET=WK_3148
   96333,    88045,   104494
*SPRING, ELSET=WK_3148

2.453384e-02
*ELEMENT, TYPE=SPRINGA, ELSET=WK_3149
   96334,    88050,   104495
*SPRING, ELSET=WK_3149

2.453384e-02
*ELEMENT, TYPE=SPRINGA, ELSET=WK_3150
   96335,    88055,   104496
*SPRING, ELSET=WK_3150

2.453384e-02
*ELEMENT, TYPE=SPRINGA, ELSET=WK_3151
   96336,    88060,   104497
*SPRING, ELSET=WK_3151

2.453384e-02
*ELEMENT, TYPE=SPRINGA, ELSET=WK_3152
   96337,    88065,   104498
*SPRING, ELSET=WK_3152

2.453384e-02
*ELEMENT, TYPE=SPRINGA, ELSET=WK_3153
   96338,    88070,   104499
*SPRING, ELSET=WK_3153

2.453384e-02
*ELEMENT, TYPE=SPRINGA, ELSET=WK_3154
   96339,    88075,   104500
*SPRING, ELSET=WK_3154

2.453384e-02
*ELEMENT, TYPE=SPRINGA, ELSET=WK_3155
   96340,    88080,   104501
*SPRING, ELSET=WK_3155

2.453384e-02
*ELEMENT, TYPE=SPRINGA, ELSET=WK_3156
   96341,    88085,   104502
*SPRING, ELSET=WK_3156

2.453384e-02
*ELEMENT, TYPE=SPRINGA, ELSET=WK_3157
   96342,    88090,   104503
*SPRING, ELSET=WK_3157

2.453384e-02
*ELEMENT, TYPE=SPRINGA, ELSET=WK_3158
   96343,    88095,   104504
*SPRING, ELSET=WK_3158

2.453384e-02
*ELEMENT, TYPE=SPRINGA, ELSET=WK_3159
   96344,    88100,   104505
*SPRING, ELSET=WK_3159

2.453384e-02
*ELEMENT, TYPE=SPRINGA, ELSET=WK_3160
   96345,    88105,   104506
*SPRING, ELSET=WK_3160

2.453384e-02
*ELEMENT, TYPE=SPRINGA, ELSET=WK_3161
   96346,    88110,   104507
*SPRING, ELSET=WK_3161

2.453384e-02
*ELEMENT, TYPE=SPRINGA, ELSET=WK_3162
   96347,    88115,   104508
*SPRING, ELSET=WK_3162

2.453384e-02
*ELEMENT, TYPE=SPRINGA, ELSET=WK_3163
   96348,    88120,   104509
*SPRING, ELSET=WK_3163

2.453384e-02
*ELEMENT, TYPE=SPRINGA, ELSET=WK_3164
   96349,    88125,   104510
*SPRING, ELSET=WK_3164

2.453384e-02
*ELEMENT, TYPE=SPRINGA, ELSET=WK_3165
   96350,    88130,   104511
*SPRING, ELSET=WK_3165

2.453384e-02
*ELEMENT, TYPE=SPRINGA, ELSET=WK_3166
   96351,    88135,   104512
*SPRING, ELSET=WK_3166

2.453384e-02
*ELEMENT, TYPE=SPRINGA, ELSET=WK_3167
   96352,    88140,   104513
*SPRING, ELSET=WK_3167

2.453384e-02
*ELEMENT, TYPE=SPRINGA, ELSET=WK_3168
   96353,    88145,   104514
*SPRING, ELSET=WK_3168

2.453384e-02
*ELEMENT, TYPE=SPRINGA, ELSET=WK_3169
   96354,    88150,   104515
*SPRING, ELSET=WK_3169

2.453384e-02
*ELEMENT, TYPE=SPRINGA, ELSET=WK_3170
   96355,    88155,   104516
*SPRING, ELSET=WK_3170

2.453384e-02
*ELEMENT, TYPE=SPRINGA, ELSET=WK_3171
   96356,    88160,   104517
*SPRING, ELSET=WK_3171

2.453384e-02
*ELEMENT, TYPE=SPRINGA, ELSET=WK_3172
   96357,    88165,   104518
*SPRING, ELSET=WK_3172

2.453384e-02
*ELEMENT, TYPE=SPRINGA, ELSET=WK_3173
   96358,    88170,   104519
*SPRING, ELSET=WK_3173

2.453384e-02
*ELEMENT, TYPE=SPRINGA, ELSET=WK_3174
   96359,    88175,   104520
*SPRING, ELSET=WK_3174

2.453384e-02
*ELEMENT, TYPE=SPRINGA, ELSET=WK_3175
   96360,    88180,   104521
*SPRING, ELSET=WK_3175

2.453384e-02
*ELEMENT, TYPE=SPRINGA, ELSET=WK_3176
   96361,    88185,   104522
*SPRING, ELSET=WK_3176

2.453384e-02
*ELEMENT, TYPE=SPRINGA, ELSET=WK_3177
   96362,    88190,   104523
*SPRING, ELSET=WK_3177

2.453384e-02
*ELEMENT, TYPE=SPRINGA, ELSET=WK_3178
   96363,    88195,   104524
*SPRING, ELSET=WK_3178

2.453384e-02
*ELEMENT, TYPE=SPRINGA, ELSET=WK_3179
   96364,    88200,   104525
*SPRING, ELSET=WK_3179

2.453384e-02
*ELEMENT, TYPE=SPRINGA, ELSET=WK_3180
   96365,    88205,   104526
*SPRING, ELSET=WK_3180

2.453384e-02
*ELEMENT, TYPE=SPRINGA, ELSET=WK_3181
   96366,    88210,   104527
*SPRING, ELSET=WK_3181

2.453384e-02
*ELEMENT, TYPE=SPRINGA, ELSET=WK_3182
   96367,    88215,   104528
*SPRING, ELSET=WK_3182

2.453384e-02
*ELEMENT, TYPE=SPRINGA, ELSET=WK_3183
   96368,    88220,   104529
*SPRING, ELSET=WK_3183

2.453384e-02
*ELEMENT, TYPE=SPRINGA, ELSET=WK_3184
   96369,    88225,   104530
*SPRING, ELSET=WK_3184

2.453384e-02
*ELEMENT, TYPE=SPRINGA, ELSET=WK_3185
   96370,    88230,   104531
*SPRING, ELSET=WK_3185

2.453384e-02
*ELEMENT, TYPE=SPRINGA, ELSET=WK_3186
   96371,    88235,   104532
*SPRING, ELSET=WK_3186

2.453384e-02
*ELEMENT, TYPE=SPRINGA, ELSET=WK_3187
   96372,    88240,   104533
*SPRING, ELSET=WK_3187

2.453384e-02
*ELEMENT, TYPE=SPRINGA, ELSET=WK_3188
   96373,    88245,   104534
*SPRING, ELSET=WK_3188

2.453384e-02
*ELEMENT, TYPE=SPRINGA, ELSET=WK_3189
   96374,    88250,   104535
*SPRING, ELSET=WK_3189

2.453384e-02
*ELEMENT, TYPE=SPRINGA, ELSET=WK_3190
   96375,    88255,   104536
*SPRING, ELSET=WK_3190

2.453384e-02
*ELEMENT, TYPE=SPRINGA, ELSET=WK_3191
   96376,    88260,   104537
*SPRING, ELSET=WK_3191

2.453384e-02
*ELEMENT, TYPE=SPRINGA, ELSET=WK_3192
   96377,    88265,   104538
*SPRING, ELSET=WK_3192

2.453384e-02
*ELEMENT, TYPE=SPRINGA, ELSET=WK_3193
   96378,    88270,   104539
*SPRING, ELSET=WK_3193

2.453384e-02
*ELEMENT, TYPE=SPRINGA, ELSET=WK_3194
   96379,    88275,   104540
*SPRING, ELSET=WK_3194

2.453384e-02
*ELEMENT, TYPE=SPRINGA, ELSET=WK_3195
   96380,    88280,   104541
*SPRING, ELSET=WK_3195

2.453384e-02
*ELEMENT, TYPE=SPRINGA, ELSET=WK_3196
   96381,    88285,   104542
*SPRING, ELSET=WK_3196

2.453384e-02
*ELEMENT, TYPE=SPRINGA, ELSET=WK_3197
   96382,    88290,   104543
*SPRING, ELSET=WK_3197

2.453384e-02
*ELEMENT, TYPE=SPRINGA, ELSET=WK_3198
   96383,    88295,   104544
*SPRING, ELSET=WK_3198

2.453384e-02
*ELEMENT, TYPE=SPRINGA, ELSET=WK_3199
   96384,    88300,   104545
*SPRING, ELSET=WK_3199

2.453384e-02
*ELEMENT, TYPE=SPRINGA, ELSET=WK_3200
   96385,    88305,   104546
*SPRING, ELSET=WK_3200

2.453384e-02
*ELEMENT, TYPE=SPRINGA, ELSET=WK_3201
   96386,    88310,   104547
*SPRING, ELSET=WK_3201

2.453384e-02
*ELEMENT, TYPE=SPRINGA, ELSET=WK_3202
   96387,    88315,   104548
*SPRING, ELSET=WK_3202

2.453384e-02
*ELEMENT, TYPE=SPRINGA, ELSET=WK_3203
   96388,    88320,   104549
*SPRING, ELSET=WK_3203

2.453384e-02
*ELEMENT, TYPE=SPRINGA, ELSET=WK_3204
   96389,    88325,   104550
*SPRING, ELSET=WK_3204

2.453384e-02
*ELEMENT, TYPE=SPRINGA, ELSET=WK_3205
   96390,    88330,   104551
*SPRING, ELSET=WK_3205

2.453384e-02
*ELEMENT, TYPE=SPRINGA, ELSET=WK_3206
   96391,    88335,   104552
*SPRING, ELSET=WK_3206

2.453384e-02
*ELEMENT, TYPE=SPRINGA, ELSET=WK_3207
   96392,    88340,   104553
*SPRING, ELSET=WK_3207

2.453384e-02
*ELEMENT, TYPE=SPRINGA, ELSET=WK_3208
   96393,    88345,   104554
*SPRING, ELSET=WK_3208

2.453384e-02
*ELEMENT, TYPE=SPRINGA, ELSET=WK_3209
   96394,    88350,   104555
*SPRING, ELSET=WK_3209

2.453384e-02
*ELEMENT, TYPE=SPRINGA, ELSET=WK_3210
   96395,    88355,   104556
*SPRING, ELSET=WK_3210

2.453384e-02
*ELEMENT, TYPE=SPRINGA, ELSET=WK_3211
   96396,    88360,   104557
*SPRING, ELSET=WK_3211

2.453384e-02
*ELEMENT, TYPE=SPRINGA, ELSET=WK_3212
   96397,    88365,   104558
*SPRING, ELSET=WK_3212

2.453384e-02
*ELEMENT, TYPE=SPRINGA, ELSET=WK_3213
   96398,    88370,   104559
*SPRING, ELSET=WK_3213

2.453384e-02
*ELEMENT, TYPE=SPRINGA, ELSET=WK_3214
   96399,    88375,   104560
*SPRING, ELSET=WK_3214

2.453384e-02
*ELEMENT, TYPE=SPRINGA, ELSET=WK_3215
   96400,    88380,   104561
*SPRING, ELSET=WK_3215

2.453384e-02
*ELEMENT, TYPE=SPRINGA, ELSET=WK_3216
   96401,    88385,   104562
*SPRING, ELSET=WK_3216

2.453384e-02
*ELEMENT, TYPE=SPRINGA, ELSET=WK_3217
   96402,    88390,   104563
*SPRING, ELSET=WK_3217

2.453384e-02
*ELEMENT, TYPE=SPRINGA, ELSET=WK_3218
   96403,    88395,   104564
*SPRING, ELSET=WK_3218

2.453384e-02
*ELEMENT, TYPE=SPRINGA, ELSET=WK_3219
   96404,    88400,   104565
*SPRING, ELSET=WK_3219

2.453384e-02
*ELEMENT, TYPE=SPRINGA, ELSET=WK_3220
   96405,    88405,   104566
*SPRING, ELSET=WK_3220

2.453384e-02
*ELEMENT, TYPE=SPRINGA, ELSET=WK_3221
   96406,    88410,   104567
*SPRING, ELSET=WK_3221

2.453384e-02
*ELEMENT, TYPE=SPRINGA, ELSET=WK_3222
   96407,    88415,   104568
*SPRING, ELSET=WK_3222

2.453384e-02
*ELEMENT, TYPE=SPRINGA, ELSET=WK_3223
   96408,    88420,   104569
*SPRING, ELSET=WK_3223

2.453384e-02
*ELEMENT, TYPE=SPRINGA, ELSET=WK_3224
   96409,    88425,   104570
*SPRING, ELSET=WK_3224

2.453384e-02
*ELEMENT, TYPE=SPRINGA, ELSET=WK_3225
   96410,    88430,   104571
*SPRING, ELSET=WK_3225

2.453384e-02
*ELEMENT, TYPE=SPRINGA, ELSET=WK_3226
   96411,    88435,   104572
*SPRING, ELSET=WK_3226

2.453384e-02
*ELEMENT, TYPE=SPRINGA, ELSET=WK_3227
   96412,    88440,   104573
*SPRING, ELSET=WK_3227

2.453384e-02
*ELEMENT, TYPE=SPRINGA, ELSET=WK_3228
   96413,    88445,   104574
*SPRING, ELSET=WK_3228

2.453384e-02
*ELEMENT, TYPE=SPRINGA, ELSET=WK_3229
   96414,    88450,   104575
*SPRING, ELSET=WK_3229

2.453384e-02
*ELEMENT, TYPE=SPRINGA, ELSET=WK_3230
   96415,    88455,   104576
*SPRING, ELSET=WK_3230

2.453384e-02
*ELEMENT, TYPE=SPRINGA, ELSET=WK_3231
   96416,    88460,   104577
*SPRING, ELSET=WK_3231

2.453384e-02
*ELEMENT, TYPE=SPRINGA, ELSET=WK_3232
   96417,    88465,   104578
*SPRING, ELSET=WK_3232

2.453384e-02
*ELEMENT, TYPE=SPRINGA, ELSET=WK_3233
   96418,    88470,   104579
*SPRING, ELSET=WK_3233

2.453384e-02
*ELEMENT, TYPE=SPRINGA, ELSET=WK_3234
   96419,    88475,   104580
*SPRING, ELSET=WK_3234

2.453384e-02
*ELEMENT, TYPE=SPRINGA, ELSET=WK_3235
   96420,    88480,   104581
*SPRING, ELSET=WK_3235

2.453384e-02
*ELEMENT, TYPE=SPRINGA, ELSET=WK_3236
   96421,    88485,   104582
*SPRING, ELSET=WK_3236

2.453384e-02
*ELEMENT, TYPE=SPRINGA, ELSET=WK_3237
   96422,    88490,   104583
*SPRING, ELSET=WK_3237

2.453384e-02
*ELEMENT, TYPE=SPRINGA, ELSET=WK_3238
   96423,    88495,   104584
*SPRING, ELSET=WK_3238

2.453384e-02
*ELEMENT, TYPE=SPRINGA, ELSET=WK_3239
   96424,    88500,   104585
*SPRING, ELSET=WK_3239

2.453384e-02
*ELEMENT, TYPE=SPRINGA, ELSET=WK_3240
   96425,    88505,   104586
*SPRING, ELSET=WK_3240

2.453384e-02
*ELEMENT, TYPE=SPRINGA, ELSET=WK_3241
   96426,    88510,   104587
*SPRING, ELSET=WK_3241

2.453384e-02
*ELEMENT, TYPE=SPRINGA, ELSET=WK_3242
   96427,    88515,   104588
*SPRING, ELSET=WK_3242

2.453384e-02
*ELEMENT, TYPE=SPRINGA, ELSET=WK_3243
   96428,    88520,   104589
*SPRING, ELSET=WK_3243

2.453384e-02
*ELEMENT, TYPE=SPRINGA, ELSET=WK_3244
   96429,    88525,   104590
*SPRING, ELSET=WK_3244

2.453384e-02
*ELEMENT, TYPE=SPRINGA, ELSET=WK_3245
   96430,    88530,   104591
*SPRING, ELSET=WK_3245

2.453384e-02
*ELEMENT, TYPE=SPRINGA, ELSET=WK_3246
   96431,    88535,   104592
*SPRING, ELSET=WK_3246

2.453384e-02
*ELEMENT, TYPE=SPRINGA, ELSET=WK_3247
   96432,    88540,   104593
*SPRING, ELSET=WK_3247

2.453384e-02
*ELEMENT, TYPE=SPRINGA, ELSET=WK_3248
   96433,    88545,   104594
*SPRING, ELSET=WK_3248

2.453384e-02
*ELEMENT, TYPE=SPRINGA, ELSET=WK_3249
   96434,    88550,   104595
*SPRING, ELSET=WK_3249

2.453384e-02
*ELEMENT, TYPE=SPRINGA, ELSET=WK_3250
   96435,    88555,   104596
*SPRING, ELSET=WK_3250

2.453384e-02
*ELEMENT, TYPE=SPRINGA, ELSET=WK_3251
   96436,    88560,   104597
*SPRING, ELSET=WK_3251

2.453384e-02
*ELEMENT, TYPE=SPRINGA, ELSET=WK_3252
   96437,    88565,   104598
*SPRING, ELSET=WK_3252

2.453384e-02
*ELEMENT, TYPE=SPRINGA, ELSET=WK_3253
   96438,    88570,   104599
*SPRING, ELSET=WK_3253

2.453384e-02
*ELEMENT, TYPE=SPRINGA, ELSET=WK_3254
   96439,    88575,   104600
*SPRING, ELSET=WK_3254

2.453384e-02
*ELEMENT, TYPE=SPRINGA, ELSET=WK_3255
   96440,    88580,   104601
*SPRING, ELSET=WK_3255

2.453384e-02
*ELEMENT, TYPE=SPRINGA, ELSET=WK_3256
   96441,    88585,   104602
*SPRING, ELSET=WK_3256

2.453384e-02
*ELEMENT, TYPE=SPRINGA, ELSET=WK_3257
   96442,    88590,   104603
*SPRING, ELSET=WK_3257

2.453384e-02
*ELEMENT, TYPE=SPRINGA, ELSET=WK_3258
   96443,    88595,   104604
*SPRING, ELSET=WK_3258

2.453384e-02
*ELEMENT, TYPE=SPRINGA, ELSET=WK_3259
   96444,    88600,   104605
*SPRING, ELSET=WK_3259

2.453384e-02
*ELEMENT, TYPE=SPRINGA, ELSET=WK_3260
   96445,    88605,   104606
*SPRING, ELSET=WK_3260

2.453384e-02
*ELEMENT, TYPE=SPRINGA, ELSET=WK_3261
   96446,    88610,   104607
*SPRING, ELSET=WK_3261

2.453384e-02
*ELEMENT, TYPE=SPRINGA, ELSET=WK_3262
   96447,    88615,   104608
*SPRING, ELSET=WK_3262

2.453384e-02
*ELEMENT, TYPE=SPRINGA, ELSET=WK_3263
   96448,    88620,   104609
*SPRING, ELSET=WK_3263

2.453384e-02
*ELEMENT, TYPE=SPRINGA, ELSET=WK_3264
   96449,    88625,   104610
*SPRING, ELSET=WK_3264

2.453384e-02
*ELEMENT, TYPE=SPRINGA, ELSET=WK_3265
   96450,    88630,   104611
*SPRING, ELSET=WK_3265

2.453384e-02
*ELEMENT, TYPE=SPRINGA, ELSET=WK_3266
   96451,    88635,   104612
*SPRING, ELSET=WK_3266

2.453384e-02
*ELEMENT, TYPE=SPRINGA, ELSET=WK_3267
   96452,    88640,   104613
*SPRING, ELSET=WK_3267

2.453384e-02
*ELEMENT, TYPE=SPRINGA, ELSET=WK_3268
   96453,    88645,   104614
*SPRING, ELSET=WK_3268

2.453384e-02
*ELEMENT, TYPE=SPRINGA, ELSET=WK_3269
   96454,    88650,   104615
*SPRING, ELSET=WK_3269

2.453384e-02
*ELEMENT, TYPE=SPRINGA, ELSET=WK_3270
   96455,    88655,   104616
*SPRING, ELSET=WK_3270

2.453384e-02
*ELEMENT, TYPE=SPRINGA, ELSET=WK_3271
   96456,    88660,   104617
*SPRING, ELSET=WK_3271

2.453384e-02
*ELEMENT, TYPE=SPRINGA, ELSET=WK_3272
   96457,    88665,   104618
*SPRING, ELSET=WK_3272

2.453384e-02
*ELEMENT, TYPE=SPRINGA, ELSET=WK_3273
   96458,    88670,   104619
*SPRING, ELSET=WK_3273

2.453384e-02
*ELEMENT, TYPE=SPRINGA, ELSET=WK_3274
   96459,    88675,   104620
*SPRING, ELSET=WK_3274

2.453384e-02
*ELEMENT, TYPE=SPRINGA, ELSET=WK_3275
   96460,    88680,   104621
*SPRING, ELSET=WK_3275

2.453384e-02
*ELEMENT, TYPE=SPRINGA, ELSET=WK_3276
   96461,    88685,   104622
*SPRING, ELSET=WK_3276

2.453384e-02
*ELEMENT, TYPE=SPRINGA, ELSET=WK_3277
   96462,    88690,   104623
*SPRING, ELSET=WK_3277

2.453384e-02
*ELEMENT, TYPE=SPRINGA, ELSET=WK_3278
   96463,    88695,   104624
*SPRING, ELSET=WK_3278

2.453384e-02
*ELEMENT, TYPE=SPRINGA, ELSET=WK_3279
   96464,    88700,   104625
*SPRING, ELSET=WK_3279

2.453384e-02
*ELEMENT, TYPE=SPRINGA, ELSET=WK_3280
   96465,    88705,   104626
*SPRING, ELSET=WK_3280

2.453384e-02
*ELEMENT, TYPE=SPRINGA, ELSET=WK_3281
   96466,    88710,   104627
*SPRING, ELSET=WK_3281

2.453384e-02
*ELEMENT, TYPE=SPRINGA, ELSET=WK_3282
   96467,    88715,   104628
*SPRING, ELSET=WK_3282

2.453384e-02
*ELEMENT, TYPE=SPRINGA, ELSET=WK_3283
   96468,    88720,   104629
*SPRING, ELSET=WK_3283

2.453384e-02
*ELEMENT, TYPE=SPRINGA, ELSET=WK_3284
   96469,    88725,   104630
*SPRING, ELSET=WK_3284

2.453384e-02
*ELEMENT, TYPE=SPRINGA, ELSET=WK_3285
   96470,    88730,   104631
*SPRING, ELSET=WK_3285

2.453384e-02
*ELEMENT, TYPE=SPRINGA, ELSET=WK_3286
   96471,    88735,   104632
*SPRING, ELSET=WK_3286

2.453384e-02
*ELEMENT, TYPE=SPRINGA, ELSET=WK_3287
   96472,    88740,   104633
*SPRING, ELSET=WK_3287

2.453384e-02
*ELEMENT, TYPE=SPRINGA, ELSET=WK_3288
   96473,    88745,   104634
*SPRING, ELSET=WK_3288

2.453384e-02
*ELEMENT, TYPE=SPRINGA, ELSET=WK_3289
   96474,    88750,   104635
*SPRING, ELSET=WK_3289

2.453384e-02
*ELEMENT, TYPE=SPRINGA, ELSET=WK_3290
   96475,    88755,   104636
*SPRING, ELSET=WK_3290

2.453384e-02
*ELEMENT, TYPE=SPRINGA, ELSET=WK_3291
   96476,    88760,   104637
*SPRING, ELSET=WK_3291

2.453384e-02
*ELEMENT, TYPE=SPRINGA, ELSET=WK_3292
   96477,    88765,   104638
*SPRING, ELSET=WK_3292

2.453384e-02
*ELEMENT, TYPE=SPRINGA, ELSET=WK_3293
   96478,    88770,   104639
*SPRING, ELSET=WK_3293

2.453384e-02
*ELEMENT, TYPE=SPRINGA, ELSET=WK_3294
   96479,    88775,   104640
*SPRING, ELSET=WK_3294

2.453384e-02
*ELEMENT, TYPE=SPRINGA, ELSET=WK_3295
   96480,    88780,   104641
*SPRING, ELSET=WK_3295

2.453384e-02
*ELEMENT, TYPE=SPRINGA, ELSET=WK_3296
   96481,    88785,   104642
*SPRING, ELSET=WK_3296

2.453384e-02
*ELEMENT, TYPE=SPRINGA, ELSET=WK_3297
   96482,    88790,   104643
*SPRING, ELSET=WK_3297

2.453384e-02
*ELEMENT, TYPE=SPRINGA, ELSET=WK_3298
   96483,    88795,   104644
*SPRING, ELSET=WK_3298

2.453384e-02
*ELEMENT, TYPE=SPRINGA, ELSET=WK_3299
   96484,    88800,   104645
*SPRING, ELSET=WK_3299

2.453384e-02
*ELEMENT, TYPE=SPRINGA, ELSET=WK_3300
   96485,    88805,   104646
*SPRING, ELSET=WK_3300

2.453384e-02
*ELEMENT, TYPE=SPRINGA, ELSET=WK_3301
   96486,    88810,   104647
*SPRING, ELSET=WK_3301

2.453384e-02
*ELEMENT, TYPE=SPRINGA, ELSET=WK_3302
   96487,    88815,   104648
*SPRING, ELSET=WK_3302

2.453384e-02
*ELEMENT, TYPE=SPRINGA, ELSET=WK_3303
   96488,    88820,   104649
*SPRING, ELSET=WK_3303

2.453384e-02
*ELEMENT, TYPE=SPRINGA, ELSET=WK_3304
   96489,    88825,   104650
*SPRING, ELSET=WK_3304

2.453384e-02
*ELEMENT, TYPE=SPRINGA, ELSET=WK_3305
   96490,    88830,   104651
*SPRING, ELSET=WK_3305

2.453384e-02
*ELEMENT, TYPE=SPRINGA, ELSET=WK_3306
   96491,    88835,   104652
*SPRING, ELSET=WK_3306

2.453384e-02
*ELEMENT, TYPE=SPRINGA, ELSET=WK_3307
   96492,    88840,   104653
*SPRING, ELSET=WK_3307

2.453384e-02
*ELEMENT, TYPE=SPRINGA, ELSET=WK_3308
   96493,    88845,   104654
*SPRING, ELSET=WK_3308

2.453384e-02
*ELEMENT, TYPE=SPRINGA, ELSET=WK_3309
   96494,    88850,   104655
*SPRING, ELSET=WK_3309

2.453384e-02
*ELEMENT, TYPE=SPRINGA, ELSET=WK_3310
   96495,    88855,   104656
*SPRING, ELSET=WK_3310

2.453384e-02
*ELEMENT, TYPE=SPRINGA, ELSET=WK_3311
   96496,    88860,   104657
*SPRING, ELSET=WK_3311

2.453384e-02
*ELEMENT, TYPE=SPRINGA, ELSET=WK_3312
   96497,    88865,   104658
*SPRING, ELSET=WK_3312

2.453384e-02
*ELEMENT, TYPE=SPRINGA, ELSET=WK_3313
   96498,    88870,   104659
*SPRING, ELSET=WK_3313

2.453384e-02
*ELEMENT, TYPE=SPRINGA, ELSET=WK_3314
   96499,    88875,   104660
*SPRING, ELSET=WK_3314

2.453384e-02
*ELEMENT, TYPE=SPRINGA, ELSET=WK_3315
   96500,    88880,   104661
*SPRING, ELSET=WK_3315

2.453384e-02
*ELEMENT, TYPE=SPRINGA, ELSET=WK_3316
   96501,    88885,   104662
*SPRING, ELSET=WK_3316

2.453384e-02
*ELEMENT, TYPE=SPRINGA, ELSET=WK_3317
   96502,    88890,   104663
*SPRING, ELSET=WK_3317

2.453384e-02
*ELEMENT, TYPE=SPRINGA, ELSET=WK_3318
   96503,    88895,   104664
*SPRING, ELSET=WK_3318

2.453384e-02
*ELEMENT, TYPE=SPRINGA, ELSET=WK_3319
   96504,    88900,   104665
*SPRING, ELSET=WK_3319

2.453384e-02
*ELEMENT, TYPE=SPRINGA, ELSET=WK_3320
   96505,    88905,   104666
*SPRING, ELSET=WK_3320

2.453384e-02
*ELEMENT, TYPE=SPRINGA, ELSET=WK_3321
   96506,    88910,   104667
*SPRING, ELSET=WK_3321

2.453384e-02
*ELEMENT, TYPE=SPRINGA, ELSET=WK_3322
   96507,    88915,   104668
*SPRING, ELSET=WK_3322

2.453384e-02
*ELEMENT, TYPE=SPRINGA, ELSET=WK_3323
   96508,    88920,   104669
*SPRING, ELSET=WK_3323

2.453384e-02
*ELEMENT, TYPE=SPRINGA, ELSET=WK_3324
   96509,    88925,   104670
*SPRING, ELSET=WK_3324

2.453384e-02
*ELEMENT, TYPE=SPRINGA, ELSET=WK_3325
   96510,    88930,   104671
*SPRING, ELSET=WK_3325

2.453384e-02
*ELEMENT, TYPE=SPRINGA, ELSET=WK_3326
   96511,    88935,   104672
*SPRING, ELSET=WK_3326

2.453384e-02
*ELEMENT, TYPE=SPRINGA, ELSET=WK_3327
   96512,    88940,   104673
*SPRING, ELSET=WK_3327

2.453384e-02
*ELEMENT, TYPE=SPRINGA, ELSET=WK_3328
   96513,    88945,   104674
*SPRING, ELSET=WK_3328

2.453384e-02
*ELEMENT, TYPE=SPRINGA, ELSET=WK_3329
   96514,    88950,   104675
*SPRING, ELSET=WK_3329

2.453384e-02
*ELEMENT, TYPE=SPRINGA, ELSET=WK_3330
   96515,    88955,   104676
*SPRING, ELSET=WK_3330

2.453384e-02
*ELEMENT, TYPE=SPRINGA, ELSET=WK_3331
   96516,    88960,   104677
*SPRING, ELSET=WK_3331

2.453384e-02
*ELEMENT, TYPE=SPRINGA, ELSET=WK_3332
   96517,    88965,   104678
*SPRING, ELSET=WK_3332

2.453384e-02
*ELEMENT, TYPE=SPRINGA, ELSET=WK_3333
   96518,    88970,   104679
*SPRING, ELSET=WK_3333

2.453384e-02
*ELEMENT, TYPE=SPRINGA, ELSET=WK_3334
   96519,    88975,   104680
*SPRING, ELSET=WK_3334

2.453384e-02
*ELEMENT, TYPE=SPRINGA, ELSET=WK_3335
   96520,    88980,   104681
*SPRING, ELSET=WK_3335

2.453384e-02
*ELEMENT, TYPE=SPRINGA, ELSET=WK_3336
   96521,    88985,   104682
*SPRING, ELSET=WK_3336

2.453384e-02
*ELEMENT, TYPE=SPRINGA, ELSET=WK_3337
   96522,    88990,   104683
*SPRING, ELSET=WK_3337

2.453384e-02
*ELEMENT, TYPE=SPRINGA, ELSET=WK_3338
   96523,    88995,   104684
*SPRING, ELSET=WK_3338

2.453384e-02
*ELEMENT, TYPE=SPRINGA, ELSET=WK_3339
   96524,    89000,   104685
*SPRING, ELSET=WK_3339

2.453384e-02
*ELEMENT, TYPE=SPRINGA, ELSET=WK_3340
   96525,    89005,   104686
*SPRING, ELSET=WK_3340

2.453384e-02
*ELEMENT, TYPE=SPRINGA, ELSET=WK_3341
   96526,    89010,   104687
*SPRING, ELSET=WK_3341

2.453384e-02
*ELEMENT, TYPE=SPRINGA, ELSET=WK_3342
   96527,    89015,   104688
*SPRING, ELSET=WK_3342

2.453384e-02
*ELEMENT, TYPE=SPRINGA, ELSET=WK_3343
   96528,    89020,   104689
*SPRING, ELSET=WK_3343

2.453384e-02
*ELEMENT, TYPE=SPRINGA, ELSET=WK_3344
   96529,    89025,   104690
*SPRING, ELSET=WK_3344

2.453384e-02
*ELEMENT, TYPE=SPRINGA, ELSET=WK_3345
   96530,    89030,   104691
*SPRING, ELSET=WK_3345

2.453384e-02
*ELEMENT, TYPE=SPRINGA, ELSET=WK_3346
   96531,    89035,   104692
*SPRING, ELSET=WK_3346

2.453384e-02
*ELEMENT, TYPE=SPRINGA, ELSET=WK_3347
   96532,    89040,   104693
*SPRING, ELSET=WK_3347

2.453384e-02
*ELEMENT, TYPE=SPRINGA, ELSET=WK_3348
   96533,    89045,   104694
*SPRING, ELSET=WK_3348

2.453384e-02
*ELEMENT, TYPE=SPRINGA, ELSET=WK_3349
   96534,    89050,   104695
*SPRING, ELSET=WK_3349

2.453384e-02
*ELEMENT, TYPE=SPRINGA, ELSET=WK_3350
   96535,    89055,   104696
*SPRING, ELSET=WK_3350

2.453384e-02
*ELEMENT, TYPE=SPRINGA, ELSET=WK_3351
   96536,    89060,   104697
*SPRING, ELSET=WK_3351

2.453384e-02
*ELEMENT, TYPE=SPRINGA, ELSET=WK_3352
   96537,    89065,   104698
*SPRING, ELSET=WK_3352

2.453384e-02
*ELEMENT, TYPE=SPRINGA, ELSET=WK_3353
   96538,    89070,   104699
*SPRING, ELSET=WK_3353

2.453384e-02
*ELEMENT, TYPE=SPRINGA, ELSET=WK_3354
   96539,    89075,   104700
*SPRING, ELSET=WK_3354

2.453384e-02
*ELEMENT, TYPE=SPRINGA, ELSET=WK_3355
   96540,    89080,   104701
*SPRING, ELSET=WK_3355

2.453384e-02
*ELEMENT, TYPE=SPRINGA, ELSET=WK_3356
   96541,    89085,   104702
*SPRING, ELSET=WK_3356

2.453384e-02
*ELEMENT, TYPE=SPRINGA, ELSET=WK_3357
   96542,    89090,   104703
*SPRING, ELSET=WK_3357

2.453384e-02
*ELEMENT, TYPE=SPRINGA, ELSET=WK_3358
   96543,    89095,   104704
*SPRING, ELSET=WK_3358

2.453384e-02
*ELEMENT, TYPE=SPRINGA, ELSET=WK_3359
   96544,    89100,   104705
*SPRING, ELSET=WK_3359

2.453384e-02
*ELEMENT, TYPE=SPRINGA, ELSET=WK_3360
   96545,    89105,   104706
*SPRING, ELSET=WK_3360

2.453384e-02
*ELEMENT, TYPE=SPRINGA, ELSET=WK_3361
   96546,    89110,   104707
*SPRING, ELSET=WK_3361

2.453384e-02
*ELEMENT, TYPE=SPRINGA, ELSET=WK_3362
   96547,    89115,   104708
*SPRING, ELSET=WK_3362

2.453384e-02
*ELEMENT, TYPE=SPRINGA, ELSET=WK_3363
   96548,    89120,   104709
*SPRING, ELSET=WK_3363

2.453384e-02
*ELEMENT, TYPE=SPRINGA, ELSET=WK_3364
   96549,    89125,   104710
*SPRING, ELSET=WK_3364

2.453384e-02
*ELEMENT, TYPE=SPRINGA, ELSET=WK_3365
   96550,    89130,   104711
*SPRING, ELSET=WK_3365

2.453384e-02
*ELEMENT, TYPE=SPRINGA, ELSET=WK_3366
   96551,    89135,   104712
*SPRING, ELSET=WK_3366

2.453384e-02
*ELEMENT, TYPE=SPRINGA, ELSET=WK_3367
   96552,    89140,   104713
*SPRING, ELSET=WK_3367

2.453384e-02
*ELEMENT, TYPE=SPRINGA, ELSET=WK_3368
   96553,    89145,   104714
*SPRING, ELSET=WK_3368

2.453384e-02
*ELEMENT, TYPE=SPRINGA, ELSET=WK_3369
   96554,    89150,   104715
*SPRING, ELSET=WK_3369

2.453384e-02
*ELEMENT, TYPE=SPRINGA, ELSET=WK_3370
   96555,    89155,   104716
*SPRING, ELSET=WK_3370

2.453384e-02
*ELEMENT, TYPE=SPRINGA, ELSET=WK_3371
   96556,    89160,   104717
*SPRING, ELSET=WK_3371

2.453384e-02
*ELEMENT, TYPE=SPRINGA, ELSET=WK_3372
   96557,    89165,   104718
*SPRING, ELSET=WK_3372

2.453384e-02
*ELEMENT, TYPE=SPRINGA, ELSET=WK_3373
   96558,    89170,   104719
*SPRING, ELSET=WK_3373

2.453384e-02
*ELEMENT, TYPE=SPRINGA, ELSET=WK_3374
   96559,    89175,   104720
*SPRING, ELSET=WK_3374

2.453384e-02
*ELEMENT, TYPE=SPRINGA, ELSET=WK_3375
   96560,    89180,   104721
*SPRING, ELSET=WK_3375

2.453384e-02
*ELEMENT, TYPE=SPRINGA, ELSET=WK_3376
   96561,    89185,   104722
*SPRING, ELSET=WK_3376

2.453384e-02
*ELEMENT, TYPE=SPRINGA, ELSET=WK_3377
   96562,    89190,   104723
*SPRING, ELSET=WK_3377

2.453384e-02
*ELEMENT, TYPE=SPRINGA, ELSET=WK_3378
   96563,    89195,   104724
*SPRING, ELSET=WK_3378

2.453384e-02
*ELEMENT, TYPE=SPRINGA, ELSET=WK_3379
   96564,    89200,   104725
*SPRING, ELSET=WK_3379

2.453384e-02
*ELEMENT, TYPE=SPRINGA, ELSET=WK_3380
   96565,    89205,   104726
*SPRING, ELSET=WK_3380

2.453384e-02
*ELEMENT, TYPE=SPRINGA, ELSET=WK_3381
   96566,    89210,   104727
*SPRING, ELSET=WK_3381

2.453384e-02
*ELEMENT, TYPE=SPRINGA, ELSET=WK_3382
   96567,    89215,   104728
*SPRING, ELSET=WK_3382

2.453384e-02
*ELEMENT, TYPE=SPRINGA, ELSET=WK_3383
   96568,    89220,   104729
*SPRING, ELSET=WK_3383

2.453384e-02
*ELEMENT, TYPE=SPRINGA, ELSET=WK_3384
   96569,    89225,   104730
*SPRING, ELSET=WK_3384

2.453384e-02
*ELEMENT, TYPE=SPRINGA, ELSET=WK_3385
   96570,    89230,   104731
*SPRING, ELSET=WK_3385

2.453384e-02
*ELEMENT, TYPE=SPRINGA, ELSET=WK_3386
   96571,    89235,   104732
*SPRING, ELSET=WK_3386

2.453384e-02
*ELEMENT, TYPE=SPRINGA, ELSET=WK_3387
   96572,    89240,   104733
*SPRING, ELSET=WK_3387

2.453384e-02
*ELEMENT, TYPE=SPRINGA, ELSET=WK_3388
   96573,    89245,   104734
*SPRING, ELSET=WK_3388

2.453384e-02
*ELEMENT, TYPE=SPRINGA, ELSET=WK_3389
   96574,    89250,   104735
*SPRING, ELSET=WK_3389

2.453384e-02
*ELEMENT, TYPE=SPRINGA, ELSET=WK_3390
   96575,    89255,   104736
*SPRING, ELSET=WK_3390

2.453384e-02
*ELEMENT, TYPE=SPRINGA, ELSET=WK_3391
   96576,    89260,   104737
*SPRING, ELSET=WK_3391

2.453384e-02
*ELEMENT, TYPE=SPRINGA, ELSET=WK_3392
   96577,    89265,   104738
*SPRING, ELSET=WK_3392

2.453384e-02
*ELEMENT, TYPE=SPRINGA, ELSET=WK_3393
   96578,    89270,   104739
*SPRING, ELSET=WK_3393

2.453384e-02
*ELEMENT, TYPE=SPRINGA, ELSET=WK_3394
   96579,    89275,   104740
*SPRING, ELSET=WK_3394

2.453384e-02
*ELEMENT, TYPE=SPRINGA, ELSET=WK_3395
   96580,    89280,   104741
*SPRING, ELSET=WK_3395

2.453384e-02
*ELEMENT, TYPE=SPRINGA, ELSET=WK_3396
   96581,    89285,   104742
*SPRING, ELSET=WK_3396

2.453384e-02
*ELEMENT, TYPE=SPRINGA, ELSET=WK_3397
   96582,    89290,   104743
*SPRING, ELSET=WK_3397

2.453384e-02
*ELEMENT, TYPE=SPRINGA, ELSET=WK_3398
   96583,    89295,   104744
*SPRING, ELSET=WK_3398

2.453384e-02
*ELEMENT, TYPE=SPRINGA, ELSET=WK_3399
   96584,    89300,   104745
*SPRING, ELSET=WK_3399

2.453384e-02
*ELEMENT, TYPE=SPRINGA, ELSET=WK_3400
   96585,    89305,   104746
*SPRING, ELSET=WK_3400

2.453384e-02
*ELEMENT, TYPE=SPRINGA, ELSET=WK_3401
   96586,    89310,   104747
*SPRING, ELSET=WK_3401

2.453384e-02
*ELEMENT, TYPE=SPRINGA, ELSET=WK_3402
   96587,    89315,   104748
*SPRING, ELSET=WK_3402

2.453384e-02
*ELEMENT, TYPE=SPRINGA, ELSET=WK_3403
   96588,    89320,   104749
*SPRING, ELSET=WK_3403

2.453384e-02
*ELEMENT, TYPE=SPRINGA, ELSET=WK_3404
   96589,    89325,   104750
*SPRING, ELSET=WK_3404

2.453384e-02
*ELEMENT, TYPE=SPRINGA, ELSET=WK_3405
   96590,    89330,   104751
*SPRING, ELSET=WK_3405

2.453384e-02
*ELEMENT, TYPE=SPRINGA, ELSET=WK_3406
   96591,    89335,   104752
*SPRING, ELSET=WK_3406

2.453384e-02
*ELEMENT, TYPE=SPRINGA, ELSET=WK_3407
   96592,    89340,   104753
*SPRING, ELSET=WK_3407

2.453384e-02
*ELEMENT, TYPE=SPRINGA, ELSET=WK_3408
   96593,    89345,   104754
*SPRING, ELSET=WK_3408

2.453384e-02
*ELEMENT, TYPE=SPRINGA, ELSET=WK_3409
   96594,    89350,   104755
*SPRING, ELSET=WK_3409

2.453384e-02
*ELEMENT, TYPE=SPRINGA, ELSET=WK_3410
   96595,    89355,   104756
*SPRING, ELSET=WK_3410

2.453384e-02
*ELEMENT, TYPE=SPRINGA, ELSET=WK_3411
   96596,    89360,   104757
*SPRING, ELSET=WK_3411

2.453384e-02
*ELEMENT, TYPE=SPRINGA, ELSET=WK_3412
   96597,    89365,   104758
*SPRING, ELSET=WK_3412

2.453384e-02
*ELEMENT, TYPE=SPRINGA, ELSET=WK_3413
   96598,    89370,   104759
*SPRING, ELSET=WK_3413

2.453384e-02
*ELEMENT, TYPE=SPRINGA, ELSET=WK_3414
   96599,    89375,   104760
*SPRING, ELSET=WK_3414

2.453384e-02
*ELEMENT, TYPE=SPRINGA, ELSET=WK_3415
   96600,    89380,   104761
*SPRING, ELSET=WK_3415

2.453384e-02
*ELEMENT, TYPE=SPRINGA, ELSET=WK_3416
   96601,    89385,   104762
*SPRING, ELSET=WK_3416

2.453384e-02
*ELEMENT, TYPE=SPRINGA, ELSET=WK_3417
   96602,    89390,   104763
*SPRING, ELSET=WK_3417

2.453384e-02
*ELEMENT, TYPE=SPRINGA, ELSET=WK_3418
   96603,    89395,   104764
*SPRING, ELSET=WK_3418

2.453384e-02
*ELEMENT, TYPE=SPRINGA, ELSET=WK_3419
   96604,    89400,   104765
*SPRING, ELSET=WK_3419

2.453384e-02
*ELEMENT, TYPE=SPRINGA, ELSET=WK_3420
   96605,    89405,   104766
*SPRING, ELSET=WK_3420

2.453384e-02
*ELEMENT, TYPE=SPRINGA, ELSET=WK_3421
   96606,    89410,   104767
*SPRING, ELSET=WK_3421

2.453384e-02
*ELEMENT, TYPE=SPRINGA, ELSET=WK_3422
   96607,    89415,   104768
*SPRING, ELSET=WK_3422

2.453384e-02
*ELEMENT, TYPE=SPRINGA, ELSET=WK_3423
   96608,    89420,   104769
*SPRING, ELSET=WK_3423

2.453384e-02
*ELEMENT, TYPE=SPRINGA, ELSET=WK_3424
   96609,    89425,   104770
*SPRING, ELSET=WK_3424

2.453384e-02
*ELEMENT, TYPE=SPRINGA, ELSET=WK_3425
   96610,    89430,   104771
*SPRING, ELSET=WK_3425

2.453384e-02
*ELEMENT, TYPE=SPRINGA, ELSET=WK_3426
   96611,    89435,   104772
*SPRING, ELSET=WK_3426

2.453384e-02
*ELEMENT, TYPE=SPRINGA, ELSET=WK_3427
   96612,    89440,   104773
*SPRING, ELSET=WK_3427

2.453384e-02
*ELEMENT, TYPE=SPRINGA, ELSET=WK_3428
   96613,    89445,   104774
*SPRING, ELSET=WK_3428

2.453384e-02
*ELEMENT, TYPE=SPRINGA, ELSET=WK_3429
   96614,    89450,   104775
*SPRING, ELSET=WK_3429

2.453384e-02
*ELEMENT, TYPE=SPRINGA, ELSET=WK_3430
   96615,    89455,   104776
*SPRING, ELSET=WK_3430

2.453384e-02
*ELEMENT, TYPE=SPRINGA, ELSET=WK_3431
   96616,    89460,   104777
*SPRING, ELSET=WK_3431

2.453384e-02
*ELEMENT, TYPE=SPRINGA, ELSET=WK_3432
   96617,    89465,   104778
*SPRING, ELSET=WK_3432

2.453384e-02
*ELEMENT, TYPE=SPRINGA, ELSET=WK_3433
   96618,    89470,   104779
*SPRING, ELSET=WK_3433

2.453384e-02
*ELEMENT, TYPE=SPRINGA, ELSET=WK_3434
   96619,    89475,   104780
*SPRING, ELSET=WK_3434

2.453384e-02
*ELEMENT, TYPE=SPRINGA, ELSET=WK_3435
   96620,    89480,   104781
*SPRING, ELSET=WK_3435

2.453384e-02
*ELEMENT, TYPE=SPRINGA, ELSET=WK_3436
   96621,    89485,   104782
*SPRING, ELSET=WK_3436

2.453384e-02
*ELEMENT, TYPE=SPRINGA, ELSET=WK_3437
   96622,    89490,   104783
*SPRING, ELSET=WK_3437

2.453384e-02
*ELEMENT, TYPE=SPRINGA, ELSET=WK_3438
   96623,    89495,   104784
*SPRING, ELSET=WK_3438

2.453384e-02
*ELEMENT, TYPE=SPRINGA, ELSET=WK_3439
   96624,    89500,   104785
*SPRING, ELSET=WK_3439

2.453384e-02
*ELEMENT, TYPE=SPRINGA, ELSET=WK_3440
   96625,    89505,   104786
*SPRING, ELSET=WK_3440

2.453384e-02
*ELEMENT, TYPE=SPRINGA, ELSET=WK_3441
   96626,    89510,   104787
*SPRING, ELSET=WK_3441

2.453384e-02
*ELEMENT, TYPE=SPRINGA, ELSET=WK_3442
   96627,    89515,   104788
*SPRING, ELSET=WK_3442

2.453384e-02
*ELEMENT, TYPE=SPRINGA, ELSET=WK_3443
   96628,    89520,   104789
*SPRING, ELSET=WK_3443

2.453384e-02
*ELEMENT, TYPE=SPRINGA, ELSET=WK_3444
   96629,    89525,   104790
*SPRING, ELSET=WK_3444

2.453384e-02
*ELEMENT, TYPE=SPRINGA, ELSET=WK_3445
   96630,    89530,   104791
*SPRING, ELSET=WK_3445

2.453384e-02
*ELEMENT, TYPE=SPRINGA, ELSET=WK_3446
   96631,    89535,   104792
*SPRING, ELSET=WK_3446

2.453384e-02
*ELEMENT, TYPE=SPRINGA, ELSET=WK_3447
   96632,    89540,   104793
*SPRING, ELSET=WK_3447

2.453384e-02
*ELEMENT, TYPE=SPRINGA, ELSET=WK_3448
   96633,    89545,   104794
*SPRING, ELSET=WK_3448

2.453384e-02
*ELEMENT, TYPE=SPRINGA, ELSET=WK_3449
   96634,    89550,   104795
*SPRING, ELSET=WK_3449

2.453384e-02
*ELEMENT, TYPE=SPRINGA, ELSET=WK_3450
   96635,    89555,   104796
*SPRING, ELSET=WK_3450

2.453384e-02
*ELEMENT, TYPE=SPRINGA, ELSET=WK_3451
   96636,    89560,   104797
*SPRING, ELSET=WK_3451

2.453384e-02
*ELEMENT, TYPE=SPRINGA, ELSET=WK_3452
   96637,    89565,   104798
*SPRING, ELSET=WK_3452

2.453384e-02
*ELEMENT, TYPE=SPRINGA, ELSET=WK_3453
   96638,    89570,   104799
*SPRING, ELSET=WK_3453

2.453384e-02
*ELEMENT, TYPE=SPRINGA, ELSET=WK_3454
   96639,    89575,   104800
*SPRING, ELSET=WK_3454

2.453384e-02
*ELEMENT, TYPE=SPRINGA, ELSET=WK_3455
   96640,    89580,   104801
*SPRING, ELSET=WK_3455

2.453384e-02
*ELEMENT, TYPE=SPRINGA, ELSET=WK_3456
   96641,    89585,   104802
*SPRING, ELSET=WK_3456

2.453384e-02
*ELEMENT, TYPE=SPRINGA, ELSET=WK_3457
   96642,    89590,   104803
*SPRING, ELSET=WK_3457

2.453384e-02
*ELEMENT, TYPE=SPRINGA, ELSET=WK_3458
   96643,    89595,   104804
*SPRING, ELSET=WK_3458

2.453384e-02
*ELEMENT, TYPE=SPRINGA, ELSET=WK_3459
   96644,    89600,   104805
*SPRING, ELSET=WK_3459

2.453384e-02
*ELEMENT, TYPE=SPRINGA, ELSET=WK_3460
   96645,    89605,   104806
*SPRING, ELSET=WK_3460

2.453384e-02
*ELEMENT, TYPE=SPRINGA, ELSET=WK_3461
   96646,    89610,   104807
*SPRING, ELSET=WK_3461

2.453384e-02
*ELEMENT, TYPE=SPRINGA, ELSET=WK_3462
   96647,    89615,   104808
*SPRING, ELSET=WK_3462

2.453384e-02
*ELEMENT, TYPE=SPRINGA, ELSET=WK_3463
   96648,    89620,   104809
*SPRING, ELSET=WK_3463

2.453384e-02
*ELEMENT, TYPE=SPRINGA, ELSET=WK_3464
   96649,    89625,   104810
*SPRING, ELSET=WK_3464

2.453384e-02
*ELEMENT, TYPE=SPRINGA, ELSET=WK_3465
   96650,    89630,   104811
*SPRING, ELSET=WK_3465

2.453384e-02
*ELEMENT, TYPE=SPRINGA, ELSET=WK_3466
   96651,    89635,   104812
*SPRING, ELSET=WK_3466

2.453384e-02
*ELEMENT, TYPE=SPRINGA, ELSET=WK_3467
   96652,    89640,   104813
*SPRING, ELSET=WK_3467

2.453384e-02
*ELEMENT, TYPE=SPRINGA, ELSET=WK_3468
   96653,    89645,   104814
*SPRING, ELSET=WK_3468

2.453384e-02
*ELEMENT, TYPE=SPRINGA, ELSET=WK_3469
   96654,    89650,   104815
*SPRING, ELSET=WK_3469

2.453384e-02
*ELEMENT, TYPE=SPRINGA, ELSET=WK_3470
   96655,    89655,   104816
*SPRING, ELSET=WK_3470

2.453384e-02
*ELEMENT, TYPE=SPRINGA, ELSET=WK_3471
   96656,    89660,   104817
*SPRING, ELSET=WK_3471

2.453384e-02
*ELEMENT, TYPE=SPRINGA, ELSET=WK_3472
   96657,    89665,   104818
*SPRING, ELSET=WK_3472

2.453384e-02
*ELEMENT, TYPE=SPRINGA, ELSET=WK_3473
   96658,    89670,   104819
*SPRING, ELSET=WK_3473

2.453384e-02
*ELEMENT, TYPE=SPRINGA, ELSET=WK_3474
   96659,    89675,   104820
*SPRING, ELSET=WK_3474

2.453384e-02
*ELEMENT, TYPE=SPRINGA, ELSET=WK_3475
   96660,    89680,   104821
*SPRING, ELSET=WK_3475

2.453384e-02
*ELEMENT, TYPE=SPRINGA, ELSET=WK_3476
   96661,    89685,   104822
*SPRING, ELSET=WK_3476

2.453384e-02
*ELEMENT, TYPE=SPRINGA, ELSET=WK_3477
   96662,    89690,   104823
*SPRING, ELSET=WK_3477

2.453384e-02
*ELEMENT, TYPE=SPRINGA, ELSET=WK_3478
   96663,    89695,   104824
*SPRING, ELSET=WK_3478

2.453384e-02
*ELEMENT, TYPE=SPRINGA, ELSET=WK_3479
   96664,    89700,   104825
*SPRING, ELSET=WK_3479

2.453384e-02
*ELEMENT, TYPE=SPRINGA, ELSET=WK_3480
   96665,    89705,   104826
*SPRING, ELSET=WK_3480

2.453384e-02
*ELEMENT, TYPE=SPRINGA, ELSET=WK_3481
   96666,    89710,   104827
*SPRING, ELSET=WK_3481

2.453384e-02
*ELEMENT, TYPE=SPRINGA, ELSET=WK_3482
   96667,    89715,   104828
*SPRING, ELSET=WK_3482

2.453384e-02
*ELEMENT, TYPE=SPRINGA, ELSET=WK_3483
   96668,    89720,   104829
*SPRING, ELSET=WK_3483

2.453384e-02
*ELEMENT, TYPE=SPRINGA, ELSET=WK_3484
   96669,    89725,   104830
*SPRING, ELSET=WK_3484

2.453384e-02
*ELEMENT, TYPE=SPRINGA, ELSET=WK_3485
   96670,    89730,   104831
*SPRING, ELSET=WK_3485

2.453384e-02
*ELEMENT, TYPE=SPRINGA, ELSET=WK_3486
   96671,    89735,   104832
*SPRING, ELSET=WK_3486

2.453384e-02
*ELEMENT, TYPE=SPRINGA, ELSET=WK_3487
   96672,    89740,   104833
*SPRING, ELSET=WK_3487

2.453384e-02
*ELEMENT, TYPE=SPRINGA, ELSET=WK_3488
   96673,    89745,   104834
*SPRING, ELSET=WK_3488

2.453384e-02
*ELEMENT, TYPE=SPRINGA, ELSET=WK_3489
   96674,    89750,   104835
*SPRING, ELSET=WK_3489

2.453384e-02
*ELEMENT, TYPE=SPRINGA, ELSET=WK_3490
   96675,    89755,   104836
*SPRING, ELSET=WK_3490

2.453384e-02
*ELEMENT, TYPE=SPRINGA, ELSET=WK_3491
   96676,    89760,   104837
*SPRING, ELSET=WK_3491

2.453384e-02
*ELEMENT, TYPE=SPRINGA, ELSET=WK_3492
   96677,    89765,   104838
*SPRING, ELSET=WK_3492

2.453384e-02
*ELEMENT, TYPE=SPRINGA, ELSET=WK_3493
   96678,    89770,   104839
*SPRING, ELSET=WK_3493

2.453384e-02
*ELEMENT, TYPE=SPRINGA, ELSET=WK_3494
   96679,    89775,   104840
*SPRING, ELSET=WK_3494

2.453384e-02
*ELEMENT, TYPE=SPRINGA, ELSET=WK_3495
   96680,    89780,   104841
*SPRING, ELSET=WK_3495

2.453384e-02
*ELEMENT, TYPE=SPRINGA, ELSET=WK_3496
   96681,    89785,   104842
*SPRING, ELSET=WK_3496

2.453384e-02
*ELEMENT, TYPE=SPRINGA, ELSET=WK_3497
   96682,    89790,   104843
*SPRING, ELSET=WK_3497

2.453384e-02
*ELEMENT, TYPE=SPRINGA, ELSET=WK_3498
   96683,    89795,   104844
*SPRING, ELSET=WK_3498

2.453384e-02
*ELEMENT, TYPE=SPRINGA, ELSET=WK_3499
   96684,    89800,   104845
*SPRING, ELSET=WK_3499

2.453384e-02
*ELEMENT, TYPE=SPRINGA, ELSET=WK_3500
   96685,    89805,   104846
*SPRING, ELSET=WK_3500

2.453384e-02
*ELEMENT, TYPE=SPRINGA, ELSET=WK_3501
   96686,    89810,   104847
*SPRING, ELSET=WK_3501

2.453384e-02
*ELEMENT, TYPE=SPRINGA, ELSET=WK_3502
   96687,    89815,   104848
*SPRING, ELSET=WK_3502

2.453384e-02
*ELEMENT, TYPE=SPRINGA, ELSET=WK_3503
   96688,    89820,   104849
*SPRING, ELSET=WK_3503

2.453384e-02
*ELEMENT, TYPE=SPRINGA, ELSET=WK_3504
   96689,    89825,   104850
*SPRING, ELSET=WK_3504

2.453384e-02
*ELEMENT, TYPE=SPRINGA, ELSET=WK_3505
   96690,    89830,   104851
*SPRING, ELSET=WK_3505

2.453384e-02
*ELEMENT, TYPE=SPRINGA, ELSET=WK_3506
   96691,    89835,   104852
*SPRING, ELSET=WK_3506

2.453384e-02
*ELEMENT, TYPE=SPRINGA, ELSET=WK_3507
   96692,    89840,   104853
*SPRING, ELSET=WK_3507

2.453384e-02
*ELEMENT, TYPE=SPRINGA, ELSET=WK_3508
   96693,    89845,   104854
*SPRING, ELSET=WK_3508

2.453384e-02
*ELEMENT, TYPE=SPRINGA, ELSET=WK_3509
   96694,    89850,   104855
*SPRING, ELSET=WK_3509

2.453384e-02
*ELEMENT, TYPE=SPRINGA, ELSET=WK_3510
   96695,    89855,   104856
*SPRING, ELSET=WK_3510

2.453384e-02
*ELEMENT, TYPE=SPRINGA, ELSET=WK_3511
   96696,    89860,   104857
*SPRING, ELSET=WK_3511

2.453384e-02
*ELEMENT, TYPE=SPRINGA, ELSET=WK_3512
   96697,    89865,   104858
*SPRING, ELSET=WK_3512

2.453384e-02
*ELEMENT, TYPE=SPRINGA, ELSET=WK_3513
   96698,    89870,   104859
*SPRING, ELSET=WK_3513

2.453384e-02
*ELEMENT, TYPE=SPRINGA, ELSET=WK_3514
   96699,    89875,   104860
*SPRING, ELSET=WK_3514

2.453384e-02
*ELEMENT, TYPE=SPRINGA, ELSET=WK_3515
   96700,    89880,   104861
*SPRING, ELSET=WK_3515

2.453384e-02
*ELEMENT, TYPE=SPRINGA, ELSET=WK_3516
   96701,    89885,   104862
*SPRING, ELSET=WK_3516

2.453384e-02
*ELEMENT, TYPE=SPRINGA, ELSET=WK_3517
   96702,    89890,   104863
*SPRING, ELSET=WK_3517

2.453384e-02
*ELEMENT, TYPE=SPRINGA, ELSET=WK_3518
   96703,    89895,   104864
*SPRING, ELSET=WK_3518

2.453384e-02
*ELEMENT, TYPE=SPRINGA, ELSET=WK_3519
   96704,    89900,   104865
*SPRING, ELSET=WK_3519

2.453384e-02
*ELEMENT, TYPE=SPRINGA, ELSET=WK_3520
   96705,    89905,   104866
*SPRING, ELSET=WK_3520

2.453384e-02
*ELEMENT, TYPE=SPRINGA, ELSET=WK_3521
   96706,    89910,   104867
*SPRING, ELSET=WK_3521

2.453384e-02
*ELEMENT, TYPE=SPRINGA, ELSET=WK_3522
   96707,    89915,   104868
*SPRING, ELSET=WK_3522

2.453384e-02
*ELEMENT, TYPE=SPRINGA, ELSET=WK_3523
   96708,    89920,   104869
*SPRING, ELSET=WK_3523

2.453384e-02
*ELEMENT, TYPE=SPRINGA, ELSET=WK_3524
   96709,    89925,   104870
*SPRING, ELSET=WK_3524

2.453384e-02
*ELEMENT, TYPE=SPRINGA, ELSET=WK_3525
   96710,    89930,   104871
*SPRING, ELSET=WK_3525

2.453384e-02
*ELEMENT, TYPE=SPRINGA, ELSET=WK_3526
   96711,    89935,   104872
*SPRING, ELSET=WK_3526

2.453384e-02
*ELEMENT, TYPE=SPRINGA, ELSET=WK_3527
   96712,    89940,   104873
*SPRING, ELSET=WK_3527

2.453384e-02
*ELEMENT, TYPE=SPRINGA, ELSET=WK_3528
   96713,    89945,   104874
*SPRING, ELSET=WK_3528

2.453384e-02
*ELEMENT, TYPE=SPRINGA, ELSET=WK_3529
   96714,    89950,   104875
*SPRING, ELSET=WK_3529

2.453384e-02
*ELEMENT, TYPE=SPRINGA, ELSET=WK_3530
   96715,    89955,   104876
*SPRING, ELSET=WK_3530

2.453384e-02
*ELEMENT, TYPE=SPRINGA, ELSET=WK_3531
   96716,    89960,   104877
*SPRING, ELSET=WK_3531

2.453384e-02
*ELEMENT, TYPE=SPRINGA, ELSET=WK_3532
   96717,    89965,   104878
*SPRING, ELSET=WK_3532

2.453384e-02
*ELEMENT, TYPE=SPRINGA, ELSET=WK_3533
   96718,    89970,   104879
*SPRING, ELSET=WK_3533

2.453384e-02
*ELEMENT, TYPE=SPRINGA, ELSET=WK_3534
   96719,    89975,   104880
*SPRING, ELSET=WK_3534

2.453384e-02
*ELEMENT, TYPE=SPRINGA, ELSET=WK_3535
   96720,    89980,   104881
*SPRING, ELSET=WK_3535

2.453384e-02
*ELEMENT, TYPE=SPRINGA, ELSET=WK_3536
   96721,    89985,   104882
*SPRING, ELSET=WK_3536

2.453384e-02
*ELEMENT, TYPE=SPRINGA, ELSET=WK_3537
   96722,    89990,   104883
*SPRING, ELSET=WK_3537

2.453384e-02
*ELEMENT, TYPE=SPRINGA, ELSET=WK_3538
   96723,    89995,   104884
*SPRING, ELSET=WK_3538

2.453384e-02
*ELEMENT, TYPE=SPRINGA, ELSET=WK_3539
   96724,    90000,   104885
*SPRING, ELSET=WK_3539

2.453384e-02
*ELEMENT, TYPE=SPRINGA, ELSET=WK_3540
   96725,    90005,   104886
*SPRING, ELSET=WK_3540

2.453384e-02
*ELEMENT, TYPE=SPRINGA, ELSET=WK_3541
   96726,    90010,   104887
*SPRING, ELSET=WK_3541

2.453384e-02
*ELEMENT, TYPE=SPRINGA, ELSET=WK_3542
   96727,    90015,   104888
*SPRING, ELSET=WK_3542

2.453384e-02
*ELEMENT, TYPE=SPRINGA, ELSET=WK_3543
   96728,    90020,   104889
*SPRING, ELSET=WK_3543

2.453384e-02
*ELEMENT, TYPE=SPRINGA, ELSET=WK_3544
   96729,    90025,   104890
*SPRING, ELSET=WK_3544

2.453384e-02
*ELEMENT, TYPE=SPRINGA, ELSET=WK_3545
   96730,    90030,   104891
*SPRING, ELSET=WK_3545

2.453384e-02
*ELEMENT, TYPE=SPRINGA, ELSET=WK_3546
   96731,    90035,   104892
*SPRING, ELSET=WK_3546

2.453384e-02
*ELEMENT, TYPE=SPRINGA, ELSET=WK_3547
   96732,    90040,   104893
*SPRING, ELSET=WK_3547

2.453384e-02
*ELEMENT, TYPE=SPRINGA, ELSET=WK_3548
   96733,    90045,   104894
*SPRING, ELSET=WK_3548

2.453384e-02
*ELEMENT, TYPE=SPRINGA, ELSET=WK_3549
   96734,    90050,   104895
*SPRING, ELSET=WK_3549

2.453384e-02
*ELEMENT, TYPE=SPRINGA, ELSET=WK_3550
   96735,    90055,   104896
*SPRING, ELSET=WK_3550

2.453384e-02
*ELEMENT, TYPE=SPRINGA, ELSET=WK_3551
   96736,    90060,   104897
*SPRING, ELSET=WK_3551

2.453384e-02
*ELEMENT, TYPE=SPRINGA, ELSET=WK_3552
   96737,    90065,   104898
*SPRING, ELSET=WK_3552

2.453384e-02
*ELEMENT, TYPE=SPRINGA, ELSET=WK_3553
   96738,    90070,   104899
*SPRING, ELSET=WK_3553

2.453384e-02
*ELEMENT, TYPE=SPRINGA, ELSET=WK_3554
   96739,    90075,   104900
*SPRING, ELSET=WK_3554

2.453384e-02
*ELEMENT, TYPE=SPRINGA, ELSET=WK_3555
   96740,    90080,   104901
*SPRING, ELSET=WK_3555

2.453384e-02
*ELEMENT, TYPE=SPRINGA, ELSET=WK_3556
   96741,    90085,   104902
*SPRING, ELSET=WK_3556

2.453384e-02
*ELEMENT, TYPE=SPRINGA, ELSET=WK_3557
   96742,    90090,   104903
*SPRING, ELSET=WK_3557

2.453384e-02
*ELEMENT, TYPE=SPRINGA, ELSET=WK_3558
   96743,    90095,   104904
*SPRING, ELSET=WK_3558

2.453384e-02
*ELEMENT, TYPE=SPRINGA, ELSET=WK_3559
   96744,    90100,   104905
*SPRING, ELSET=WK_3559

2.453384e-02
*ELEMENT, TYPE=SPRINGA, ELSET=WK_3560
   96745,    90105,   104906
*SPRING, ELSET=WK_3560

2.453384e-02
*ELEMENT, TYPE=SPRINGA, ELSET=WK_3561
   96746,    90110,   104907
*SPRING, ELSET=WK_3561

2.453384e-02
*ELEMENT, TYPE=SPRINGA, ELSET=WK_3562
   96747,    90115,   104908
*SPRING, ELSET=WK_3562

2.453384e-02
*ELEMENT, TYPE=SPRINGA, ELSET=WK_3563
   96748,    90120,   104909
*SPRING, ELSET=WK_3563

2.453384e-02
*ELEMENT, TYPE=SPRINGA, ELSET=WK_3564
   96749,    90125,   104910
*SPRING, ELSET=WK_3564

2.453384e-02
*ELEMENT, TYPE=SPRINGA, ELSET=WK_3565
   96750,    90130,   104911
*SPRING, ELSET=WK_3565

2.453384e-02
*ELEMENT, TYPE=SPRINGA, ELSET=WK_3566
   96751,    90135,   104912
*SPRING, ELSET=WK_3566

2.453384e-02
*ELEMENT, TYPE=SPRINGA, ELSET=WK_3567
   96752,    90140,   104913
*SPRING, ELSET=WK_3567

2.453384e-02
*ELEMENT, TYPE=SPRINGA, ELSET=WK_3568
   96753,    90145,   104914
*SPRING, ELSET=WK_3568

2.453384e-02
*ELEMENT, TYPE=SPRINGA, ELSET=WK_3569
   96754,    90150,   104915
*SPRING, ELSET=WK_3569

2.453384e-02
*ELEMENT, TYPE=SPRINGA, ELSET=WK_3570
   96755,    90155,   104916
*SPRING, ELSET=WK_3570

2.453384e-02
*ELEMENT, TYPE=SPRINGA, ELSET=WK_3571
   96756,    90160,   104917
*SPRING, ELSET=WK_3571

2.453384e-02
*ELEMENT, TYPE=SPRINGA, ELSET=WK_3572
   96757,    90165,   104918
*SPRING, ELSET=WK_3572

2.453384e-02
*ELEMENT, TYPE=SPRINGA, ELSET=WK_3573
   96758,    90170,   104919
*SPRING, ELSET=WK_3573

2.453384e-02
*ELEMENT, TYPE=SPRINGA, ELSET=WK_3574
   96759,    90175,   104920
*SPRING, ELSET=WK_3574

2.453384e-02
*ELEMENT, TYPE=SPRINGA, ELSET=WK_3575
   96760,    90180,   104921
*SPRING, ELSET=WK_3575

2.453384e-02
*ELEMENT, TYPE=SPRINGA, ELSET=WK_3576
   96761,    90185,   104922
*SPRING, ELSET=WK_3576

2.453384e-02
*ELEMENT, TYPE=SPRINGA, ELSET=WK_3577
   96762,    90190,   104923
*SPRING, ELSET=WK_3577

2.453384e-02
*ELEMENT, TYPE=SPRINGA, ELSET=WK_3578
   96763,    90195,   104924
*SPRING, ELSET=WK_3578

2.453384e-02
*ELEMENT, TYPE=SPRINGA, ELSET=WK_3579
   96764,    90200,   104925
*SPRING, ELSET=WK_3579

2.453384e-02
*ELEMENT, TYPE=SPRINGA, ELSET=WK_3580
   96765,    90205,   104926
*SPRING, ELSET=WK_3580

2.453384e-02
*ELEMENT, TYPE=SPRINGA, ELSET=WK_3581
   96766,    90210,   104927
*SPRING, ELSET=WK_3581

2.453384e-02
*ELEMENT, TYPE=SPRINGA, ELSET=WK_3582
   96767,    90215,   104928
*SPRING, ELSET=WK_3582

2.453384e-02
*ELEMENT, TYPE=SPRINGA, ELSET=WK_3583
   96768,    90220,   104929
*SPRING, ELSET=WK_3583

2.453384e-02
*ELEMENT, TYPE=SPRINGA, ELSET=WK_3584
   96769,    90225,   104930
*SPRING, ELSET=WK_3584

2.453384e-02
*ELEMENT, TYPE=SPRINGA, ELSET=WK_3585
   96770,    90230,   104931
*SPRING, ELSET=WK_3585

2.453384e-02
*ELEMENT, TYPE=SPRINGA, ELSET=WK_3586
   96771,    90235,   104932
*SPRING, ELSET=WK_3586

2.453384e-02
*ELEMENT, TYPE=SPRINGA, ELSET=WK_3587
   96772,    90240,   104933
*SPRING, ELSET=WK_3587

2.453384e-02
*ELEMENT, TYPE=SPRINGA, ELSET=WK_3588
   96773,    90245,   104934
*SPRING, ELSET=WK_3588

2.453384e-02
*ELEMENT, TYPE=SPRINGA, ELSET=WK_3589
   96774,    90250,   104935
*SPRING, ELSET=WK_3589

2.453384e-02
*ELEMENT, TYPE=SPRINGA, ELSET=WK_3590
   96775,    90255,   104936
*SPRING, ELSET=WK_3590

2.453384e-02
*ELEMENT, TYPE=SPRINGA, ELSET=WK_3591
   96776,    90260,   104937
*SPRING, ELSET=WK_3591

2.453384e-02
*ELEMENT, TYPE=SPRINGA, ELSET=WK_3592
   96777,    90265,   104938
*SPRING, ELSET=WK_3592

2.453384e-02
*ELEMENT, TYPE=SPRINGA, ELSET=WK_3593
   96778,    90270,   104939
*SPRING, ELSET=WK_3593

2.453384e-02
*ELEMENT, TYPE=SPRINGA, ELSET=WK_3594
   96779,    90275,   104940
*SPRING, ELSET=WK_3594

2.453384e-02
*ELEMENT, TYPE=SPRINGA, ELSET=WK_3595
   96780,    90280,   104941
*SPRING, ELSET=WK_3595

2.453384e-02
*ELEMENT, TYPE=SPRINGA, ELSET=WK_3596
   96781,    90285,   104942
*SPRING, ELSET=WK_3596

2.453384e-02
*ELEMENT, TYPE=SPRINGA, ELSET=WK_3597
   96782,    90290,   104943
*SPRING, ELSET=WK_3597

2.453384e-02
*ELEMENT, TYPE=SPRINGA, ELSET=WK_3598
   96783,    90295,   104944
*SPRING, ELSET=WK_3598

2.453384e-02
*ELEMENT, TYPE=SPRINGA, ELSET=WK_3599
   96784,    90300,   104945
*SPRING, ELSET=WK_3599

2.453384e-02
*ELEMENT, TYPE=SPRINGA, ELSET=WK_3600
   96785,    90305,   104946
*SPRING, ELSET=WK_3600

2.453384e-02
*ELEMENT, TYPE=SPRINGA, ELSET=WK_3601
   96786,    90310,   104947
*SPRING, ELSET=WK_3601

2.453384e-02
*ELEMENT, TYPE=SPRINGA, ELSET=WK_3602
   96787,    90315,   104948
*SPRING, ELSET=WK_3602

2.453384e-02
*ELEMENT, TYPE=SPRINGA, ELSET=WK_3603
   96788,    90320,   104949
*SPRING, ELSET=WK_3603

2.453384e-02
*ELEMENT, TYPE=SPRINGA, ELSET=WK_3604
   96789,    90325,   104950
*SPRING, ELSET=WK_3604

2.453384e-02
*ELEMENT, TYPE=SPRINGA, ELSET=WK_3605
   96790,    90330,   104951
*SPRING, ELSET=WK_3605

2.453384e-02
*ELEMENT, TYPE=SPRINGA, ELSET=WK_3606
   96791,    90335,   104952
*SPRING, ELSET=WK_3606

2.453384e-02
*ELEMENT, TYPE=SPRINGA, ELSET=WK_3607
   96792,    90340,   104953
*SPRING, ELSET=WK_3607

2.453384e-02
*ELEMENT, TYPE=SPRINGA, ELSET=WK_3608
   96793,    90345,   104954
*SPRING, ELSET=WK_3608

2.453384e-02
*ELEMENT, TYPE=SPRINGA, ELSET=WK_3609
   96794,    90350,   104955
*SPRING, ELSET=WK_3609

2.453384e-02
*ELEMENT, TYPE=SPRINGA, ELSET=WK_3610
   96795,    90355,   104956
*SPRING, ELSET=WK_3610

2.453384e-02
*ELEMENT, TYPE=SPRINGA, ELSET=WK_3611
   96796,    90360,   104957
*SPRING, ELSET=WK_3611

2.453384e-02
*ELEMENT, TYPE=SPRINGA, ELSET=WK_3612
   96797,    90365,   104958
*SPRING, ELSET=WK_3612

2.453384e-02
*ELEMENT, TYPE=SPRINGA, ELSET=WK_3613
   96798,    90370,   104959
*SPRING, ELSET=WK_3613

2.453384e-02
*ELEMENT, TYPE=SPRINGA, ELSET=WK_3614
   96799,    90375,   104960
*SPRING, ELSET=WK_3614

2.453384e-02
*ELEMENT, TYPE=SPRINGA, ELSET=WK_3615
   96800,    90380,   104961
*SPRING, ELSET=WK_3615

2.453384e-02
*ELEMENT, TYPE=SPRINGA, ELSET=WK_3616
   96801,    90385,   104962
*SPRING, ELSET=WK_3616

2.453384e-02
*ELEMENT, TYPE=SPRINGA, ELSET=WK_3617
   96802,    90390,   104963
*SPRING, ELSET=WK_3617

2.453384e-02
*ELEMENT, TYPE=SPRINGA, ELSET=WK_3618
   96803,    90395,   104964
*SPRING, ELSET=WK_3618

2.453384e-02
*ELEMENT, TYPE=SPRINGA, ELSET=WK_3619
   96804,    90400,   104965
*SPRING, ELSET=WK_3619

2.453384e-02
*ELEMENT, TYPE=SPRINGA, ELSET=WK_3620
   96805,    90405,   104966
*SPRING, ELSET=WK_3620

2.453384e-02
*ELEMENT, TYPE=SPRINGA, ELSET=WK_3621
   96806,    90410,   104967
*SPRING, ELSET=WK_3621

2.453384e-02
*ELEMENT, TYPE=SPRINGA, ELSET=WK_3622
   96807,    90415,   104968
*SPRING, ELSET=WK_3622

2.453384e-02
*ELEMENT, TYPE=SPRINGA, ELSET=WK_3623
   96808,    90420,   104969
*SPRING, ELSET=WK_3623

2.453384e-02
*ELEMENT, TYPE=SPRINGA, ELSET=WK_3624
   96809,    90425,   104970
*SPRING, ELSET=WK_3624

2.453384e-02
*ELEMENT, TYPE=SPRINGA, ELSET=WK_3625
   96810,    90430,   104971
*SPRING, ELSET=WK_3625

2.453384e-02
*ELEMENT, TYPE=SPRINGA, ELSET=WK_3626
   96811,    90435,   104972
*SPRING, ELSET=WK_3626

2.453384e-02
*ELEMENT, TYPE=SPRINGA, ELSET=WK_3627
   96812,    90440,   104973
*SPRING, ELSET=WK_3627

2.453384e-02
*ELEMENT, TYPE=SPRINGA, ELSET=WK_3628
   96813,    90445,   104974
*SPRING, ELSET=WK_3628

2.453384e-02
*ELEMENT, TYPE=SPRINGA, ELSET=WK_3629
   96814,    90450,   104975
*SPRING, ELSET=WK_3629

2.453384e-02
*ELEMENT, TYPE=SPRINGA, ELSET=WK_3630
   96815,    90455,   104976
*SPRING, ELSET=WK_3630

2.453384e-02
*ELEMENT, TYPE=SPRINGA, ELSET=WK_3631
   96816,    90460,   104977
*SPRING, ELSET=WK_3631

2.453384e-02
*ELEMENT, TYPE=SPRINGA, ELSET=WK_3632
   96817,    90465,   104978
*SPRING, ELSET=WK_3632

2.453384e-02
*ELEMENT, TYPE=SPRINGA, ELSET=WK_3633
   96818,    90470,   104979
*SPRING, ELSET=WK_3633

2.453384e-02
*ELEMENT, TYPE=SPRINGA, ELSET=WK_3634
   96819,    90475,   104980
*SPRING, ELSET=WK_3634

2.453384e-02
*ELEMENT, TYPE=SPRINGA, ELSET=WK_3635
   96820,    90480,   104981
*SPRING, ELSET=WK_3635

2.453384e-02
*ELEMENT, TYPE=SPRINGA, ELSET=WK_3636
   96821,    90485,   104982
*SPRING, ELSET=WK_3636

2.453384e-02
*ELEMENT, TYPE=SPRINGA, ELSET=WK_3637
   96822,    90490,   104983
*SPRING, ELSET=WK_3637

2.453384e-02
*ELEMENT, TYPE=SPRINGA, ELSET=WK_3638
   96823,    90495,   104984
*SPRING, ELSET=WK_3638

2.453384e-02
*ELEMENT, TYPE=SPRINGA, ELSET=WK_3639
   96824,    90500,   104985
*SPRING, ELSET=WK_3639

2.453384e-02
*ELEMENT, TYPE=SPRINGA, ELSET=WK_3640
   96825,    90505,   104986
*SPRING, ELSET=WK_3640

2.453384e-02
*ELEMENT, TYPE=SPRINGA, ELSET=WK_3641
   96826,    90510,   104987
*SPRING, ELSET=WK_3641

2.453384e-02
*ELEMENT, TYPE=SPRINGA, ELSET=WK_3642
   96827,    90515,   104988
*SPRING, ELSET=WK_3642

2.453384e-02
*ELEMENT, TYPE=SPRINGA, ELSET=WK_3643
   96828,    90520,   104989
*SPRING, ELSET=WK_3643

2.453384e-02
*ELEMENT, TYPE=SPRINGA, ELSET=WK_3644
   96829,    90525,   104990
*SPRING, ELSET=WK_3644

2.453384e-02
*ELEMENT, TYPE=SPRINGA, ELSET=WK_3645
   96830,    90530,   104991
*SPRING, ELSET=WK_3645

2.453384e-02
*ELEMENT, TYPE=SPRINGA, ELSET=WK_3646
   96831,    90535,   104992
*SPRING, ELSET=WK_3646

2.453384e-02
*ELEMENT, TYPE=SPRINGA, ELSET=WK_3647
   96832,    90540,   104993
*SPRING, ELSET=WK_3647

2.453384e-02
*ELEMENT, TYPE=SPRINGA, ELSET=WK_3648
   96833,    90545,   104994
*SPRING, ELSET=WK_3648

2.453384e-02
*ELEMENT, TYPE=SPRINGA, ELSET=WK_3649
   96834,    90550,   104995
*SPRING, ELSET=WK_3649

2.453384e-02
*ELEMENT, TYPE=SPRINGA, ELSET=WK_3650
   96835,    90555,   104996
*SPRING, ELSET=WK_3650

2.453384e-02
*ELEMENT, TYPE=SPRINGA, ELSET=WK_3651
   96836,    90560,   104997
*SPRING, ELSET=WK_3651

2.453384e-02
*ELEMENT, TYPE=SPRINGA, ELSET=WK_3652
   96837,    90565,   104998
*SPRING, ELSET=WK_3652

2.453384e-02
*ELEMENT, TYPE=SPRINGA, ELSET=WK_3653
   96838,    90570,   104999
*SPRING, ELSET=WK_3653

2.453384e-02
*ELEMENT, TYPE=SPRINGA, ELSET=WK_3654
   96839,    90575,   105000
*SPRING, ELSET=WK_3654

2.453384e-02
*ELEMENT, TYPE=SPRINGA, ELSET=WK_3655
   96840,    90580,   105001
*SPRING, ELSET=WK_3655

2.453384e-02
*ELEMENT, TYPE=SPRINGA, ELSET=WK_3656
   96841,    90585,   105002
*SPRING, ELSET=WK_3656

2.453384e-02
*ELEMENT, TYPE=SPRINGA, ELSET=WK_3657
   96842,    90590,   105003
*SPRING, ELSET=WK_3657

2.453384e-02
*ELEMENT, TYPE=SPRINGA, ELSET=WK_3658
   96843,    90595,   105004
*SPRING, ELSET=WK_3658

2.453384e-02
*ELEMENT, TYPE=SPRINGA, ELSET=WK_3659
   96844,    90600,   105005
*SPRING, ELSET=WK_3659

2.453384e-02
*ELEMENT, TYPE=SPRINGA, ELSET=WK_3660
   96845,    90605,   105006
*SPRING, ELSET=WK_3660

2.453384e-02
*ELEMENT, TYPE=SPRINGA, ELSET=WK_3661
   96846,    90610,   105007
*SPRING, ELSET=WK_3661

2.453384e-02
*ELEMENT, TYPE=SPRINGA, ELSET=WK_3662
   96847,    90615,   105008
*SPRING, ELSET=WK_3662

2.453384e-02
*ELEMENT, TYPE=SPRINGA, ELSET=WK_3663
   96848,    90620,   105009
*SPRING, ELSET=WK_3663

2.453384e-02
*ELEMENT, TYPE=SPRINGA, ELSET=WK_3664
   96849,    90625,   105010
*SPRING, ELSET=WK_3664

2.453384e-02
*ELEMENT, TYPE=SPRINGA, ELSET=WK_3665
   96850,    90630,   105011
*SPRING, ELSET=WK_3665

2.453384e-02
*ELEMENT, TYPE=SPRINGA, ELSET=WK_3666
   96851,    90635,   105012
*SPRING, ELSET=WK_3666

2.453384e-02
*ELEMENT, TYPE=SPRINGA, ELSET=WK_3667
   96852,    90640,   105013
*SPRING, ELSET=WK_3667

2.453384e-02
*ELEMENT, TYPE=SPRINGA, ELSET=WK_3668
   96853,    90645,   105014
*SPRING, ELSET=WK_3668

2.453384e-02
*ELEMENT, TYPE=SPRINGA, ELSET=WK_3669
   96854,    90650,   105015
*SPRING, ELSET=WK_3669

2.453384e-02
*ELEMENT, TYPE=SPRINGA, ELSET=WK_3670
   96855,    90655,   105016
*SPRING, ELSET=WK_3670

2.453384e-02
*ELEMENT, TYPE=SPRINGA, ELSET=WK_3671
   96856,    90660,   105017
*SPRING, ELSET=WK_3671

2.453384e-02
*ELEMENT, TYPE=SPRINGA, ELSET=WK_3672
   96857,    90665,   105018
*SPRING, ELSET=WK_3672

2.453384e-02
*ELEMENT, TYPE=SPRINGA, ELSET=WK_3673
   96858,    90670,   105019
*SPRING, ELSET=WK_3673

2.453384e-02
*ELEMENT, TYPE=SPRINGA, ELSET=WK_3674
   96859,    90675,   105020
*SPRING, ELSET=WK_3674

2.453384e-02
*ELEMENT, TYPE=SPRINGA, ELSET=WK_3675
   96860,    90680,   105021
*SPRING, ELSET=WK_3675

2.453384e-02
*ELEMENT, TYPE=SPRINGA, ELSET=WK_3676
   96861,    90685,   105022
*SPRING, ELSET=WK_3676

2.453384e-02
*ELEMENT, TYPE=SPRINGA, ELSET=WK_3677
   96862,    90690,   105023
*SPRING, ELSET=WK_3677

2.453384e-02
*ELEMENT, TYPE=SPRINGA, ELSET=WK_3678
   96863,    90695,   105024
*SPRING, ELSET=WK_3678

2.453384e-02
*ELEMENT, TYPE=SPRINGA, ELSET=WK_3679
   96864,    90700,   105025
*SPRING, ELSET=WK_3679

2.453384e-02
*ELEMENT, TYPE=SPRINGA, ELSET=WK_3680
   96865,    90705,   105026
*SPRING, ELSET=WK_3680

2.453384e-02
*ELEMENT, TYPE=SPRINGA, ELSET=WK_3681
   96866,    90710,   105027
*SPRING, ELSET=WK_3681

2.453384e-02
*ELEMENT, TYPE=SPRINGA, ELSET=WK_3682
   96867,    90715,   105028
*SPRING, ELSET=WK_3682

2.453384e-02
*ELEMENT, TYPE=SPRINGA, ELSET=WK_3683
   96868,    90720,   105029
*SPRING, ELSET=WK_3683

2.453384e-02
*ELEMENT, TYPE=SPRINGA, ELSET=WK_3684
   96869,    90725,   105030
*SPRING, ELSET=WK_3684

2.453384e-02
*ELEMENT, TYPE=SPRINGA, ELSET=WK_3685
   96870,    90730,   105031
*SPRING, ELSET=WK_3685

2.453384e-02
*ELEMENT, TYPE=SPRINGA, ELSET=WK_3686
   96871,    90735,   105032
*SPRING, ELSET=WK_3686

2.453384e-02
*ELEMENT, TYPE=SPRINGA, ELSET=WK_3687
   96872,    90740,   105033
*SPRING, ELSET=WK_3687

2.453384e-02
*ELEMENT, TYPE=SPRINGA, ELSET=WK_3688
   96873,    90745,   105034
*SPRING, ELSET=WK_3688

2.453384e-02
*ELEMENT, TYPE=SPRINGA, ELSET=WK_3689
   96874,    90750,   105035
*SPRING, ELSET=WK_3689

2.453384e-02
*ELEMENT, TYPE=SPRINGA, ELSET=WK_3690
   96875,    90755,   105036
*SPRING, ELSET=WK_3690

2.453384e-02
*ELEMENT, TYPE=SPRINGA, ELSET=WK_3691
   96876,    90760,   105037
*SPRING, ELSET=WK_3691

2.453384e-02
*ELEMENT, TYPE=SPRINGA, ELSET=WK_3692
   96877,    90765,   105038
*SPRING, ELSET=WK_3692

2.453384e-02
*ELEMENT, TYPE=SPRINGA, ELSET=WK_3693
   96878,    90770,   105039
*SPRING, ELSET=WK_3693

2.453384e-02
*ELEMENT, TYPE=SPRINGA, ELSET=WK_3694
   96879,    90775,   105040
*SPRING, ELSET=WK_3694

2.453384e-02
*ELEMENT, TYPE=SPRINGA, ELSET=WK_3695
   96880,    90780,   105041
*SPRING, ELSET=WK_3695

2.453384e-02
*ELEMENT, TYPE=SPRINGA, ELSET=WK_3696
   96881,    90785,   105042
*SPRING, ELSET=WK_3696

2.453384e-02
*ELEMENT, TYPE=SPRINGA, ELSET=WK_3697
   96882,    90790,   105043
*SPRING, ELSET=WK_3697

2.453384e-02
*ELEMENT, TYPE=SPRINGA, ELSET=WK_3698
   96883,    90795,   105044
*SPRING, ELSET=WK_3698

2.453384e-02
*ELEMENT, TYPE=SPRINGA, ELSET=WK_3699
   96884,    90800,   105045
*SPRING, ELSET=WK_3699

2.453384e-02
*ELEMENT, TYPE=SPRINGA, ELSET=WK_3700
   96885,    90805,   105046
*SPRING, ELSET=WK_3700

2.453384e-02
*ELEMENT, TYPE=SPRINGA, ELSET=WK_3701
   96886,    90810,   105047
*SPRING, ELSET=WK_3701

2.453384e-02
*ELEMENT, TYPE=SPRINGA, ELSET=WK_3702
   96887,    90815,   105048
*SPRING, ELSET=WK_3702

2.453384e-02
*ELEMENT, TYPE=SPRINGA, ELSET=WK_3703
   96888,    90820,   105049
*SPRING, ELSET=WK_3703

2.453384e-02
*ELEMENT, TYPE=SPRINGA, ELSET=WK_3704
   96889,    90825,   105050
*SPRING, ELSET=WK_3704

2.453384e-02
*ELEMENT, TYPE=SPRINGA, ELSET=WK_3705
   96890,    90830,   105051
*SPRING, ELSET=WK_3705

2.453384e-02
*ELEMENT, TYPE=SPRINGA, ELSET=WK_3706
   96891,    90835,   105052
*SPRING, ELSET=WK_3706

2.453384e-02
*ELEMENT, TYPE=SPRINGA, ELSET=WK_3707
   96892,    90840,   105053
*SPRING, ELSET=WK_3707

2.453384e-02
*ELEMENT, TYPE=SPRINGA, ELSET=WK_3708
   96893,    90845,   105054
*SPRING, ELSET=WK_3708

2.453384e-02
*ELEMENT, TYPE=SPRINGA, ELSET=WK_3709
   96894,    90850,   105055
*SPRING, ELSET=WK_3709

2.453384e-02
*ELEMENT, TYPE=SPRINGA, ELSET=WK_3710
   96895,    90855,   105056
*SPRING, ELSET=WK_3710

2.453384e-02
*ELEMENT, TYPE=SPRINGA, ELSET=WK_3711
   96896,    90860,   105057
*SPRING, ELSET=WK_3711

2.453384e-02
*ELEMENT, TYPE=SPRINGA, ELSET=WK_3712
   96897,    90865,   105058
*SPRING, ELSET=WK_3712

2.453384e-02
*ELEMENT, TYPE=SPRINGA, ELSET=WK_3713
   96898,    90870,   105059
*SPRING, ELSET=WK_3713

2.453384e-02
*ELEMENT, TYPE=SPRINGA, ELSET=WK_3714
   96899,    90875,   105060
*SPRING, ELSET=WK_3714

2.453384e-02
*ELEMENT, TYPE=SPRINGA, ELSET=WK_3715
   96900,    90880,   105061
*SPRING, ELSET=WK_3715

2.453384e-02
*ELEMENT, TYPE=SPRINGA, ELSET=WK_3716
   96901,    90885,   105062
*SPRING, ELSET=WK_3716

2.453384e-02
*ELEMENT, TYPE=SPRINGA, ELSET=WK_3717
   96902,    90890,   105063
*SPRING, ELSET=WK_3717

2.453384e-02
*ELEMENT, TYPE=SPRINGA, ELSET=WK_3718
   96903,    90895,   105064
*SPRING, ELSET=WK_3718

2.453384e-02
*ELEMENT, TYPE=SPRINGA, ELSET=WK_3719
   96904,    90900,   105065
*SPRING, ELSET=WK_3719

2.453384e-02
*ELEMENT, TYPE=SPRINGA, ELSET=WK_3720
   96905,    90905,   105066
*SPRING, ELSET=WK_3720

2.453384e-02
*ELEMENT, TYPE=SPRINGA, ELSET=WK_3721
   96906,    90910,   105067
*SPRING, ELSET=WK_3721

2.453384e-02
*ELEMENT, TYPE=SPRINGA, ELSET=WK_3722
   96907,    90915,   105068
*SPRING, ELSET=WK_3722

2.453384e-02
*ELEMENT, TYPE=SPRINGA, ELSET=WK_3723
   96908,    90920,   105069
*SPRING, ELSET=WK_3723

2.453384e-02
*ELEMENT, TYPE=SPRINGA, ELSET=WK_3724
   96909,    90925,   105070
*SPRING, ELSET=WK_3724

2.453384e-02
*ELEMENT, TYPE=SPRINGA, ELSET=WK_3725
   96910,    90930,   105071
*SPRING, ELSET=WK_3725

2.453384e-02
*ELEMENT, TYPE=SPRINGA, ELSET=WK_3726
   96911,    90935,   105072
*SPRING, ELSET=WK_3726

2.453384e-02
*ELEMENT, TYPE=SPRINGA, ELSET=WK_3727
   96912,    90940,   105073
*SPRING, ELSET=WK_3727

2.453384e-02
*ELEMENT, TYPE=SPRINGA, ELSET=WK_3728
   96913,    90945,   105074
*SPRING, ELSET=WK_3728

2.453384e-02
*ELEMENT, TYPE=SPRINGA, ELSET=WK_3729
   96914,    90950,   105075
*SPRING, ELSET=WK_3729

2.453384e-02
*ELEMENT, TYPE=SPRINGA, ELSET=WK_3730
   96915,    90955,   105076
*SPRING, ELSET=WK_3730

2.453384e-02
*ELEMENT, TYPE=SPRINGA, ELSET=WK_3731
   96916,    90960,   105077
*SPRING, ELSET=WK_3731

2.453384e-02
*ELEMENT, TYPE=SPRINGA, ELSET=WK_3732
   96917,    90965,   105078
*SPRING, ELSET=WK_3732

2.453384e-02
*ELEMENT, TYPE=SPRINGA, ELSET=WK_3733
   96918,    90970,   105079
*SPRING, ELSET=WK_3733

2.453384e-02
*ELEMENT, TYPE=SPRINGA, ELSET=WK_3734
   96919,    90975,   105080
*SPRING, ELSET=WK_3734

2.453384e-02
*ELEMENT, TYPE=SPRINGA, ELSET=WK_3735
   96920,    90980,   105081
*SPRING, ELSET=WK_3735

2.453384e-02
*ELEMENT, TYPE=SPRINGA, ELSET=WK_3736
   96921,    90985,   105082
*SPRING, ELSET=WK_3736

2.453384e-02
*ELEMENT, TYPE=SPRINGA, ELSET=WK_3737
   96922,    90990,   105083
*SPRING, ELSET=WK_3737

2.453384e-02
*ELEMENT, TYPE=SPRINGA, ELSET=WK_3738
   96923,    90995,   105084
*SPRING, ELSET=WK_3738

2.453384e-02
*ELEMENT, TYPE=SPRINGA, ELSET=WK_3739
   96924,    91000,   105085
*SPRING, ELSET=WK_3739

2.453384e-02
*ELEMENT, TYPE=SPRINGA, ELSET=WK_3740
   96925,    91005,   105086
*SPRING, ELSET=WK_3740

2.453384e-02
*ELEMENT, TYPE=SPRINGA, ELSET=WK_3741
   96926,    91010,   105087
*SPRING, ELSET=WK_3741

2.453384e-02
*ELEMENT, TYPE=SPRINGA, ELSET=WK_3742
   96927,    91015,   105088
*SPRING, ELSET=WK_3742

2.453384e-02
*ELEMENT, TYPE=SPRINGA, ELSET=WK_3743
   96928,    91020,   105089
*SPRING, ELSET=WK_3743

2.453384e-02
*ELEMENT, TYPE=SPRINGA, ELSET=WK_3744
   96929,    91025,   105090
*SPRING, ELSET=WK_3744

2.453384e-02
*ELEMENT, TYPE=SPRINGA, ELSET=WK_3745
   96930,    91030,   105091
*SPRING, ELSET=WK_3745

2.453384e-02
*ELEMENT, TYPE=SPRINGA, ELSET=WK_3746
   96931,    91035,   105092
*SPRING, ELSET=WK_3746

2.453384e-02
*ELEMENT, TYPE=SPRINGA, ELSET=WK_3747
   96932,    91040,   105093
*SPRING, ELSET=WK_3747

2.453384e-02
*ELEMENT, TYPE=SPRINGA, ELSET=WK_3748
   96933,    91045,   105094
*SPRING, ELSET=WK_3748

2.453384e-02
*ELEMENT, TYPE=SPRINGA, ELSET=WK_3749
   96934,    91050,   105095
*SPRING, ELSET=WK_3749

2.453384e-02
*ELEMENT, TYPE=SPRINGA, ELSET=WK_3750
   96935,    91055,   105096
*SPRING, ELSET=WK_3750

2.453384e-02
*ELEMENT, TYPE=SPRINGA, ELSET=WK_3751
   96936,    91060,   105097
*SPRING, ELSET=WK_3751

2.453384e-02
*ELEMENT, TYPE=SPRINGA, ELSET=WK_3752
   96937,    91065,   105098
*SPRING, ELSET=WK_3752

2.453384e-02
*ELEMENT, TYPE=SPRINGA, ELSET=WK_3753
   96938,    91070,   105099
*SPRING, ELSET=WK_3753

2.453384e-02
*ELEMENT, TYPE=SPRINGA, ELSET=WK_3754
   96939,    91075,   105100
*SPRING, ELSET=WK_3754

2.453384e-02
*ELEMENT, TYPE=SPRINGA, ELSET=WK_3755
   96940,    91080,   105101
*SPRING, ELSET=WK_3755

2.453384e-02
*ELEMENT, TYPE=SPRINGA, ELSET=WK_3756
   96941,    91085,   105102
*SPRING, ELSET=WK_3756

2.453384e-02
*ELEMENT, TYPE=SPRINGA, ELSET=WK_3757
   96942,    91090,   105103
*SPRING, ELSET=WK_3757

2.453384e-02
*ELEMENT, TYPE=SPRINGA, ELSET=WK_3758
   96943,    91095,   105104
*SPRING, ELSET=WK_3758

2.453384e-02
*ELEMENT, TYPE=SPRINGA, ELSET=WK_3759
   96944,    91100,   105105
*SPRING, ELSET=WK_3759

2.453384e-02
*ELEMENT, TYPE=SPRINGA, ELSET=WK_3760
   96945,    91105,   105106
*SPRING, ELSET=WK_3760

2.453384e-02
*ELEMENT, TYPE=SPRINGA, ELSET=WK_3761
   96946,    91110,   105107
*SPRING, ELSET=WK_3761

2.453384e-02
*ELEMENT, TYPE=SPRINGA, ELSET=WK_3762
   96947,    91115,   105108
*SPRING, ELSET=WK_3762

2.453384e-02
*ELEMENT, TYPE=SPRINGA, ELSET=WK_3763
   96948,    91120,   105109
*SPRING, ELSET=WK_3763

2.453384e-02
*ELEMENT, TYPE=SPRINGA, ELSET=WK_3764
   96949,    91125,   105110
*SPRING, ELSET=WK_3764

2.453384e-02
*ELEMENT, TYPE=SPRINGA, ELSET=WK_3765
   96950,    91130,   105111
*SPRING, ELSET=WK_3765

2.453384e-02
*ELEMENT, TYPE=SPRINGA, ELSET=WK_3766
   96951,    91135,   105112
*SPRING, ELSET=WK_3766

2.453384e-02
*ELEMENT, TYPE=SPRINGA, ELSET=WK_3767
   96952,    91140,   105113
*SPRING, ELSET=WK_3767

2.453384e-02
*ELEMENT, TYPE=SPRINGA, ELSET=WK_3768
   96953,    91145,   105114
*SPRING, ELSET=WK_3768

2.453384e-02
*ELEMENT, TYPE=SPRINGA, ELSET=WK_3769
   96954,    91150,   105115
*SPRING, ELSET=WK_3769

2.453384e-02
*ELEMENT, TYPE=SPRINGA, ELSET=WK_3770
   96955,    91155,   105116
*SPRING, ELSET=WK_3770

2.453384e-02
*ELEMENT, TYPE=SPRINGA, ELSET=WK_3771
   96956,    91160,   105117
*SPRING, ELSET=WK_3771

2.453384e-02
*ELEMENT, TYPE=SPRINGA, ELSET=WK_3772
   96957,    91165,   105118
*SPRING, ELSET=WK_3772

2.453384e-02
*ELEMENT, TYPE=SPRINGA, ELSET=WK_3773
   96958,    91170,   105119
*SPRING, ELSET=WK_3773

2.453384e-02
*ELEMENT, TYPE=SPRINGA, ELSET=WK_3774
   96959,    91175,   105120
*SPRING, ELSET=WK_3774

2.453384e-02
*ELEMENT, TYPE=SPRINGA, ELSET=WK_3775
   96960,    91180,   105121
*SPRING, ELSET=WK_3775

2.453384e-02
*ELEMENT, TYPE=SPRINGA, ELSET=WK_3776
   96961,    91185,   105122
*SPRING, ELSET=WK_3776

2.453384e-02
*ELEMENT, TYPE=SPRINGA, ELSET=WK_3777
   96962,    91190,   105123
*SPRING, ELSET=WK_3777

2.453384e-02
*ELEMENT, TYPE=SPRINGA, ELSET=WK_3778
   96963,    91195,   105124
*SPRING, ELSET=WK_3778

2.453384e-02
*ELEMENT, TYPE=SPRINGA, ELSET=WK_3779
   96964,    91200,   105125
*SPRING, ELSET=WK_3779

2.453384e-02
*ELEMENT, TYPE=SPRINGA, ELSET=WK_3780
   96965,    91205,   105126
*SPRING, ELSET=WK_3780

2.453384e-02
*ELEMENT, TYPE=SPRINGA, ELSET=WK_3781
   96966,    91210,   105127
*SPRING, ELSET=WK_3781

2.453384e-02
*ELEMENT, TYPE=SPRINGA, ELSET=WK_3782
   96967,    91215,   105128
*SPRING, ELSET=WK_3782

2.453384e-02
*ELEMENT, TYPE=SPRINGA, ELSET=WK_3783
   96968,    91220,   105129
*SPRING, ELSET=WK_3783

2.453384e-02
*ELEMENT, TYPE=SPRINGA, ELSET=WK_3784
   96969,    91225,   105130
*SPRING, ELSET=WK_3784

2.453384e-02
*ELEMENT, TYPE=SPRINGA, ELSET=WK_3785
   96970,    91230,   105131
*SPRING, ELSET=WK_3785

2.453384e-02
*ELEMENT, TYPE=SPRINGA, ELSET=WK_3786
   96971,    91235,   105132
*SPRING, ELSET=WK_3786

2.453384e-02
*ELEMENT, TYPE=SPRINGA, ELSET=WK_3787
   96972,    91240,   105133
*SPRING, ELSET=WK_3787

2.453384e-02
*ELEMENT, TYPE=SPRINGA, ELSET=WK_3788
   96973,    91245,   105134
*SPRING, ELSET=WK_3788

2.453384e-02
*ELEMENT, TYPE=SPRINGA, ELSET=WK_3789
   96974,    91250,   105135
*SPRING, ELSET=WK_3789

2.453384e-02
*ELEMENT, TYPE=SPRINGA, ELSET=WK_3790
   96975,    91255,   105136
*SPRING, ELSET=WK_3790

2.453384e-02
*ELEMENT, TYPE=SPRINGA, ELSET=WK_3791
   96976,    91260,   105137
*SPRING, ELSET=WK_3791

2.453384e-02
*ELEMENT, TYPE=SPRINGA, ELSET=WK_3792
   96977,    91265,   105138
*SPRING, ELSET=WK_3792

2.453384e-02
*ELEMENT, TYPE=SPRINGA, ELSET=WK_3793
   96978,    91270,   105139
*SPRING, ELSET=WK_3793

2.453384e-02
*ELEMENT, TYPE=SPRINGA, ELSET=WK_3794
   96979,    91275,   105140
*SPRING, ELSET=WK_3794

2.453384e-02
*ELEMENT, TYPE=SPRINGA, ELSET=WK_3795
   96980,    91280,   105141
*SPRING, ELSET=WK_3795

2.453384e-02
*ELEMENT, TYPE=SPRINGA, ELSET=WK_3796
   96981,    91285,   105142
*SPRING, ELSET=WK_3796

2.453384e-02
*ELEMENT, TYPE=SPRINGA, ELSET=WK_3797
   96982,    91290,   105143
*SPRING, ELSET=WK_3797

2.453384e-02
*ELEMENT, TYPE=SPRINGA, ELSET=WK_3798
   96983,    91295,   105144
*SPRING, ELSET=WK_3798

2.453384e-02
*ELEMENT, TYPE=SPRINGA, ELSET=WK_3799
   96984,    91300,   105145
*SPRING, ELSET=WK_3799

2.453384e-02
*ELEMENT, TYPE=SPRINGA, ELSET=WK_3800
   96985,    91305,   105146
*SPRING, ELSET=WK_3800

2.453384e-02
*ELEMENT, TYPE=SPRINGA, ELSET=WK_3801
   96986,    91310,   105147
*SPRING, ELSET=WK_3801

2.453384e-02
*ELEMENT, TYPE=SPRINGA, ELSET=WK_3802
   96987,    91315,   105148
*SPRING, ELSET=WK_3802

2.453384e-02
*ELEMENT, TYPE=SPRINGA, ELSET=WK_3803
   96988,    91320,   105149
*SPRING, ELSET=WK_3803

2.453384e-02
*ELEMENT, TYPE=SPRINGA, ELSET=WK_3804
   96989,    91325,   105150
*SPRING, ELSET=WK_3804

2.453384e-02
*ELEMENT, TYPE=SPRINGA, ELSET=WK_3805
   96990,    91330,   105151
*SPRING, ELSET=WK_3805

2.453384e-02
*ELEMENT, TYPE=SPRINGA, ELSET=WK_3806
   96991,    91335,   105152
*SPRING, ELSET=WK_3806

2.453384e-02
*ELEMENT, TYPE=SPRINGA, ELSET=WK_3807
   96992,    91340,   105153
*SPRING, ELSET=WK_3807

2.453384e-02
*ELEMENT, TYPE=SPRINGA, ELSET=WK_3808
   96993,    91345,   105154
*SPRING, ELSET=WK_3808

2.453384e-02
*ELEMENT, TYPE=SPRINGA, ELSET=WK_3809
   96994,    91350,   105155
*SPRING, ELSET=WK_3809

2.453384e-02
*ELEMENT, TYPE=SPRINGA, ELSET=WK_3810
   96995,    91355,   105156
*SPRING, ELSET=WK_3810

2.453384e-02
*ELEMENT, TYPE=SPRINGA, ELSET=WK_3811
   96996,    91360,   105157
*SPRING, ELSET=WK_3811

2.453384e-02
*ELEMENT, TYPE=SPRINGA, ELSET=WK_3812
   96997,    91365,   105158
*SPRING, ELSET=WK_3812

2.453384e-02
*ELEMENT, TYPE=SPRINGA, ELSET=WK_3813
   96998,    91370,   105159
*SPRING, ELSET=WK_3813

2.453384e-02
*ELEMENT, TYPE=SPRINGA, ELSET=WK_3814
   96999,    91375,   105160
*SPRING, ELSET=WK_3814

2.453384e-02
*ELEMENT, TYPE=SPRINGA, ELSET=WK_3815
   97000,    91380,   105161
*SPRING, ELSET=WK_3815

2.453384e-02
*ELEMENT, TYPE=SPRINGA, ELSET=WK_3816
   97001,    91385,   105162
*SPRING, ELSET=WK_3816

2.453384e-02
*ELEMENT, TYPE=SPRINGA, ELSET=WK_3817
   97002,    91390,   105163
*SPRING, ELSET=WK_3817

2.453384e-02
*ELEMENT, TYPE=SPRINGA, ELSET=WK_3818
   97003,    91395,   105164
*SPRING, ELSET=WK_3818

2.453384e-02
*ELEMENT, TYPE=SPRINGA, ELSET=WK_3819
   97004,    91400,   105165
*SPRING, ELSET=WK_3819

2.453384e-02
*ELEMENT, TYPE=SPRINGA, ELSET=WK_3820
   97005,    91405,   105166
*SPRING, ELSET=WK_3820

2.453384e-02
*ELEMENT, TYPE=SPRINGA, ELSET=WK_3821
   97006,    91410,   105167
*SPRING, ELSET=WK_3821

2.453384e-02
*ELEMENT, TYPE=SPRINGA, ELSET=WK_3822
   97007,    91415,   105168
*SPRING, ELSET=WK_3822

2.453384e-02
*ELEMENT, TYPE=SPRINGA, ELSET=WK_3823
   97008,    91420,   105169
*SPRING, ELSET=WK_3823

2.453384e-02
*ELEMENT, TYPE=SPRINGA, ELSET=WK_3824
   97009,    91425,   105170
*SPRING, ELSET=WK_3824

2.453384e-02
*ELEMENT, TYPE=SPRINGA, ELSET=WK_3825
   97010,    91430,   105171
*SPRING, ELSET=WK_3825

2.453384e-02
*ELEMENT, TYPE=SPRINGA, ELSET=WK_3826
   97011,    91435,   105172
*SPRING, ELSET=WK_3826

2.453384e-02
*ELEMENT, TYPE=SPRINGA, ELSET=WK_3827
   97012,    91440,   105173
*SPRING, ELSET=WK_3827

2.453384e-02
*ELEMENT, TYPE=SPRINGA, ELSET=WK_3828
   97013,    91445,   105174
*SPRING, ELSET=WK_3828

2.453384e-02
*ELEMENT, TYPE=SPRINGA, ELSET=WK_3829
   97014,    91450,   105175
*SPRING, ELSET=WK_3829

2.453384e-02
*ELEMENT, TYPE=SPRINGA, ELSET=WK_3830
   97015,    91455,   105176
*SPRING, ELSET=WK_3830

2.453384e-02
*ELEMENT, TYPE=SPRINGA, ELSET=WK_3831
   97016,    91460,   105177
*SPRING, ELSET=WK_3831

2.453384e-02
*ELEMENT, TYPE=SPRINGA, ELSET=WK_3832
   97017,    91465,   105178
*SPRING, ELSET=WK_3832

2.453384e-02
*ELEMENT, TYPE=SPRINGA, ELSET=WK_3833
   97018,    91470,   105179
*SPRING, ELSET=WK_3833

2.453384e-02
*ELEMENT, TYPE=SPRINGA, ELSET=WK_3834
   97019,    91475,   105180
*SPRING, ELSET=WK_3834

2.453384e-02
*ELEMENT, TYPE=SPRINGA, ELSET=WK_3835
   97020,    91480,   105181
*SPRING, ELSET=WK_3835

2.453384e-02
*ELEMENT, TYPE=SPRINGA, ELSET=WK_3836
   97021,    91485,   105182
*SPRING, ELSET=WK_3836

2.453384e-02
*ELEMENT, TYPE=SPRINGA, ELSET=WK_3837
   97022,    91490,   105183
*SPRING, ELSET=WK_3837

2.453384e-02
*ELEMENT, TYPE=SPRINGA, ELSET=WK_3838
   97023,    91495,   105184
*SPRING, ELSET=WK_3838

2.453384e-02
*ELEMENT, TYPE=SPRINGA, ELSET=WK_3839
   97024,    91500,   105185
*SPRING, ELSET=WK_3839

2.453384e-02
*ELEMENT, TYPE=SPRINGA, ELSET=WK_3840
   97025,    91505,   105186
*SPRING, ELSET=WK_3840

2.453384e-02
*ELEMENT, TYPE=SPRINGA, ELSET=WK_3841
   97026,    91510,   105187
*SPRING, ELSET=WK_3841

2.453384e-02
*ELEMENT, TYPE=SPRINGA, ELSET=WK_3842
   97027,    91515,   105188
*SPRING, ELSET=WK_3842

2.453384e-02
*ELEMENT, TYPE=SPRINGA, ELSET=WK_3843
   97028,    91520,   105189
*SPRING, ELSET=WK_3843

2.453384e-02
*ELEMENT, TYPE=SPRINGA, ELSET=WK_3844
   97029,    91525,   105190
*SPRING, ELSET=WK_3844

2.453384e-02
*ELEMENT, TYPE=SPRINGA, ELSET=WK_3845
   97030,    91530,   105191
*SPRING, ELSET=WK_3845

2.453384e-02
*ELEMENT, TYPE=SPRINGA, ELSET=WK_3846
   97031,    91535,   105192
*SPRING, ELSET=WK_3846

2.453384e-02
*ELEMENT, TYPE=SPRINGA, ELSET=WK_3847
   97032,    91540,   105193
*SPRING, ELSET=WK_3847

2.453384e-02
*ELEMENT, TYPE=SPRINGA, ELSET=WK_3848
   97033,    91545,   105194
*SPRING, ELSET=WK_3848

2.453384e-02
*ELEMENT, TYPE=SPRINGA, ELSET=WK_3849
   97034,    91550,   105195
*SPRING, ELSET=WK_3849

2.453384e-02
*ELEMENT, TYPE=SPRINGA, ELSET=WK_3850
   97035,    91555,   105196
*SPRING, ELSET=WK_3850

2.453384e-02
*ELEMENT, TYPE=SPRINGA, ELSET=WK_3851
   97036,    91560,   105197
*SPRING, ELSET=WK_3851

2.453384e-02
*ELEMENT, TYPE=SPRINGA, ELSET=WK_3852
   97037,    91565,   105198
*SPRING, ELSET=WK_3852

2.453384e-02
*ELEMENT, TYPE=SPRINGA, ELSET=WK_3853
   97038,    91570,   105199
*SPRING, ELSET=WK_3853

2.453384e-02
*ELEMENT, TYPE=SPRINGA, ELSET=WK_3854
   97039,    91575,   105200
*SPRING, ELSET=WK_3854

2.453384e-02
*ELEMENT, TYPE=SPRINGA, ELSET=WK_3855
   97040,    91580,   105201
*SPRING, ELSET=WK_3855

2.453384e-02
*ELEMENT, TYPE=SPRINGA, ELSET=WK_3856
   97041,    91585,   105202
*SPRING, ELSET=WK_3856

2.453384e-02
*ELEMENT, TYPE=SPRINGA, ELSET=WK_3857
   97042,    91590,   105203
*SPRING, ELSET=WK_3857

2.453384e-02
*ELEMENT, TYPE=SPRINGA, ELSET=WK_3858
   97043,    91595,   105204
*SPRING, ELSET=WK_3858

2.453384e-02
*ELEMENT, TYPE=SPRINGA, ELSET=WK_3859
   97044,    91600,   105205
*SPRING, ELSET=WK_3859

2.453384e-02
*ELEMENT, TYPE=SPRINGA, ELSET=WK_3860
   97045,    91605,   105206
*SPRING, ELSET=WK_3860

2.453384e-02
*ELEMENT, TYPE=SPRINGA, ELSET=WK_3861
   97046,    91610,   105207
*SPRING, ELSET=WK_3861

2.453384e-02
*ELEMENT, TYPE=SPRINGA, ELSET=WK_3862
   97047,    91615,   105208
*SPRING, ELSET=WK_3862

2.453384e-02
*ELEMENT, TYPE=SPRINGA, ELSET=WK_3863
   97048,    91620,   105209
*SPRING, ELSET=WK_3863

2.453384e-02
*ELEMENT, TYPE=SPRINGA, ELSET=WK_3864
   97049,    91625,   105210
*SPRING, ELSET=WK_3864

2.453384e-02
*ELEMENT, TYPE=SPRINGA, ELSET=WK_3865
   97050,    91630,   105211
*SPRING, ELSET=WK_3865

2.453384e-02
*ELEMENT, TYPE=SPRINGA, ELSET=WK_3866
   97051,    91635,   105212
*SPRING, ELSET=WK_3866

2.453384e-02
*ELEMENT, TYPE=SPRINGA, ELSET=WK_3867
   97052,    91640,   105213
*SPRING, ELSET=WK_3867

2.453384e-02
*ELEMENT, TYPE=SPRINGA, ELSET=WK_3868
   97053,    91645,   105214
*SPRING, ELSET=WK_3868

2.453384e-02
*ELEMENT, TYPE=SPRINGA, ELSET=WK_3869
   97054,    91650,   105215
*SPRING, ELSET=WK_3869

2.453384e-02
*ELEMENT, TYPE=SPRINGA, ELSET=WK_3870
   97055,    91655,   105216
*SPRING, ELSET=WK_3870

2.453384e-02
*ELEMENT, TYPE=SPRINGA, ELSET=WK_3871
   97056,    91660,   105217
*SPRING, ELSET=WK_3871

2.453384e-02
*ELEMENT, TYPE=SPRINGA, ELSET=WK_3872
   97057,    91665,   105218
*SPRING, ELSET=WK_3872

2.453384e-02
*ELEMENT, TYPE=SPRINGA, ELSET=WK_3873
   97058,    91670,   105219
*SPRING, ELSET=WK_3873

2.453384e-02
*ELEMENT, TYPE=SPRINGA, ELSET=WK_3874
   97059,    91675,   105220
*SPRING, ELSET=WK_3874

2.453384e-02
*ELEMENT, TYPE=SPRINGA, ELSET=WK_3875
   97060,    91680,   105221
*SPRING, ELSET=WK_3875

2.453384e-02
*ELEMENT, TYPE=SPRINGA, ELSET=WK_3876
   97061,    91685,   105222
*SPRING, ELSET=WK_3876

2.453384e-02
*ELEMENT, TYPE=SPRINGA, ELSET=WK_3877
   97062,    91690,   105223
*SPRING, ELSET=WK_3877

2.453384e-02
*ELEMENT, TYPE=SPRINGA, ELSET=WK_3878
   97063,    91695,   105224
*SPRING, ELSET=WK_3878

2.453384e-02
*ELEMENT, TYPE=SPRINGA, ELSET=WK_3879
   97064,    91700,   105225
*SPRING, ELSET=WK_3879

2.453384e-02
*ELEMENT, TYPE=SPRINGA, ELSET=WK_3880
   97065,    91705,   105226
*SPRING, ELSET=WK_3880

2.453384e-02
*ELEMENT, TYPE=SPRINGA, ELSET=WK_3881
   97066,    91710,   105227
*SPRING, ELSET=WK_3881

2.453384e-02
*ELEMENT, TYPE=SPRINGA, ELSET=WK_3882
   97067,    91715,   105228
*SPRING, ELSET=WK_3882

2.453384e-02
*ELEMENT, TYPE=SPRINGA, ELSET=WK_3883
   97068,    91720,   105229
*SPRING, ELSET=WK_3883

2.453384e-02
*ELEMENT, TYPE=SPRINGA, ELSET=WK_3884
   97069,    91725,   105230
*SPRING, ELSET=WK_3884

2.453384e-02
*ELEMENT, TYPE=SPRINGA, ELSET=WK_3885
   97070,    91730,   105231
*SPRING, ELSET=WK_3885

2.453384e-02
*ELEMENT, TYPE=SPRINGA, ELSET=WK_3886
   97071,    91735,   105232
*SPRING, ELSET=WK_3886

1.226692e-02
*ELEMENT, TYPE=SPRINGA, ELSET=WK_3887
   97072,    91740,   105233
*SPRING, ELSET=WK_3887

1.226692e-02
*ELEMENT, TYPE=SPRINGA, ELSET=WK_3888
   97073,    91745,   105234
*SPRING, ELSET=WK_3888

1.226692e-02
*ELEMENT, TYPE=SPRINGA, ELSET=WK_3889
   97074,    91750,   105235
*SPRING, ELSET=WK_3889

1.226692e-02
*ELEMENT, TYPE=SPRINGA, ELSET=WK_3890
   97075,    91755,   105236
*SPRING, ELSET=WK_3890

1.226692e-02
*ELEMENT, TYPE=SPRINGA, ELSET=WK_3891
   97076,    91760,   105237
*SPRING, ELSET=WK_3891

1.226692e-02
*ELEMENT, TYPE=SPRINGA, ELSET=WK_3892
   97077,    91765,   105238
*SPRING, ELSET=WK_3892

1.226692e-02
*ELEMENT, TYPE=SPRINGA, ELSET=WK_3893
   97078,    91770,   105239
*SPRING, ELSET=WK_3893

1.226692e-02
*ELEMENT, TYPE=SPRINGA, ELSET=WK_3894
   97079,    91775,   105240
*SPRING, ELSET=WK_3894

1.226692e-02
*ELEMENT, TYPE=SPRINGA, ELSET=WK_3895
   97080,    91780,   105241
*SPRING, ELSET=WK_3895

1.226692e-02
*ELEMENT, TYPE=SPRINGA, ELSET=WK_3896
   97081,    91785,   105242
*SPRING, ELSET=WK_3896

1.226692e-02
*ELEMENT, TYPE=SPRINGA, ELSET=WK_3897
   97082,    91790,   105243
*SPRING, ELSET=WK_3897

1.226692e-02
*ELEMENT, TYPE=SPRINGA, ELSET=WK_3898
   97083,    91795,   105244
*SPRING, ELSET=WK_3898

1.226692e-02
*ELEMENT, TYPE=SPRINGA, ELSET=WK_3899
   97084,    91800,   105245
*SPRING, ELSET=WK_3899

1.226692e-02
*ELEMENT, TYPE=SPRINGA, ELSET=WK_3900
   97085,    91805,   105246
*SPRING, ELSET=WK_3900

1.226692e-02
*BOUNDARY
GHOST_WINKLER, 1, 3, 0
