*HEADING
on-caso-3J (CCX 2.20) - GEOMETRIA do Caso 2J + CARGAS do Caso 3F, Riks.
**
** ============================================================================
** on-caso-3J = "Caso 3J": tortuosidade em "J" (geometria do Caso 2J / on-caso-2.2)
** SUBMETIDA AO carregamento do Caso 3F (on-caso-3): compressao axial clinica
** + pressao focal da arteria oftalmica (P_contact, varrida no sweep).
**
**   GEOMETRIA (= Caso 2J / on-caso-2.2):
**     - malha reta (eixo Z) VARRIDA ao longo de uma linha de centro curva e
**       suave no plano XY (warp_centerline_sweep.py): tubo reto -> "J" anatomico;
**     - globo na ORIGEM (0,0), tangente do nervo apontando -Y; apice em
**       ~(-13.29,-26.57) mm; arco de curvatura constante (turn=-53.130102 deg);
**       comprimento de arco e raio da secao PRESERVADOS (nao estica);
**     - apos o sweep a malha esta no plano XY com a espessura da secao no eixo Z;
**     - dura ORTOTROPICA via orientacoes cilindricas POR ANEL AXIAL cujo eixo
**       segue a tangente local da curva (gen_dura_ortho_orient.py); include
**       on-caso-3J_dura_orient.inp;
**     - Winkler 200 kPa/m UNIFORME em toda a parede externa da dura (gordura
**       orbital), varrido com a MESMA linha de centro (sem pre-tensao).
**
**   CARGAS (= Caso 3F / on-caso-3): a tortuosidade NAO e mais a unica solicitacao.
**     - COMPRESSAO AXIAL clinica: deslocamento prescrito na face anterior do
**       globo, rampa Dy = 0 -> -1.0 mm (limite clinico do recuo cefalico do
**       Caso 3F; o Caso 2J usava -1.5 mm). Apos o sweep o eixo do nervo no
**       globo aponta -Y, logo a compressao axial e' em DOF 2 (-Y);
**     - PRESSAO FOCAL DA ARTERIA OFTALMICA: P_contact na face externa da dura
**       (patch CONTACT_LOCAL_SURF, carved-out de dura_outer em z~22.5 mm, +X no
**       referencial reto -> apos o warp, lado binormal/espessura). VARRIDA
**       0 -> 18068 Pa pelo sweep externo (Allrun injeta via sed). DSLOAD com
**       pressao normal a face deformada (segue o warp automaticamente);
**     - PIC (liquor) 1333 Pa (~10 mmHg) na parede interna da dura (DURA_INNER_SURF);
**     - tracao residual dos musculos extraoculares (EOM) na face do globo.
**
**   PERGUNTA CIENTIFICA: sobre um nervo JA tortuoso (J), a compressao axial
**   clinica somada a pressao focal da arteria oftalmica agrava o dobramento
**   (kink) / fechamento do SAS? Sweep de P_contact = 0 .. 18068 Pa.
**
** ============================================================================
** Geometria de base (do blockMeshDict de on-caso-1): 8 zonas concentricas
**   on / pia / sas / dura / lc / sclera_peri / sclera_ring / globo
**   (valores Bruna 2026-05-28: casco E=3 MPa, LC=300 kPa, nervo=30 kPa, nu=0.49)
**
** Discretizacao espacial (z em mm, ANTES do sweep; vira o comprimento de arco
** s = zmax - z medido a partir do globo):
**   nervo + meninges        : z = [ 0.00, 30.00 ]
**   LC + esclera (peri+ring): z = [30.00, 30.30 ]
**   globo                   : z = [30.30, 30.80 ]   (globo na origem, s=0)
**
** Lei constitutiva: NEO HOOKE compressivel (CCX *HYPERELASTIC, NEO HOOKE):
**   W = C10 (I1_bar - 3) + (1/D1) (J - 1)^2
**   C10 = G/2 = E / [4(1+nu)]   ;   D1 = 2/K = 6(1-2*nu) / E
** Elemento C3D8I (modos incompativeis): mitiga locking volumetrico em nu=0.49.
**
** ============================================================================
** Solver: *STATIC, RIKS (arc-length, Riks-Wempner-Crisfield). lambda escala o
** vetor de carga de referencia (Dy + EOM + PIC + P_contact). ARCMAX=1.0 ->
** fator maximo 1.0 (sem overshoot). lam_final<1 no .sta sinaliza colapso.
**
*INCLUDE, INPUT=on-caso-3J_mesh.inp
*INCLUDE, INPUT=on-caso-3J_winkler.inp
**
** ============================================================================
** MATERIAIS (NEO HOOKE compressivel, nu=0.49 quase-incompressivel)
** Unidades SI: Pa (=N/m^2). Multiplicar por 1e-6 p/ ler em MPa.
** ============================================================================
*MATERIAL, NAME=ON_MAT
**                       C10 (Pa),  D1 (1/Pa)   [E=30 kPa, MAT_NERVO]
*HYPERELASTIC, NEO HOOKE
5.0335e+03, 4.0000e-06
*DENSITY
1000
**
*MATERIAL, NAME=SAS_MAT
** SAS solido "fluido-like": macio + ALTAMENTE compressivel (nu=0.05).
**   E  = 3 kPa, nu = 0.05 -> C10 = 714.3 Pa, D1 = 1.8e-3 1/Pa
*HYPERELASTIC, NEO HOOKE
7.1430e+02, 1.8000e-03
*DENSITY
1000
**
*MATERIAL, NAME=PIA_MAT
**                       C10 (Pa),  D1 (1/Pa)   [E=3 MPa, MAT_RIGIDO]
*HYPERELASTIC, NEO HOOKE
5.0335e+05, 4.0000e-08
*DENSITY
1100
**
*MATERIAL, NAME=DURA_MAT
** Dura ortotropica (Holzapfel-like simplificado): E_circ = 3x E_rad/axial.
** A orientacao cilindrica POR ANEL (eixo = tangente local da curva em "J")
** vem de on-caso-3J_dura_orient.inp (gen_dura_ortho_orient.py). Linear elastic
** ortotropico em sistema cilindrico (1=radial, 2=circ, 3=axial).
*ELASTIC, TYPE=ENGINEERING CONSTANTS
** E_r,    E_theta, E_z,     nu_rt, nu_rz, nu_tz, G_rt,    G_rz
3.000e+6, 9.000e+6, 3.000e+6, 0.30,  0.30,  0.30,  1.150e+6, 1.150e+6
** G_tz, T
1.150e+6, 0.0
*DENSITY
1100
**
*MATERIAL, NAME=LC_MAT
**                       C10 (Pa),  D1 (1/Pa)   [E=300 kPa, MAT_LC]
*HYPERELASTIC, NEO HOOKE
5.0335e+04, 4.0000e-07
*DENSITY
1100
**
*MATERIAL, NAME=SCLERA_PERI_MAT
**                       C10 (Pa),  D1 (1/Pa)   [E=3 MPa, MAT_RIGIDO]
*HYPERELASTIC, NEO HOOKE
5.0335e+05, 4.0000e-08
*DENSITY
1400
**
*MATERIAL, NAME=SCLERA_RING_MAT
**                       C10 (Pa),  D1 (1/Pa)   [E=3 MPa, MAT_RIGIDO]
*HYPERELASTIC, NEO HOOKE
5.0335e+05, 4.0000e-08
*DENSITY
1400
**
*MATERIAL, NAME=GLOBO_MAT
**                       C10 (Pa),  D1 (1/Pa)   [E=3 MPa, MAT_RIGIDO]
*HYPERELASTIC, NEO HOOKE
5.0335e+05, 4.0000e-08
*DENSITY
1400
**
*SOLID SECTION, ELSET=ON,          MATERIAL=ON_MAT
*SOLID SECTION, ELSET=PIA,         MATERIAL=PIA_MAT
*SOLID SECTION, ELSET=SAS,         MATERIAL=SAS_MAT
** Dura ortotropica em "J": secoes solidas por anel + orientacoes cilindricas
** cuja axial segue a tangente local da curva (gen_dura_ortho_orient.py).
*INCLUDE, INPUT=on-caso-3J_dura_orient.inp
*SOLID SECTION, ELSET=LC,          MATERIAL=LC_MAT
*SOLID SECTION, ELSET=SCLERA_PERI, MATERIAL=SCLERA_PERI_MAT
*SOLID SECTION, ELSET=SCLERA_RING, MATERIAL=SCLERA_RING_MAT
*SOLID SECTION, ELSET=GLOBO,       MATERIAL=GLOBO_MAT
**
** ============================================================================
** AMPLITUDE -- rampa linear da compressao axial (Dy) + EOM + PIC
** ============================================================================
*AMPLITUDE, NAME=DZRAMP
0.0, 0.0, 1.0, 1.0
**
** ============================================================================
** STEP UNICO -- Riks arc-length escala todas as cargas (Dy + EOM + PIC + P_contact)
** ============================================================================
*STEP, NLGEOM=YES, INC=500
*STATIC, RIKS
0.025, 1.0, 1e-5, 0.05, 1.0
**
** ====================================================================
** Engastes
** ====================================================================
** Engaste posterior (canal optico, z=0): 1,2,3=0 em todas as posteriores.
*BOUNDARY
POSTERIOR_ON,   1, 3, 0.0
POSTERIOR_PIA,  1, 3, 0.0
POSTERIOR_SAS,  1, 3, 0.0
POSTERIOR_DURA, 1, 3, 0.0
**
** Globo na origem: apos o sweep o eixo do nervo no globo aponta -Y. A orbita
** confina as direcoes PERPENDICULARES ao eixo -> fixa X (DOF 1) e Z (DOF 3,
** espessura). A compressao axial e prescrita em -Y (DOF 2): Dy = 0 -> -1.0 mm
** (limite clinico do Caso 3F). Riks escala via lambda.
*BOUNDARY
ANTERIOR_GLOBO, 1, 1, 0.0
ANTERIOR_GLOBO, 3, 3, 0.0
**
*BOUNDARY, AMPLITUDE=DZRAMP
ANTERIOR_GLOBO, 2, 2, -1.00e-3
**
** ====================================================================
** Tracao residual dos musculos extraoculares (EOM) na face do globo
** ====================================================================
** Pequena contribuicao em -Y (tangente do nervo no globo apos o sweep). Como
** ANTERIOR_GLOBO tem Dy PRESCRITO no DOF 2, este CLOAD no mesmo DOF e' sobreposto
** pela BC cinematica (mantido por coerencia documental com o Caso 2J/3F).
*CLOAD, AMPLITUDE=DZRAMP
ANTERIOR_GLOBO, 2, -1.0e-4
**
** ====================================================================
** P_contact -- ARTERIA OFTALMICA pressionando a dura mater externamente
** ====================================================================
** Carga focal de pressao na face externa da dura (patch CONTACT_LOCAL_SURF,
** carved-out de dura_outer em z~22.5 mm). Posicionada NO PLANO do "J", no lado
** CONVEXO/externo do arco (face +Y no referencial reto -> +X no plano do J apos
** o warp), empurrando para DENTRO contra a curvatura (oposta ao "C" axial).
** P>0 aplica pressao normal a face deformada, comprimindo o arco do nervo.
** Riks escala P_contact via lambda (0 -> valor injetado, ARCMAX=1.0). O sweep
** externo (Allrun) injeta: 0, 4517, 9034, 13551, 18068 Pa.
*DSLOAD
CONTACT_LOCAL_SURF, P, 9034
**
** ====================================================================
** PIC (pressao intracraniana ~10 mmHg) na PAREDE INTERNA da dura
** ====================================================================
** P=1333 Pa em DURA_INNER_SURF (interface dura<->sas): empurra a dura
** radialmente p/ FORA -> tracao circunferencial -> mantem a bainha tensa
** (mata a "sanfona") mesmo na geometria curva. Rampada com DZRAMP.
*DSLOAD, AMPLITUDE=DZRAMP
DURA_INNER_SURF, P, 1333.0
**
** Outputs por incremento (.dat)
*NODE PRINT, FREQUENCY=1, NSET=POSTERIOR_DURA, TOTALS=ONLY
RF, U
*NODE PRINT, FREQUENCY=1, NSET=POSTERIOR_PIA, TOTALS=ONLY
RF, U
*NODE PRINT, FREQUENCY=1, NSET=POSTERIOR_ON, TOTALS=ONLY
RF, U
*NODE PRINT, FREQUENCY=1, NSET=ANTERIOR_GLOBO, TOTALS=ONLY
RF, U
**
** Outputs de campo no .frd (ParaView via ccx2paraview)
*NODE FILE, FREQUENCY=5
U, RF
*EL FILE, FREQUENCY=5
S, E
**
*END STEP
