** Winkler foundation springs em dura_outer (excluindo perturbation_strip)
** Gerado automaticamente por foam_polymesh_to_ccx_inp.py
** k_winkler = 2.000e+05 Pa/m, 249 springs
*NODE, NSET=GHOST_WINKLER
    7190,  1.76847411e-03, -1.76847411e-03,  0.00000000e+00
    7191,  2.16592956e-03, -1.25050002e-03,  0.00000000e+00
    7192,  2.41578050e-03, -6.47306439e-04,  0.00000000e+00
    7193,  2.50100000e-03,  2.22133423e-19,  0.00000000e+00
    7194,  2.41578050e-03,  6.47306439e-04,  0.00000000e+00
    7195,  2.16592956e-03,  1.25050002e-03,  0.00000000e+00
    7196,  1.76847411e-03,  1.76847411e-03,  0.00000000e+00
    7197,  1.76847411e-03, -1.76847411e-03,  3.00000000e-03
    7198,  2.16592956e-03, -1.25050002e-03,  3.00000000e-03
    7199,  2.41578050e-03, -6.47306439e-04,  3.00000000e-03
    7200,  2.50100000e-03,  2.22133423e-19,  3.00000000e-03
    7201,  2.41578050e-03,  6.47306439e-04,  3.00000000e-03
    7202,  2.16592956e-03,  1.25050002e-03,  3.00000000e-03
    7203,  1.76847411e-03,  1.76847411e-03,  3.00000000e-03
    7204,  1.76847411e-03, -1.76847411e-03,  6.00000000e-03
    7205,  2.16592956e-03, -1.25050002e-03,  6.00000000e-03
    7206,  2.41578050e-03, -6.47306439e-04,  6.00000000e-03
    7207,  2.50100000e-03,  2.22133423e-19,  6.00000000e-03
    7208,  2.41578050e-03,  6.47306439e-04,  6.00000000e-03
    7209,  2.16592956e-03,  1.25050002e-03,  6.00000000e-03
    7210,  1.76847411e-03,  1.76847411e-03,  6.00000000e-03
    7211,  1.76847411e-03, -1.76847411e-03,  9.00000000e-03
    7212,  2.16592956e-03, -1.25050002e-03,  9.00000000e-03
    7213,  2.16592956e-03,  1.25050002e-03,  9.00000000e-03
    7214,  1.76847411e-03,  1.76847411e-03,  9.00000000e-03
    7215,  1.76847411e-03, -1.76847411e-03,  1.20000000e-02
    7216,  2.16592956e-03, -1.25050002e-03,  1.20000000e-02
    7217,  2.16592956e-03,  1.25050002e-03,  1.20000000e-02
    7218,  1.76847411e-03,  1.76847411e-03,  1.20000000e-02
    7219,  1.76847411e-03, -1.76847411e-03,  1.50000000e-02
    7220,  2.16592956e-03, -1.25050002e-03,  1.50000000e-02
    7221,  2.16592956e-03,  1.25050002e-03,  1.50000000e-02
    7222,  1.76847411e-03,  1.76847411e-03,  1.50000000e-02
    7223,  1.76847411e-03, -1.76847411e-03,  1.80000000e-02
    7224,  2.16592956e-03, -1.25050002e-03,  1.80000000e-02
    7225,  2.16592956e-03,  1.25050002e-03,  1.80000000e-02
    7226,  1.76847411e-03,  1.76847411e-03,  1.80000000e-02
    7227,  1.76847411e-03, -1.76847411e-03,  2.10000000e-02
    7228,  2.16592956e-03, -1.25050002e-03,  2.10000000e-02
    7229,  2.16592956e-03,  1.25050002e-03,  2.10000000e-02
    7230,  1.76847411e-03,  1.76847411e-03,  2.10000000e-02
    7231,  1.76847411e-03, -1.76847411e-03,  2.40000000e-02
    7232,  2.16592956e-03, -1.25050002e-03,  2.40000000e-02
    7233,  2.41578050e-03, -6.47306439e-04,  2.40000000e-02
    7234,  2.50100000e-03,  2.22133423e-19,  2.40000000e-02
    7235,  2.41578050e-03,  6.47306439e-04,  2.40000000e-02
    7236,  2.16592956e-03,  1.25050002e-03,  2.40000000e-02
    7237,  1.76847411e-03,  1.76847411e-03,  2.40000000e-02
    7238,  1.76847411e-03, -1.76847411e-03,  2.70000000e-02
    7239,  2.16592956e-03, -1.25050002e-03,  2.70000000e-02
    7240,  2.41578050e-03, -6.47306439e-04,  2.70000000e-02
    7241,  2.50100000e-03,  2.22133423e-19,  2.70000000e-02
    7242,  2.41578050e-03,  6.47306439e-04,  2.70000000e-02
    7243,  2.16592956e-03,  1.25050002e-03,  2.70000000e-02
    7244,  1.76847411e-03,  1.76847411e-03,  2.70000000e-02
    7245,  1.76847411e-03, -1.76847411e-03,  3.00000000e-02
    7246,  2.16592956e-03, -1.25050002e-03,  3.00000000e-02
    7247,  2.41578050e-03, -6.47306439e-04,  3.00000000e-02
    7248,  2.50100000e-03,  2.22133423e-19,  3.00000000e-02
    7249,  2.41578050e-03,  6.47306439e-04,  3.00000000e-02
    7250,  2.16592956e-03,  1.25050002e-03,  3.00000000e-02
    7251,  1.76847411e-03,  1.76847411e-03,  3.00000000e-02
    7252,  1.25050002e-03,  2.16592956e-03,  0.00000000e+00
    7253,  6.47306439e-04,  2.41578050e-03,  0.00000000e+00
    7254,  2.22133423e-19,  2.50100000e-03,  0.00000000e+00
    7255, -6.47306439e-04,  2.41578050e-03,  0.00000000e+00
    7256, -1.25050002e-03,  2.16592956e-03,  0.00000000e+00
    7257, -1.76847411e-03,  1.76847411e-03,  0.00000000e+00
    7258,  1.25050002e-03,  2.16592956e-03,  3.00000000e-03
    7259,  6.47306439e-04,  2.41578050e-03,  3.00000000e-03
    7260,  2.22133423e-19,  2.50100000e-03,  3.00000000e-03
    7261, -6.47306439e-04,  2.41578050e-03,  3.00000000e-03
    7262, -1.25050002e-03,  2.16592956e-03,  3.00000000e-03
    7263, -1.76847411e-03,  1.76847411e-03,  3.00000000e-03
    7264,  1.25050002e-03,  2.16592956e-03,  6.00000000e-03
    7265,  6.47306439e-04,  2.41578050e-03,  6.00000000e-03
    7266,  2.22133423e-19,  2.50100000e-03,  6.00000000e-03
    7267, -6.47306439e-04,  2.41578050e-03,  6.00000000e-03
    7268, -1.25050002e-03,  2.16592956e-03,  6.00000000e-03
    7269, -1.76847411e-03,  1.76847411e-03,  6.00000000e-03
    7270,  1.25050002e-03,  2.16592956e-03,  9.00000000e-03
    7271,  6.47306439e-04,  2.41578050e-03,  9.00000000e-03
    7272,  2.22133423e-19,  2.50100000e-03,  9.00000000e-03
    7273, -6.47306439e-04,  2.41578050e-03,  9.00000000e-03
    7274, -1.25050002e-03,  2.16592956e-03,  9.00000000e-03
    7275, -1.76847411e-03,  1.76847411e-03,  9.00000000e-03
    7276,  1.25050002e-03,  2.16592956e-03,  1.20000000e-02
    7277,  6.47306439e-04,  2.41578050e-03,  1.20000000e-02
    7278,  2.22133423e-19,  2.50100000e-03,  1.20000000e-02
    7279, -6.47306439e-04,  2.41578050e-03,  1.20000000e-02
    7280, -1.25050002e-03,  2.16592956e-03,  1.20000000e-02
    7281, -1.76847411e-03,  1.76847411e-03,  1.20000000e-02
    7282,  1.25050002e-03,  2.16592956e-03,  1.50000000e-02
    7283,  6.47306439e-04,  2.41578050e-03,  1.50000000e-02
    7284,  2.22133423e-19,  2.50100000e-03,  1.50000000e-02
    7285, -6.47306439e-04,  2.41578050e-03,  1.50000000e-02
    7286, -1.25050002e-03,  2.16592956e-03,  1.50000000e-02
    7287, -1.76847411e-03,  1.76847411e-03,  1.50000000e-02
    7288,  1.25050002e-03,  2.16592956e-03,  1.80000000e-02
    7289,  6.47306439e-04,  2.41578050e-03,  1.80000000e-02
    7290,  2.22133423e-19,  2.50100000e-03,  1.80000000e-02
    7291, -6.47306439e-04,  2.41578050e-03,  1.80000000e-02
    7292, -1.25050002e-03,  2.16592956e-03,  1.80000000e-02
    7293, -1.76847411e-03,  1.76847411e-03,  1.80000000e-02
    7294,  1.25050002e-03,  2.16592956e-03,  2.10000000e-02
    7295,  6.47306439e-04,  2.41578050e-03,  2.10000000e-02
    7296,  2.22133423e-19,  2.50100000e-03,  2.10000000e-02
    7297, -6.47306439e-04,  2.41578050e-03,  2.10000000e-02
    7298, -1.25050002e-03,  2.16592956e-03,  2.10000000e-02
    7299, -1.76847411e-03,  1.76847411e-03,  2.10000000e-02
    7300,  1.25050002e-03,  2.16592956e-03,  2.40000000e-02
    7301,  6.47306439e-04,  2.41578050e-03,  2.40000000e-02
    7302,  2.22133423e-19,  2.50100000e-03,  2.40000000e-02
    7303, -6.47306439e-04,  2.41578050e-03,  2.40000000e-02
    7304, -1.25050002e-03,  2.16592956e-03,  2.40000000e-02
    7305, -1.76847411e-03,  1.76847411e-03,  2.40000000e-02
    7306,  1.25050002e-03,  2.16592956e-03,  2.70000000e-02
    7307,  6.47306439e-04,  2.41578050e-03,  2.70000000e-02
    7308,  2.22133423e-19,  2.50100000e-03,  2.70000000e-02
    7309, -6.47306439e-04,  2.41578050e-03,  2.70000000e-02
    7310, -1.25050002e-03,  2.16592956e-03,  2.70000000e-02
    7311, -1.76847411e-03,  1.76847411e-03,  2.70000000e-02
    7312,  1.25050002e-03,  2.16592956e-03,  3.00000000e-02
    7313,  6.47306439e-04,  2.41578050e-03,  3.00000000e-02
    7314,  2.22133423e-19,  2.50100000e-03,  3.00000000e-02
    7315, -6.47306439e-04,  2.41578050e-03,  3.00000000e-02
    7316, -1.25050002e-03,  2.16592956e-03,  3.00000000e-02
    7317, -1.76847411e-03,  1.76847411e-03,  3.00000000e-02
    7318, -2.16592956e-03,  1.25050002e-03,  0.00000000e+00
    7319, -2.41578050e-03,  6.47306439e-04,  0.00000000e+00
    7320, -2.50100000e-03,  2.22133423e-19,  0.00000000e+00
    7321, -2.41578050e-03, -6.47306439e-04,  0.00000000e+00
    7322, -2.16592956e-03, -1.25050002e-03,  0.00000000e+00
    7323, -1.76847411e-03, -1.76847411e-03,  0.00000000e+00
    7324, -2.16592956e-03,  1.25050002e-03,  3.00000000e-03
    7325, -2.41578050e-03,  6.47306439e-04,  3.00000000e-03
    7326, -2.50100000e-03,  2.22133423e-19,  3.00000000e-03
    7327, -2.41578050e-03, -6.47306439e-04,  3.00000000e-03
    7328, -2.16592956e-03, -1.25050002e-03,  3.00000000e-03
    7329, -1.76847411e-03, -1.76847411e-03,  3.00000000e-03
    7330, -2.16592956e-03,  1.25050002e-03,  6.00000000e-03
    7331, -2.41578050e-03,  6.47306439e-04,  6.00000000e-03
    7332, -2.50100000e-03,  2.22133423e-19,  6.00000000e-03
    7333, -2.41578050e-03, -6.47306439e-04,  6.00000000e-03
    7334, -2.16592956e-03, -1.25050002e-03,  6.00000000e-03
    7335, -1.76847411e-03, -1.76847411e-03,  6.00000000e-03
    7336, -2.16592956e-03,  1.25050002e-03,  9.00000000e-03
    7337, -2.41578050e-03,  6.47306439e-04,  9.00000000e-03
    7338, -2.50100000e-03,  2.22133423e-19,  9.00000000e-03
    7339, -2.41578050e-03, -6.47306439e-04,  9.00000000e-03
    7340, -2.16592956e-03, -1.25050002e-03,  9.00000000e-03
    7341, -1.76847411e-03, -1.76847411e-03,  9.00000000e-03
    7342, -2.16592956e-03,  1.25050002e-03,  1.20000000e-02
    7343, -2.41578050e-03,  6.47306439e-04,  1.20000000e-02
    7344, -2.50100000e-03,  2.22133423e-19,  1.20000000e-02
    7345, -2.41578050e-03, -6.47306439e-04,  1.20000000e-02
    7346, -2.16592956e-03, -1.25050002e-03,  1.20000000e-02
    7347, -1.76847411e-03, -1.76847411e-03,  1.20000000e-02
    7348, -2.16592956e-03,  1.25050002e-03,  1.50000000e-02
    7349, -2.41578050e-03,  6.47306439e-04,  1.50000000e-02
    7350, -2.50100000e-03,  2.22133423e-19,  1.50000000e-02
    7351, -2.41578050e-03, -6.47306439e-04,  1.50000000e-02
    7352, -2.16592956e-03, -1.25050002e-03,  1.50000000e-02
    7353, -1.76847411e-03, -1.76847411e-03,  1.50000000e-02
    7354, -2.16592956e-03,  1.25050002e-03,  1.80000000e-02
    7355, -2.41578050e-03,  6.47306439e-04,  1.80000000e-02
    7356, -2.50100000e-03,  2.22133423e-19,  1.80000000e-02
    7357, -2.41578050e-03, -6.47306439e-04,  1.80000000e-02
    7358, -2.16592956e-03, -1.25050002e-03,  1.80000000e-02
    7359, -1.76847411e-03, -1.76847411e-03,  1.80000000e-02
    7360, -2.16592956e-03,  1.25050002e-03,  2.10000000e-02
    7361, -2.41578050e-03,  6.47306439e-04,  2.10000000e-02
    7362, -2.50100000e-03,  2.22133423e-19,  2.10000000e-02
    7363, -2.41578050e-03, -6.47306439e-04,  2.10000000e-02
    7364, -2.16592956e-03, -1.25050002e-03,  2.10000000e-02
    7365, -1.76847411e-03, -1.76847411e-03,  2.10000000e-02
    7366, -2.16592956e-03,  1.25050002e-03,  2.40000000e-02
    7367, -2.41578050e-03,  6.47306439e-04,  2.40000000e-02
    7368, -2.50100000e-03,  2.22133423e-19,  2.40000000e-02
    7369, -2.41578050e-03, -6.47306439e-04,  2.40000000e-02
    7370, -2.16592956e-03, -1.25050002e-03,  2.40000000e-02
    7371, -1.76847411e-03, -1.76847411e-03,  2.40000000e-02
    7372, -2.16592956e-03,  1.25050002e-03,  2.70000000e-02
    7373, -2.41578050e-03,  6.47306439e-04,  2.70000000e-02
    7374, -2.50100000e-03,  2.22133423e-19,  2.70000000e-02
    7375, -2.41578050e-03, -6.47306439e-04,  2.70000000e-02
    7376, -2.16592956e-03, -1.25050002e-03,  2.70000000e-02
    7377, -1.76847411e-03, -1.76847411e-03,  2.70000000e-02
    7378, -2.16592956e-03,  1.25050002e-03,  3.00000000e-02
    7379, -2.41578050e-03,  6.47306439e-04,  3.00000000e-02
    7380, -2.50100000e-03,  2.22133423e-19,  3.00000000e-02
    7381, -2.41578050e-03, -6.47306439e-04,  3.00000000e-02
    7382, -2.16592956e-03, -1.25050002e-03,  3.00000000e-02
    7383, -1.76847411e-03, -1.76847411e-03,  3.00000000e-02
    7384, -1.25050002e-03, -2.16592956e-03,  0.00000000e+00
    7385, -6.47306439e-04, -2.41578050e-03,  0.00000000e+00
    7386, -2.22133423e-19, -2.50100000e-03,  0.00000000e+00
    7387,  6.47306439e-04, -2.41578050e-03,  0.00000000e+00
    7388,  1.25050002e-03, -2.16592956e-03,  0.00000000e+00
    7389, -1.25050002e-03, -2.16592956e-03,  3.00000000e-03
    7390, -6.47306439e-04, -2.41578050e-03,  3.00000000e-03
    7391, -2.22133423e-19, -2.50100000e-03,  3.00000000e-03
    7392,  6.47306439e-04, -2.41578050e-03,  3.00000000e-03
    7393,  1.25050002e-03, -2.16592956e-03,  3.00000000e-03
    7394, -1.25050002e-03, -2.16592956e-03,  6.00000000e-03
    7395, -6.47306439e-04, -2.41578050e-03,  6.00000000e-03
    7396, -2.22133423e-19, -2.50100000e-03,  6.00000000e-03
    7397,  6.47306439e-04, -2.41578050e-03,  6.00000000e-03
    7398,  1.25050002e-03, -2.16592956e-03,  6.00000000e-03
    7399, -1.25050002e-03, -2.16592956e-03,  9.00000000e-03
    7400, -6.47306439e-04, -2.41578050e-03,  9.00000000e-03
    7401, -2.22133423e-19, -2.50100000e-03,  9.00000000e-03
    7402,  6.47306439e-04, -2.41578050e-03,  9.00000000e-03
    7403,  1.25050002e-03, -2.16592956e-03,  9.00000000e-03
    7404, -1.25050002e-03, -2.16592956e-03,  1.20000000e-02
    7405, -6.47306439e-04, -2.41578050e-03,  1.20000000e-02
    7406, -2.22133423e-19, -2.50100000e-03,  1.20000000e-02
    7407,  6.47306439e-04, -2.41578050e-03,  1.20000000e-02
    7408,  1.25050002e-03, -2.16592956e-03,  1.20000000e-02
    7409, -1.25050002e-03, -2.16592956e-03,  1.50000000e-02
    7410, -6.47306439e-04, -2.41578050e-03,  1.50000000e-02
    7411, -2.22133423e-19, -2.50100000e-03,  1.50000000e-02
    7412,  6.47306439e-04, -2.41578050e-03,  1.50000000e-02
    7413,  1.25050002e-03, -2.16592956e-03,  1.50000000e-02
    7414, -1.25050002e-03, -2.16592956e-03,  1.80000000e-02
    7415, -6.47306439e-04, -2.41578050e-03,  1.80000000e-02
    7416, -2.22133423e-19, -2.50100000e-03,  1.80000000e-02
    7417,  6.47306439e-04, -2.41578050e-03,  1.80000000e-02
    7418,  1.25050002e-03, -2.16592956e-03,  1.80000000e-02
    7419, -1.25050002e-03, -2.16592956e-03,  2.10000000e-02
    7420, -6.47306439e-04, -2.41578050e-03,  2.10000000e-02
    7421, -2.22133423e-19, -2.50100000e-03,  2.10000000e-02
    7422,  6.47306439e-04, -2.41578050e-03,  2.10000000e-02
    7423,  1.25050002e-03, -2.16592956e-03,  2.10000000e-02
    7424, -1.25050002e-03, -2.16592956e-03,  2.40000000e-02
    7425, -6.47306439e-04, -2.41578050e-03,  2.40000000e-02
    7426, -2.22133423e-19, -2.50100000e-03,  2.40000000e-02
    7427,  6.47306439e-04, -2.41578050e-03,  2.40000000e-02
    7428,  1.25050002e-03, -2.16592956e-03,  2.40000000e-02
    7429, -1.25050002e-03, -2.16592956e-03,  2.70000000e-02
    7430, -6.47306439e-04, -2.41578050e-03,  2.70000000e-02
    7431, -2.22133423e-19, -2.50100000e-03,  2.70000000e-02
    7432,  6.47306439e-04, -2.41578050e-03,  2.70000000e-02
    7433,  1.25050002e-03, -2.16592956e-03,  2.70000000e-02
    7434, -1.25050002e-03, -2.16592956e-03,  3.00000000e-02
    7435, -6.47306439e-04, -2.41578050e-03,  3.00000000e-02
    7436, -2.22133423e-19, -2.50100000e-03,  3.00000000e-02
    7437,  6.47306439e-04, -2.41578050e-03,  3.00000000e-02
    7438,  1.25050002e-03, -2.16592956e-03,  3.00000000e-02
*ELEMENT, TYPE=SPRINGA, ELSET=WK_0
    6481,     4768,     7190
*SPRING, ELSET=WK_0

1.957893e-01
*ELEMENT, TYPE=SPRINGA, ELSET=WK_1
    6482,     4773,     7191
*SPRING, ELSET=WK_1

1.957893e-01
*ELEMENT, TYPE=SPRINGA, ELSET=WK_2
    6483,     4778,     7192
*SPRING, ELSET=WK_2

1.957893e-01
*ELEMENT, TYPE=SPRINGA, ELSET=WK_3
    6484,     4783,     7193
*SPRING, ELSET=WK_3

1.957893e-01
*ELEMENT, TYPE=SPRINGA, ELSET=WK_4
    6485,     4788,     7194
*SPRING, ELSET=WK_4

1.957893e-01
*ELEMENT, TYPE=SPRINGA, ELSET=WK_5
    6486,     4793,     7195
*SPRING, ELSET=WK_5

1.957893e-01
*ELEMENT, TYPE=SPRINGA, ELSET=WK_6
    6487,     4798,     7196
*SPRING, ELSET=WK_6

1.957893e-01
*ELEMENT, TYPE=SPRINGA, ELSET=WK_7
    6488,     4803,     7197
*SPRING, ELSET=WK_7

3.915786e-01
*ELEMENT, TYPE=SPRINGA, ELSET=WK_8
    6489,     4808,     7198
*SPRING, ELSET=WK_8

3.915786e-01
*ELEMENT, TYPE=SPRINGA, ELSET=WK_9
    6490,     4813,     7199
*SPRING, ELSET=WK_9

3.915786e-01
*ELEMENT, TYPE=SPRINGA, ELSET=WK_10
    6491,     4818,     7200
*SPRING, ELSET=WK_10

3.915786e-01
*ELEMENT, TYPE=SPRINGA, ELSET=WK_11
    6492,     4823,     7201
*SPRING, ELSET=WK_11

3.915786e-01
*ELEMENT, TYPE=SPRINGA, ELSET=WK_12
    6493,     4828,     7202
*SPRING, ELSET=WK_12

3.915786e-01
*ELEMENT, TYPE=SPRINGA, ELSET=WK_13
    6494,     4833,     7203
*SPRING, ELSET=WK_13

3.915786e-01
*ELEMENT, TYPE=SPRINGA, ELSET=WK_14
    6495,     4838,     7204
*SPRING, ELSET=WK_14

3.915786e-01
*ELEMENT, TYPE=SPRINGA, ELSET=WK_15
    6496,     4843,     7205
*SPRING, ELSET=WK_15

3.915786e-01
*ELEMENT, TYPE=SPRINGA, ELSET=WK_16
    6497,     4848,     7206
*SPRING, ELSET=WK_16

3.915786e-01
*ELEMENT, TYPE=SPRINGA, ELSET=WK_17
    6498,     4853,     7207
*SPRING, ELSET=WK_17

3.915786e-01
*ELEMENT, TYPE=SPRINGA, ELSET=WK_18
    6499,     4858,     7208
*SPRING, ELSET=WK_18

3.915786e-01
*ELEMENT, TYPE=SPRINGA, ELSET=WK_19
    6500,     4863,     7209
*SPRING, ELSET=WK_19

3.915786e-01
*ELEMENT, TYPE=SPRINGA, ELSET=WK_20
    6501,     4868,     7210
*SPRING, ELSET=WK_20

3.915786e-01
*ELEMENT, TYPE=SPRINGA, ELSET=WK_21
    6502,     4873,     7211
*SPRING, ELSET=WK_21

3.915786e-01
*ELEMENT, TYPE=SPRINGA, ELSET=WK_22
    6503,     4878,     7212
*SPRING, ELSET=WK_22

3.915786e-01
*ELEMENT, TYPE=SPRINGA, ELSET=WK_23
    6504,     4898,     7213
*SPRING, ELSET=WK_23

3.915786e-01
*ELEMENT, TYPE=SPRINGA, ELSET=WK_24
    6505,     4903,     7214
*SPRING, ELSET=WK_24

3.915786e-01
*ELEMENT, TYPE=SPRINGA, ELSET=WK_25
    6506,     4908,     7215
*SPRING, ELSET=WK_25

3.915786e-01
*ELEMENT, TYPE=SPRINGA, ELSET=WK_26
    6507,     4913,     7216
*SPRING, ELSET=WK_26

3.915786e-01
*ELEMENT, TYPE=SPRINGA, ELSET=WK_27
    6508,     4933,     7217
*SPRING, ELSET=WK_27

3.915786e-01
*ELEMENT, TYPE=SPRINGA, ELSET=WK_28
    6509,     4938,     7218
*SPRING, ELSET=WK_28

3.915786e-01
*ELEMENT, TYPE=SPRINGA, ELSET=WK_29
    6510,     4943,     7219
*SPRING, ELSET=WK_29

3.915786e-01
*ELEMENT, TYPE=SPRINGA, ELSET=WK_30
    6511,     4948,     7220
*SPRING, ELSET=WK_30

3.915786e-01
*ELEMENT, TYPE=SPRINGA, ELSET=WK_31
    6512,     4968,     7221
*SPRING, ELSET=WK_31

3.915786e-01
*ELEMENT, TYPE=SPRINGA, ELSET=WK_32
    6513,     4973,     7222
*SPRING, ELSET=WK_32

3.915786e-01
*ELEMENT, TYPE=SPRINGA, ELSET=WK_33
    6514,     4978,     7223
*SPRING, ELSET=WK_33

3.915786e-01
*ELEMENT, TYPE=SPRINGA, ELSET=WK_34
    6515,     4983,     7224
*SPRING, ELSET=WK_34

3.915786e-01
*ELEMENT, TYPE=SPRINGA, ELSET=WK_35
    6516,     5003,     7225
*SPRING, ELSET=WK_35

3.915786e-01
*ELEMENT, TYPE=SPRINGA, ELSET=WK_36
    6517,     5008,     7226
*SPRING, ELSET=WK_36

3.915786e-01
*ELEMENT, TYPE=SPRINGA, ELSET=WK_37
    6518,     5013,     7227
*SPRING, ELSET=WK_37

3.915786e-01
*ELEMENT, TYPE=SPRINGA, ELSET=WK_38
    6519,     5018,     7228
*SPRING, ELSET=WK_38

3.915786e-01
*ELEMENT, TYPE=SPRINGA, ELSET=WK_39
    6520,     5038,     7229
*SPRING, ELSET=WK_39

3.915786e-01
*ELEMENT, TYPE=SPRINGA, ELSET=WK_40
    6521,     5043,     7230
*SPRING, ELSET=WK_40

3.915786e-01
*ELEMENT, TYPE=SPRINGA, ELSET=WK_41
    6522,     5048,     7231
*SPRING, ELSET=WK_41

3.915786e-01
*ELEMENT, TYPE=SPRINGA, ELSET=WK_42
    6523,     5053,     7232
*SPRING, ELSET=WK_42

3.915786e-01
*ELEMENT, TYPE=SPRINGA, ELSET=WK_43
    6524,     5058,     7233
*SPRING, ELSET=WK_43

2.936839e-01
*ELEMENT, TYPE=SPRINGA, ELSET=WK_44
    6525,     5063,     7234
*SPRING, ELSET=WK_44

1.957893e-01
*ELEMENT, TYPE=SPRINGA, ELSET=WK_45
    6526,     5068,     7235
*SPRING, ELSET=WK_45

2.936839e-01
*ELEMENT, TYPE=SPRINGA, ELSET=WK_46
    6527,     5073,     7236
*SPRING, ELSET=WK_46

3.915786e-01
*ELEMENT, TYPE=SPRINGA, ELSET=WK_47
    6528,     5078,     7237
*SPRING, ELSET=WK_47

3.915786e-01
*ELEMENT, TYPE=SPRINGA, ELSET=WK_48
    6529,     5083,     7238
*SPRING, ELSET=WK_48

3.915786e-01
*ELEMENT, TYPE=SPRINGA, ELSET=WK_49
    6530,     5088,     7239
*SPRING, ELSET=WK_49

3.915786e-01
*ELEMENT, TYPE=SPRINGA, ELSET=WK_50
    6531,     5093,     7240
*SPRING, ELSET=WK_50

3.915786e-01
*ELEMENT, TYPE=SPRINGA, ELSET=WK_51
    6532,     5098,     7241
*SPRING, ELSET=WK_51

3.915786e-01
*ELEMENT, TYPE=SPRINGA, ELSET=WK_52
    6533,     5103,     7242
*SPRING, ELSET=WK_52

3.915786e-01
*ELEMENT, TYPE=SPRINGA, ELSET=WK_53
    6534,     5108,     7243
*SPRING, ELSET=WK_53

3.915786e-01
*ELEMENT, TYPE=SPRINGA, ELSET=WK_54
    6535,     5113,     7244
*SPRING, ELSET=WK_54

3.915786e-01
*ELEMENT, TYPE=SPRINGA, ELSET=WK_55
    6536,     5118,     7245
*SPRING, ELSET=WK_55

1.957893e-01
*ELEMENT, TYPE=SPRINGA, ELSET=WK_56
    6537,     5123,     7246
*SPRING, ELSET=WK_56

1.957893e-01
*ELEMENT, TYPE=SPRINGA, ELSET=WK_57
    6538,     5128,     7247
*SPRING, ELSET=WK_57

1.957893e-01
*ELEMENT, TYPE=SPRINGA, ELSET=WK_58
    6539,     5133,     7248
*SPRING, ELSET=WK_58

1.957893e-01
*ELEMENT, TYPE=SPRINGA, ELSET=WK_59
    6540,     5138,     7249
*SPRING, ELSET=WK_59

1.957893e-01
*ELEMENT, TYPE=SPRINGA, ELSET=WK_60
    6541,     5143,     7250
*SPRING, ELSET=WK_60

1.957893e-01
*ELEMENT, TYPE=SPRINGA, ELSET=WK_61
    6542,     5148,     7251
*SPRING, ELSET=WK_61

1.957893e-01
*ELEMENT, TYPE=SPRINGA, ELSET=WK_62
    6543,     5153,     7252
*SPRING, ELSET=WK_62

1.957893e-01
*ELEMENT, TYPE=SPRINGA, ELSET=WK_63
    6544,     5158,     7253
*SPRING, ELSET=WK_63

1.957893e-01
*ELEMENT, TYPE=SPRINGA, ELSET=WK_64
    6545,     5163,     7254
*SPRING, ELSET=WK_64

1.957893e-01
*ELEMENT, TYPE=SPRINGA, ELSET=WK_65
    6546,     5168,     7255
*SPRING, ELSET=WK_65

1.957893e-01
*ELEMENT, TYPE=SPRINGA, ELSET=WK_66
    6547,     5173,     7256
*SPRING, ELSET=WK_66

1.957893e-01
*ELEMENT, TYPE=SPRINGA, ELSET=WK_67
    6548,     5178,     7257
*SPRING, ELSET=WK_67

1.957893e-01
*ELEMENT, TYPE=SPRINGA, ELSET=WK_68
    6549,     5183,     7258
*SPRING, ELSET=WK_68

3.915786e-01
*ELEMENT, TYPE=SPRINGA, ELSET=WK_69
    6550,     5188,     7259
*SPRING, ELSET=WK_69

3.915786e-01
*ELEMENT, TYPE=SPRINGA, ELSET=WK_70
    6551,     5193,     7260
*SPRING, ELSET=WK_70

3.915786e-01
*ELEMENT, TYPE=SPRINGA, ELSET=WK_71
    6552,     5198,     7261
*SPRING, ELSET=WK_71

3.915786e-01
*ELEMENT, TYPE=SPRINGA, ELSET=WK_72
    6553,     5203,     7262
*SPRING, ELSET=WK_72

3.915786e-01
*ELEMENT, TYPE=SPRINGA, ELSET=WK_73
    6554,     5208,     7263
*SPRING, ELSET=WK_73

3.915786e-01
*ELEMENT, TYPE=SPRINGA, ELSET=WK_74
    6555,     5213,     7264
*SPRING, ELSET=WK_74

3.915786e-01
*ELEMENT, TYPE=SPRINGA, ELSET=WK_75
    6556,     5218,     7265
*SPRING, ELSET=WK_75

3.915786e-01
*ELEMENT, TYPE=SPRINGA, ELSET=WK_76
    6557,     5223,     7266
*SPRING, ELSET=WK_76

3.915786e-01
*ELEMENT, TYPE=SPRINGA, ELSET=WK_77
    6558,     5228,     7267
*SPRING, ELSET=WK_77

3.915786e-01
*ELEMENT, TYPE=SPRINGA, ELSET=WK_78
    6559,     5233,     7268
*SPRING, ELSET=WK_78

3.915786e-01
*ELEMENT, TYPE=SPRINGA, ELSET=WK_79
    6560,     5238,     7269
*SPRING, ELSET=WK_79

3.915786e-01
*ELEMENT, TYPE=SPRINGA, ELSET=WK_80
    6561,     5243,     7270
*SPRING, ELSET=WK_80

3.915786e-01
*ELEMENT, TYPE=SPRINGA, ELSET=WK_81
    6562,     5248,     7271
*SPRING, ELSET=WK_81

3.915786e-01
*ELEMENT, TYPE=SPRINGA, ELSET=WK_82
    6563,     5253,     7272
*SPRING, ELSET=WK_82

3.915786e-01
*ELEMENT, TYPE=SPRINGA, ELSET=WK_83
    6564,     5258,     7273
*SPRING, ELSET=WK_83

3.915786e-01
*ELEMENT, TYPE=SPRINGA, ELSET=WK_84
    6565,     5263,     7274
*SPRING, ELSET=WK_84

3.915786e-01
*ELEMENT, TYPE=SPRINGA, ELSET=WK_85
    6566,     5268,     7275
*SPRING, ELSET=WK_85

3.915786e-01
*ELEMENT, TYPE=SPRINGA, ELSET=WK_86
    6567,     5273,     7276
*SPRING, ELSET=WK_86

3.915786e-01
*ELEMENT, TYPE=SPRINGA, ELSET=WK_87
    6568,     5278,     7277
*SPRING, ELSET=WK_87

3.915786e-01
*ELEMENT, TYPE=SPRINGA, ELSET=WK_88
    6569,     5283,     7278
*SPRING, ELSET=WK_88

3.915786e-01
*ELEMENT, TYPE=SPRINGA, ELSET=WK_89
    6570,     5288,     7279
*SPRING, ELSET=WK_89

3.915786e-01
*ELEMENT, TYPE=SPRINGA, ELSET=WK_90
    6571,     5293,     7280
*SPRING, ELSET=WK_90

3.915786e-01
*ELEMENT, TYPE=SPRINGA, ELSET=WK_91
    6572,     5298,     7281
*SPRING, ELSET=WK_91

3.915786e-01
*ELEMENT, TYPE=SPRINGA, ELSET=WK_92
    6573,     5303,     7282
*SPRING, ELSET=WK_92

3.915786e-01
*ELEMENT, TYPE=SPRINGA, ELSET=WK_93
    6574,     5308,     7283
*SPRING, ELSET=WK_93

3.915786e-01
*ELEMENT, TYPE=SPRINGA, ELSET=WK_94
    6575,     5313,     7284
*SPRING, ELSET=WK_94

3.915786e-01
*ELEMENT, TYPE=SPRINGA, ELSET=WK_95
    6576,     5318,     7285
*SPRING, ELSET=WK_95

3.915786e-01
*ELEMENT, TYPE=SPRINGA, ELSET=WK_96
    6577,     5323,     7286
*SPRING, ELSET=WK_96

3.915786e-01
*ELEMENT, TYPE=SPRINGA, ELSET=WK_97
    6578,     5328,     7287
*SPRING, ELSET=WK_97

3.915786e-01
*ELEMENT, TYPE=SPRINGA, ELSET=WK_98
    6579,     5333,     7288
*SPRING, ELSET=WK_98

3.915786e-01
*ELEMENT, TYPE=SPRINGA, ELSET=WK_99
    6580,     5338,     7289
*SPRING, ELSET=WK_99

3.915786e-01
*ELEMENT, TYPE=SPRINGA, ELSET=WK_100
    6581,     5343,     7290
*SPRING, ELSET=WK_100

3.915786e-01
*ELEMENT, TYPE=SPRINGA, ELSET=WK_101
    6582,     5348,     7291
*SPRING, ELSET=WK_101

3.915786e-01
*ELEMENT, TYPE=SPRINGA, ELSET=WK_102
    6583,     5353,     7292
*SPRING, ELSET=WK_102

3.915786e-01
*ELEMENT, TYPE=SPRINGA, ELSET=WK_103
    6584,     5358,     7293
*SPRING, ELSET=WK_103

3.915786e-01
*ELEMENT, TYPE=SPRINGA, ELSET=WK_104
    6585,     5363,     7294
*SPRING, ELSET=WK_104

3.915786e-01
*ELEMENT, TYPE=SPRINGA, ELSET=WK_105
    6586,     5368,     7295
*SPRING, ELSET=WK_105

3.915786e-01
*ELEMENT, TYPE=SPRINGA, ELSET=WK_106
    6587,     5373,     7296
*SPRING, ELSET=WK_106

3.915786e-01
*ELEMENT, TYPE=SPRINGA, ELSET=WK_107
    6588,     5378,     7297
*SPRING, ELSET=WK_107

3.915786e-01
*ELEMENT, TYPE=SPRINGA, ELSET=WK_108
    6589,     5383,     7298
*SPRING, ELSET=WK_108

3.915786e-01
*ELEMENT, TYPE=SPRINGA, ELSET=WK_109
    6590,     5388,     7299
*SPRING, ELSET=WK_109

3.915786e-01
*ELEMENT, TYPE=SPRINGA, ELSET=WK_110
    6591,     5393,     7300
*SPRING, ELSET=WK_110

3.915786e-01
*ELEMENT, TYPE=SPRINGA, ELSET=WK_111
    6592,     5398,     7301
*SPRING, ELSET=WK_111

3.915786e-01
*ELEMENT, TYPE=SPRINGA, ELSET=WK_112
    6593,     5403,     7302
*SPRING, ELSET=WK_112

3.915786e-01
*ELEMENT, TYPE=SPRINGA, ELSET=WK_113
    6594,     5408,     7303
*SPRING, ELSET=WK_113

3.915786e-01
*ELEMENT, TYPE=SPRINGA, ELSET=WK_114
    6595,     5413,     7304
*SPRING, ELSET=WK_114

3.915786e-01
*ELEMENT, TYPE=SPRINGA, ELSET=WK_115
    6596,     5418,     7305
*SPRING, ELSET=WK_115

3.915786e-01
*ELEMENT, TYPE=SPRINGA, ELSET=WK_116
    6597,     5423,     7306
*SPRING, ELSET=WK_116

3.915786e-01
*ELEMENT, TYPE=SPRINGA, ELSET=WK_117
    6598,     5428,     7307
*SPRING, ELSET=WK_117

3.915786e-01
*ELEMENT, TYPE=SPRINGA, ELSET=WK_118
    6599,     5433,     7308
*SPRING, ELSET=WK_118

3.915786e-01
*ELEMENT, TYPE=SPRINGA, ELSET=WK_119
    6600,     5438,     7309
*SPRING, ELSET=WK_119

3.915786e-01
*ELEMENT, TYPE=SPRINGA, ELSET=WK_120
    6601,     5443,     7310
*SPRING, ELSET=WK_120

3.915786e-01
*ELEMENT, TYPE=SPRINGA, ELSET=WK_121
    6602,     5448,     7311
*SPRING, ELSET=WK_121

3.915786e-01
*ELEMENT, TYPE=SPRINGA, ELSET=WK_122
    6603,     5453,     7312
*SPRING, ELSET=WK_122

1.957893e-01
*ELEMENT, TYPE=SPRINGA, ELSET=WK_123
    6604,     5458,     7313
*SPRING, ELSET=WK_123

1.957893e-01
*ELEMENT, TYPE=SPRINGA, ELSET=WK_124
    6605,     5463,     7314
*SPRING, ELSET=WK_124

1.957893e-01
*ELEMENT, TYPE=SPRINGA, ELSET=WK_125
    6606,     5468,     7315
*SPRING, ELSET=WK_125

1.957893e-01
*ELEMENT, TYPE=SPRINGA, ELSET=WK_126
    6607,     5473,     7316
*SPRING, ELSET=WK_126

1.957893e-01
*ELEMENT, TYPE=SPRINGA, ELSET=WK_127
    6608,     5478,     7317
*SPRING, ELSET=WK_127

1.957893e-01
*ELEMENT, TYPE=SPRINGA, ELSET=WK_128
    6609,     5483,     7318
*SPRING, ELSET=WK_128

1.957893e-01
*ELEMENT, TYPE=SPRINGA, ELSET=WK_129
    6610,     5488,     7319
*SPRING, ELSET=WK_129

1.957893e-01
*ELEMENT, TYPE=SPRINGA, ELSET=WK_130
    6611,     5493,     7320
*SPRING, ELSET=WK_130

1.957893e-01
*ELEMENT, TYPE=SPRINGA, ELSET=WK_131
    6612,     5498,     7321
*SPRING, ELSET=WK_131

1.957893e-01
*ELEMENT, TYPE=SPRINGA, ELSET=WK_132
    6613,     5503,     7322
*SPRING, ELSET=WK_132

1.957893e-01
*ELEMENT, TYPE=SPRINGA, ELSET=WK_133
    6614,     5508,     7323
*SPRING, ELSET=WK_133

1.957893e-01
*ELEMENT, TYPE=SPRINGA, ELSET=WK_134
    6615,     5513,     7324
*SPRING, ELSET=WK_134

3.915786e-01
*ELEMENT, TYPE=SPRINGA, ELSET=WK_135
    6616,     5518,     7325
*SPRING, ELSET=WK_135

3.915786e-01
*ELEMENT, TYPE=SPRINGA, ELSET=WK_136
    6617,     5523,     7326
*SPRING, ELSET=WK_136

3.915786e-01
*ELEMENT, TYPE=SPRINGA, ELSET=WK_137
    6618,     5528,     7327
*SPRING, ELSET=WK_137

3.915786e-01
*ELEMENT, TYPE=SPRINGA, ELSET=WK_138
    6619,     5533,     7328
*SPRING, ELSET=WK_138

3.915786e-01
*ELEMENT, TYPE=SPRINGA, ELSET=WK_139
    6620,     5538,     7329
*SPRING, ELSET=WK_139

3.915786e-01
*ELEMENT, TYPE=SPRINGA, ELSET=WK_140
    6621,     5543,     7330
*SPRING, ELSET=WK_140

3.915786e-01
*ELEMENT, TYPE=SPRINGA, ELSET=WK_141
    6622,     5548,     7331
*SPRING, ELSET=WK_141

3.915786e-01
*ELEMENT, TYPE=SPRINGA, ELSET=WK_142
    6623,     5553,     7332
*SPRING, ELSET=WK_142

3.915786e-01
*ELEMENT, TYPE=SPRINGA, ELSET=WK_143
    6624,     5558,     7333
*SPRING, ELSET=WK_143

3.915786e-01
*ELEMENT, TYPE=SPRINGA, ELSET=WK_144
    6625,     5563,     7334
*SPRING, ELSET=WK_144

3.915786e-01
*ELEMENT, TYPE=SPRINGA, ELSET=WK_145
    6626,     5568,     7335
*SPRING, ELSET=WK_145

3.915786e-01
*ELEMENT, TYPE=SPRINGA, ELSET=WK_146
    6627,     5573,     7336
*SPRING, ELSET=WK_146

3.915786e-01
*ELEMENT, TYPE=SPRINGA, ELSET=WK_147
    6628,     5578,     7337
*SPRING, ELSET=WK_147

3.915786e-01
*ELEMENT, TYPE=SPRINGA, ELSET=WK_148
    6629,     5583,     7338
*SPRING, ELSET=WK_148

3.915786e-01
*ELEMENT, TYPE=SPRINGA, ELSET=WK_149
    6630,     5588,     7339
*SPRING, ELSET=WK_149

3.915786e-01
*ELEMENT, TYPE=SPRINGA, ELSET=WK_150
    6631,     5593,     7340
*SPRING, ELSET=WK_150

3.915786e-01
*ELEMENT, TYPE=SPRINGA, ELSET=WK_151
    6632,     5598,     7341
*SPRING, ELSET=WK_151

3.915786e-01
*ELEMENT, TYPE=SPRINGA, ELSET=WK_152
    6633,     5603,     7342
*SPRING, ELSET=WK_152

3.915786e-01
*ELEMENT, TYPE=SPRINGA, ELSET=WK_153
    6634,     5608,     7343
*SPRING, ELSET=WK_153

3.915786e-01
*ELEMENT, TYPE=SPRINGA, ELSET=WK_154
    6635,     5613,     7344
*SPRING, ELSET=WK_154

3.915786e-01
*ELEMENT, TYPE=SPRINGA, ELSET=WK_155
    6636,     5618,     7345
*SPRING, ELSET=WK_155

3.915786e-01
*ELEMENT, TYPE=SPRINGA, ELSET=WK_156
    6637,     5623,     7346
*SPRING, ELSET=WK_156

3.915786e-01
*ELEMENT, TYPE=SPRINGA, ELSET=WK_157
    6638,     5628,     7347
*SPRING, ELSET=WK_157

3.915786e-01
*ELEMENT, TYPE=SPRINGA, ELSET=WK_158
    6639,     5633,     7348
*SPRING, ELSET=WK_158

3.915786e-01
*ELEMENT, TYPE=SPRINGA, ELSET=WK_159
    6640,     5638,     7349
*SPRING, ELSET=WK_159

3.915786e-01
*ELEMENT, TYPE=SPRINGA, ELSET=WK_160
    6641,     5643,     7350
*SPRING, ELSET=WK_160

3.915786e-01
*ELEMENT, TYPE=SPRINGA, ELSET=WK_161
    6642,     5648,     7351
*SPRING, ELSET=WK_161

3.915786e-01
*ELEMENT, TYPE=SPRINGA, ELSET=WK_162
    6643,     5653,     7352
*SPRING, ELSET=WK_162

3.915786e-01
*ELEMENT, TYPE=SPRINGA, ELSET=WK_163
    6644,     5658,     7353
*SPRING, ELSET=WK_163

3.915786e-01
*ELEMENT, TYPE=SPRINGA, ELSET=WK_164
    6645,     5663,     7354
*SPRING, ELSET=WK_164

3.915786e-01
*ELEMENT, TYPE=SPRINGA, ELSET=WK_165
    6646,     5668,     7355
*SPRING, ELSET=WK_165

3.915786e-01
*ELEMENT, TYPE=SPRINGA, ELSET=WK_166
    6647,     5673,     7356
*SPRING, ELSET=WK_166

3.915786e-01
*ELEMENT, TYPE=SPRINGA, ELSET=WK_167
    6648,     5678,     7357
*SPRING, ELSET=WK_167

3.915786e-01
*ELEMENT, TYPE=SPRINGA, ELSET=WK_168
    6649,     5683,     7358
*SPRING, ELSET=WK_168

3.915786e-01
*ELEMENT, TYPE=SPRINGA, ELSET=WK_169
    6650,     5688,     7359
*SPRING, ELSET=WK_169

3.915786e-01
*ELEMENT, TYPE=SPRINGA, ELSET=WK_170
    6651,     5693,     7360
*SPRING, ELSET=WK_170

3.915786e-01
*ELEMENT, TYPE=SPRINGA, ELSET=WK_171
    6652,     5698,     7361
*SPRING, ELSET=WK_171

3.915786e-01
*ELEMENT, TYPE=SPRINGA, ELSET=WK_172
    6653,     5703,     7362
*SPRING, ELSET=WK_172

3.915786e-01
*ELEMENT, TYPE=SPRINGA, ELSET=WK_173
    6654,     5708,     7363
*SPRING, ELSET=WK_173

3.915786e-01
*ELEMENT, TYPE=SPRINGA, ELSET=WK_174
    6655,     5713,     7364
*SPRING, ELSET=WK_174

3.915786e-01
*ELEMENT, TYPE=SPRINGA, ELSET=WK_175
    6656,     5718,     7365
*SPRING, ELSET=WK_175

3.915786e-01
*ELEMENT, TYPE=SPRINGA, ELSET=WK_176
    6657,     5723,     7366
*SPRING, ELSET=WK_176

3.915786e-01
*ELEMENT, TYPE=SPRINGA, ELSET=WK_177
    6658,     5728,     7367
*SPRING, ELSET=WK_177

3.915786e-01
*ELEMENT, TYPE=SPRINGA, ELSET=WK_178
    6659,     5733,     7368
*SPRING, ELSET=WK_178

3.915786e-01
*ELEMENT, TYPE=SPRINGA, ELSET=WK_179
    6660,     5738,     7369
*SPRING, ELSET=WK_179

3.915786e-01
*ELEMENT, TYPE=SPRINGA, ELSET=WK_180
    6661,     5743,     7370
*SPRING, ELSET=WK_180

3.915786e-01
*ELEMENT, TYPE=SPRINGA, ELSET=WK_181
    6662,     5748,     7371
*SPRING, ELSET=WK_181

3.915786e-01
*ELEMENT, TYPE=SPRINGA, ELSET=WK_182
    6663,     5753,     7372
*SPRING, ELSET=WK_182

3.915786e-01
*ELEMENT, TYPE=SPRINGA, ELSET=WK_183
    6664,     5758,     7373
*SPRING, ELSET=WK_183

3.915786e-01
*ELEMENT, TYPE=SPRINGA, ELSET=WK_184
    6665,     5763,     7374
*SPRING, ELSET=WK_184

3.915786e-01
*ELEMENT, TYPE=SPRINGA, ELSET=WK_185
    6666,     5768,     7375
*SPRING, ELSET=WK_185

3.915786e-01
*ELEMENT, TYPE=SPRINGA, ELSET=WK_186
    6667,     5773,     7376
*SPRING, ELSET=WK_186

3.915786e-01
*ELEMENT, TYPE=SPRINGA, ELSET=WK_187
    6668,     5778,     7377
*SPRING, ELSET=WK_187

3.915786e-01
*ELEMENT, TYPE=SPRINGA, ELSET=WK_188
    6669,     5783,     7378
*SPRING, ELSET=WK_188

1.957893e-01
*ELEMENT, TYPE=SPRINGA, ELSET=WK_189
    6670,     5788,     7379
*SPRING, ELSET=WK_189

1.957893e-01
*ELEMENT, TYPE=SPRINGA, ELSET=WK_190
    6671,     5793,     7380
*SPRING, ELSET=WK_190

1.957893e-01
*ELEMENT, TYPE=SPRINGA, ELSET=WK_191
    6672,     5798,     7381
*SPRING, ELSET=WK_191

1.957893e-01
*ELEMENT, TYPE=SPRINGA, ELSET=WK_192
    6673,     5803,     7382
*SPRING, ELSET=WK_192

1.957893e-01
*ELEMENT, TYPE=SPRINGA, ELSET=WK_193
    6674,     5808,     7383
*SPRING, ELSET=WK_193

1.957893e-01
*ELEMENT, TYPE=SPRINGA, ELSET=WK_194
    6675,     5813,     7384
*SPRING, ELSET=WK_194

1.957893e-01
*ELEMENT, TYPE=SPRINGA, ELSET=WK_195
    6676,     5818,     7385
*SPRING, ELSET=WK_195

1.957893e-01
*ELEMENT, TYPE=SPRINGA, ELSET=WK_196
    6677,     5823,     7386
*SPRING, ELSET=WK_196

1.957893e-01
*ELEMENT, TYPE=SPRINGA, ELSET=WK_197
    6678,     5828,     7387
*SPRING, ELSET=WK_197

1.957893e-01
*ELEMENT, TYPE=SPRINGA, ELSET=WK_198
    6679,     5833,     7388
*SPRING, ELSET=WK_198

1.957893e-01
*ELEMENT, TYPE=SPRINGA, ELSET=WK_199
    6680,     5838,     7389
*SPRING, ELSET=WK_199

3.915786e-01
*ELEMENT, TYPE=SPRINGA, ELSET=WK_200
    6681,     5843,     7390
*SPRING, ELSET=WK_200

3.915786e-01
*ELEMENT, TYPE=SPRINGA, ELSET=WK_201
    6682,     5848,     7391
*SPRING, ELSET=WK_201

3.915786e-01
*ELEMENT, TYPE=SPRINGA, ELSET=WK_202
    6683,     5853,     7392
*SPRING, ELSET=WK_202

3.915786e-01
*ELEMENT, TYPE=SPRINGA, ELSET=WK_203
    6684,     5858,     7393
*SPRING, ELSET=WK_203

3.915786e-01
*ELEMENT, TYPE=SPRINGA, ELSET=WK_204
    6685,     5863,     7394
*SPRING, ELSET=WK_204

3.915786e-01
*ELEMENT, TYPE=SPRINGA, ELSET=WK_205
    6686,     5868,     7395
*SPRING, ELSET=WK_205

3.915786e-01
*ELEMENT, TYPE=SPRINGA, ELSET=WK_206
    6687,     5873,     7396
*SPRING, ELSET=WK_206

3.915786e-01
*ELEMENT, TYPE=SPRINGA, ELSET=WK_207
    6688,     5878,     7397
*SPRING, ELSET=WK_207

3.915786e-01
*ELEMENT, TYPE=SPRINGA, ELSET=WK_208
    6689,     5883,     7398
*SPRING, ELSET=WK_208

3.915786e-01
*ELEMENT, TYPE=SPRINGA, ELSET=WK_209
    6690,     5888,     7399
*SPRING, ELSET=WK_209

3.915786e-01
*ELEMENT, TYPE=SPRINGA, ELSET=WK_210
    6691,     5893,     7400
*SPRING, ELSET=WK_210

3.915786e-01
*ELEMENT, TYPE=SPRINGA, ELSET=WK_211
    6692,     5898,     7401
*SPRING, ELSET=WK_211

3.915786e-01
*ELEMENT, TYPE=SPRINGA, ELSET=WK_212
    6693,     5903,     7402
*SPRING, ELSET=WK_212

3.915786e-01
*ELEMENT, TYPE=SPRINGA, ELSET=WK_213
    6694,     5908,     7403
*SPRING, ELSET=WK_213

3.915786e-01
*ELEMENT, TYPE=SPRINGA, ELSET=WK_214
    6695,     5913,     7404
*SPRING, ELSET=WK_214

3.915786e-01
*ELEMENT, TYPE=SPRINGA, ELSET=WK_215
    6696,     5918,     7405
*SPRING, ELSET=WK_215

3.915786e-01
*ELEMENT, TYPE=SPRINGA, ELSET=WK_216
    6697,     5923,     7406
*SPRING, ELSET=WK_216

3.915786e-01
*ELEMENT, TYPE=SPRINGA, ELSET=WK_217
    6698,     5928,     7407
*SPRING, ELSET=WK_217

3.915786e-01
*ELEMENT, TYPE=SPRINGA, ELSET=WK_218
    6699,     5933,     7408
*SPRING, ELSET=WK_218

3.915786e-01
*ELEMENT, TYPE=SPRINGA, ELSET=WK_219
    6700,     5938,     7409
*SPRING, ELSET=WK_219

3.915786e-01
*ELEMENT, TYPE=SPRINGA, ELSET=WK_220
    6701,     5943,     7410
*SPRING, ELSET=WK_220

3.915786e-01
*ELEMENT, TYPE=SPRINGA, ELSET=WK_221
    6702,     5948,     7411
*SPRING, ELSET=WK_221

3.915786e-01
*ELEMENT, TYPE=SPRINGA, ELSET=WK_222
    6703,     5953,     7412
*SPRING, ELSET=WK_222

3.915786e-01
*ELEMENT, TYPE=SPRINGA, ELSET=WK_223
    6704,     5958,     7413
*SPRING, ELSET=WK_223

3.915786e-01
*ELEMENT, TYPE=SPRINGA, ELSET=WK_224
    6705,     5963,     7414
*SPRING, ELSET=WK_224

3.915786e-01
*ELEMENT, TYPE=SPRINGA, ELSET=WK_225
    6706,     5968,     7415
*SPRING, ELSET=WK_225

3.915786e-01
*ELEMENT, TYPE=SPRINGA, ELSET=WK_226
    6707,     5973,     7416
*SPRING, ELSET=WK_226

3.915786e-01
*ELEMENT, TYPE=SPRINGA, ELSET=WK_227
    6708,     5978,     7417
*SPRING, ELSET=WK_227

3.915786e-01
*ELEMENT, TYPE=SPRINGA, ELSET=WK_228
    6709,     5983,     7418
*SPRING, ELSET=WK_228

3.915786e-01
*ELEMENT, TYPE=SPRINGA, ELSET=WK_229
    6710,     5988,     7419
*SPRING, ELSET=WK_229

3.915786e-01
*ELEMENT, TYPE=SPRINGA, ELSET=WK_230
    6711,     5993,     7420
*SPRING, ELSET=WK_230

3.915786e-01
*ELEMENT, TYPE=SPRINGA, ELSET=WK_231
    6712,     5998,     7421
*SPRING, ELSET=WK_231

3.915786e-01
*ELEMENT, TYPE=SPRINGA, ELSET=WK_232
    6713,     6003,     7422
*SPRING, ELSET=WK_232

3.915786e-01
*ELEMENT, TYPE=SPRINGA, ELSET=WK_233
    6714,     6008,     7423
*SPRING, ELSET=WK_233

3.915786e-01
*ELEMENT, TYPE=SPRINGA, ELSET=WK_234
    6715,     6013,     7424
*SPRING, ELSET=WK_234

3.915786e-01
*ELEMENT, TYPE=SPRINGA, ELSET=WK_235
    6716,     6018,     7425
*SPRING, ELSET=WK_235

3.915786e-01
*ELEMENT, TYPE=SPRINGA, ELSET=WK_236
    6717,     6023,     7426
*SPRING, ELSET=WK_236

3.915786e-01
*ELEMENT, TYPE=SPRINGA, ELSET=WK_237
    6718,     6028,     7427
*SPRING, ELSET=WK_237

3.915786e-01
*ELEMENT, TYPE=SPRINGA, ELSET=WK_238
    6719,     6033,     7428
*SPRING, ELSET=WK_238

3.915786e-01
*ELEMENT, TYPE=SPRINGA, ELSET=WK_239
    6720,     6038,     7429
*SPRING, ELSET=WK_239

3.915786e-01
*ELEMENT, TYPE=SPRINGA, ELSET=WK_240
    6721,     6043,     7430
*SPRING, ELSET=WK_240

3.915786e-01
*ELEMENT, TYPE=SPRINGA, ELSET=WK_241
    6722,     6048,     7431
*SPRING, ELSET=WK_241

3.915786e-01
*ELEMENT, TYPE=SPRINGA, ELSET=WK_242
    6723,     6053,     7432
*SPRING, ELSET=WK_242

3.915786e-01
*ELEMENT, TYPE=SPRINGA, ELSET=WK_243
    6724,     6058,     7433
*SPRING, ELSET=WK_243

3.915786e-01
*ELEMENT, TYPE=SPRINGA, ELSET=WK_244
    6725,     6063,     7434
*SPRING, ELSET=WK_244

1.957893e-01
*ELEMENT, TYPE=SPRINGA, ELSET=WK_245
    6726,     6068,     7435
*SPRING, ELSET=WK_245

1.957893e-01
*ELEMENT, TYPE=SPRINGA, ELSET=WK_246
    6727,     6073,     7436
*SPRING, ELSET=WK_246

1.957893e-01
*ELEMENT, TYPE=SPRINGA, ELSET=WK_247
    6728,     6078,     7437
*SPRING, ELSET=WK_247

1.957893e-01
*ELEMENT, TYPE=SPRINGA, ELSET=WK_248
    6729,     6083,     7438
*SPRING, ELSET=WK_248

1.957893e-01
*BOUNDARY
GHOST_WINKLER, 1, 3, 0
