** on-caso-1.2 -- deck STANDALONE para independencia de malha (sem preCICE).
*HEADING
on-caso-1.2 mesh-independence (solid, SANS-equivalent load)
*INCLUDE, INPUT=all.msh
*INCLUDE, INPUT=all.nam
*INCLUDE, INPUT=rings.nam

*MATERIAL, NAME=ON_MAT
*HYPERELASTIC, NEO HOOKE
5.172e3, 2.000e-5
*DENSITY
1000.0
*MATERIAL, NAME=PIA_MAT
*HYPERELASTIC, NEO HOOKE
5.172e5, 2.000e-7
*DENSITY
1100.0
*MATERIAL, NAME=DURA_MAT
*HYPERELASTIC, NEO HOOKE
5.172e5, 2.000e-7
*DENSITY
1100.0
*MATERIAL, NAME=LC_MAT
*HYPERELASTIC, NEO HOOKE
6.897e4, 1.500e-6
*DENSITY
1100.0
*MATERIAL, NAME=SCLERA_PERI_MAT
*HYPERELASTIC, NEO HOOKE
8.621e5, 1.200e-7
*DENSITY
1400.0
*MATERIAL, NAME=SCLERA_RING_MAT
*HYPERELASTIC, NEO HOOKE
8.621e5, 1.200e-7
*DENSITY
1400.0
*MATERIAL, NAME=GLOBO_MAT
*HYPERELASTIC, NEO HOOKE
8.621e5, 1.200e-7
*DENSITY
1400.0

*SOLID SECTION, ELSET=EALL_ON,          MATERIAL=ON_MAT
*SOLID SECTION, ELSET=EALL_PIA,         MATERIAL=PIA_MAT
*SOLID SECTION, ELSET=EALL_DURA,        MATERIAL=DURA_MAT
*SOLID SECTION, ELSET=EALL_LC,          MATERIAL=LC_MAT
*SOLID SECTION, ELSET=EALL_SCLERA_PERI, MATERIAL=SCLERA_PERI_MAT
*SOLID SECTION, ELSET=EALL_SCLERA_RING, MATERIAL=SCLERA_RING_MAT
*SOLID SECTION, ELSET=EALL_GLOBO,       MATERIAL=GLOBO_MAT

*BOUNDARY
Nposterior_on,   1, 3, 0.0
Nposterior_pia,  1, 3, 0.0
Nposterior_dura, 1, 3, 0.0
*BOUNDARY
Nglobo_outer, 1, 3, 0.0
*INCLUDE, INPUT=winkler.inp

*STEP, NLGEOM, INC=1000
*STATIC, SOLVER=ITERATIVE CHOLESKY
0.1, 1.0, 1e-5, 0.25

** PIC SANS na parede da SAS (= efeito do FSI compartimentalizado)
*DLOAD
Sfsi_pia,  P, 3800.0
Sfsi_dura, P, 3800.0
** caps de esclera (desacoplamento seletivo)
*DLOAD
Sfsi_sclera_peri, P, 1333.0
Sfsi_sclera_ring, P, 1333.0
** arteria oftalmica
*DLOAD
Scontact_local, P, 9034.0

*NODE FILE
U
*EL FILE
S, E
*NODE PRINT, NSET=Npia_z30
U
*NODE PRINT, NSET=Ndura_z30
U
*END STEP
