** Winkler foundation springs cobrindo TODA a parede externa da dura
** (dura_outer + perturbation_strip, se existir) -> fundacao UNIFORME
** Gerado automaticamente por foam_polymesh_to_ccx_inp.py
** k_winkler = 2.000e+05 Pa/m, 264 springs
*NODE, NSET=GHOST_WINKLER
    5318, -1.60278186e-03, -3.00987699e-02,  1.76847411e-03
    5319, -1.13333791e-03, -2.98798646e-02,  2.16592956e-03
    5320, -5.86658866e-04, -2.96249440e-02,  2.41578050e-03
    5321,  6.30546419e-18, -2.93513805e-02,  2.50100000e-03
    5322,  5.86658866e-04, -2.90778169e-02,  2.41578050e-03
    5323,  1.13333791e-03, -2.88228963e-02,  2.16592956e-03
    5324,  1.60278186e-03, -2.86039910e-02,  1.76847411e-03
    5325, -2.85128075e-03, -2.72185649e-02,  1.76847411e-03
    5326, -2.36599031e-03, -2.70374839e-02,  2.16592956e-03
    5327, -1.80085764e-03, -2.68266106e-02,  2.41578050e-03
    5328, -1.19439560e-03, -2.66003157e-02,  2.50100000e-03
    5329, -5.87933548e-04, -2.63740207e-02,  2.41578050e-03
    5330, -2.28008818e-05, -2.61631474e-02,  2.16592956e-03
    5331,  4.62489559e-04, -2.59820664e-02,  1.76847411e-03
    5332, -3.71594500e-03, -2.39685215e-02,  1.76847411e-03
    5333, -3.20365672e-03, -2.38919848e-02,  2.16592956e-03
    5334, -2.60708439e-03, -2.38028560e-02,  2.41578050e-03
    5335, -1.96688344e-03, -2.37072089e-02,  2.50100000e-03
    5336, -1.32668248e-03, -2.36115618e-02,  2.41578050e-03
    5337, -7.30110161e-04, -2.35224330e-02,  2.16592956e-03
    5338, -2.17821874e-04, -2.34458963e-02,  1.76847411e-03
    5339, -3.77621368e-03, -2.05145861e-02,  1.76847411e-03
    5340, -3.26162322e-03, -2.05736943e-02,  2.16592956e-03
    5341, -2.66236995e-03, -2.06425273e-02,  2.41578050e-03
    5342, -2.01929199e-03, -2.07163942e-02,  2.50100000e-03
    5343, -1.37621403e-03, -2.07902611e-02,  2.41578050e-03
    5344, -7.76960768e-04, -2.08590941e-02,  2.16592956e-03
    5345, -2.62370304e-04, -2.09182023e-02,  1.76847411e-03
    5346, -3.00010792e-03, -1.72206869e-02,  1.76847411e-03
    5347, -2.51101612e-03, -1.73912341e-02,  2.16592956e-03
    5348, -1.94145667e-03, -1.75898406e-02,  2.41578050e-03
    5349, -1.33024411e-03, -1.78029716e-02,  2.50100000e-03
    5350, -7.19031545e-04, -1.80161026e-02,  2.41578050e-03
    5351, -1.49472102e-04, -1.82147091e-02,  2.16592956e-03
    5352,  3.39619699e-04, -1.83852563e-02,  1.76847411e-03
    5353, -1.77273708e-03, -1.42932337e-02,  1.76847411e-03
    5354, -1.30297577e-03, -1.45114571e-02,  2.16592956e-03
    5355, -7.55927165e-04, -1.47655837e-02,  2.41578050e-03
    5356, -1.68871705e-04, -1.50382951e-02,  2.50100000e-03
    5357,  4.18183754e-04, -1.53110065e-02,  2.41578050e-03
    5358,  9.65232360e-04, -1.55651331e-02,  2.16592956e-03
    5359,  1.43499366e-03, -1.57833566e-02,  1.76847411e-03
    5360, -5.93796784e-04, -1.16479701e-02,  1.76847411e-03
    5361, -1.12080711e-04, -1.18383560e-02,  2.16592956e-03
    5362,  4.48889516e-04, -1.20600650e-02,  2.41578050e-03
    5363,  1.05088472e-03, -1.22979881e-02,  2.50100000e-03
    5364,  1.65287992e-03, -1.25359112e-02,  2.41578050e-03
    5365,  2.21385014e-03, -1.27576203e-02,  2.16592956e-03
    5366,  2.69556622e-03, -1.29480061e-02,  1.76847411e-03
    5367,  1.61732916e-04, -9.10727703e-03,  1.76847411e-03
    5368,  6.71221285e-04, -9.20065120e-03,  2.16592956e-03
    5369,  1.26453303e-03, -9.30938771e-03,  2.41578050e-03
    5370,  1.90123496e-03, -9.42607636e-03,  2.50100000e-03
    5371,  2.53793689e-03, -9.54276501e-03,  2.41578050e-03
    5372,  3.13124864e-03, -9.65150153e-03,  2.16592956e-03
    5373,  3.64073701e-03, -9.74487569e-03,  1.76847411e-03
    5374,  2.95190174e-04, -6.57953069e-03,  1.76847411e-03
    5375,  8.11521619e-04, -6.53831193e-03,  2.16592956e-03
    5376,  1.41280230e-03, -6.49031167e-03,  2.41578050e-03
    5377,  2.05805594e-03, -6.43880105e-03,  2.50100000e-03
    5378,  2.70330958e-03, -6.38729042e-03,  2.41578050e-03
    5379,  3.30459026e-03, -6.33929016e-03,  2.16592956e-03
    5380,  3.82092171e-03, -6.29807140e-03,  1.76847411e-03
    5381, -2.25778735e-04, -4.04878014e-03,  1.76847411e-03
    5382,  2.67241691e-04, -3.88994688e-03,  2.16592956e-03
    5383,  8.41376115e-04, -3.70498164e-03,  2.41578050e-03
    5384,  1.45749824e-03, -3.50648949e-03,  2.50100000e-03
    5385,  2.07362036e-03, -3.30799734e-03,  2.41578050e-03
    5386,  2.64775478e-03, -3.12303211e-03,  2.16592956e-03
    5387,  3.14077521e-03, -2.96419885e-03,  1.76847411e-03
    5388, -1.27039723e-03, -1.46378209e-03,  1.76847411e-03
    5389, -7.99692003e-04, -1.24760221e-03,  2.16592956e-03
    5390, -2.51544172e-04, -9.95855408e-04,  2.41578050e-03
    5391,  3.36690902e-04, -7.25697818e-04,  2.50100000e-03
    5392,  9.24925975e-04, -4.55540227e-04,  2.41578050e-03
    5393,  1.47307381e-03, -2.03793428e-04,  2.16592956e-03
    5394,  1.94377904e-03,  1.23864583e-05,  1.76847411e-03
    5395,  1.96299883e-03, -2.84360191e-02,  1.25050002e-03
    5396,  2.18944068e-03, -2.83304275e-02,  6.47306439e-04
    5397,  2.26667578e-03, -2.82944122e-02,  2.22133423e-19
    5398,  2.18944068e-03, -2.83304275e-02, -6.47306439e-04
    5399,  1.96299883e-03, -2.84360191e-02, -1.25050002e-03
    5400,  1.60278186e-03, -2.86039910e-02, -1.76847411e-03
    5401,  8.34865965e-04, -2.58431181e-02,  1.25050002e-03
    5402,  1.06895156e-03, -2.57557715e-02,  6.47306439e-04
    5403,  1.14879379e-03, -2.57259792e-02,  2.22133423e-19
    5404,  1.06895156e-03, -2.57557715e-02, -6.47306439e-04
    5405,  8.34865965e-04, -2.58431181e-02, -1.25050002e-03
    5406,  4.62489559e-04, -2.59820664e-02, -1.76847411e-03
    5407,  1.75270706e-04, -2.33871676e-02,  1.25050002e-03
    5408,  4.22379032e-04, -2.33502492e-02,  6.47306439e-04
    5409,  5.06663077e-04, -2.33376570e-02,  2.22133423e-19
    5410,  4.22379032e-04, -2.33502492e-02, -6.47306439e-04
    5411,  1.75270706e-04, -2.33871676e-02, -1.25050002e-03
    5412, -2.17821874e-04, -2.34458963e-02, -1.76847411e-03
    5413,  1.32488799e-04, -2.09635577e-02,  1.25050002e-03
    5414,  3.80707606e-04, -2.09920692e-02,  6.47306439e-04
    5415,  4.65370417e-04, -2.10017940e-02,  2.22133423e-19
    5416,  3.80707606e-04, -2.09920692e-02, -6.47306439e-04
    5417,  1.32488799e-04, -2.09635577e-02, -1.25050002e-03
    5418, -2.62370304e-04, -2.09182023e-02, -1.76847411e-03
    5419,  7.14912992e-04, -1.85161218e-02,  1.25050002e-03
    5420,  9.50832217e-04, -1.85983873e-02,  6.47306439e-04
    5421,  1.03129987e-03, -1.86264466e-02,  2.22133423e-19
    5422,  9.50832217e-04, -1.85983873e-02, -6.47306439e-04
    5423,  7.14912992e-04, -1.85161218e-02, -1.25050002e-03
    5424,  3.39619699e-04, -1.83852563e-02, -1.76847411e-03
    5425,  1.79545415e-03, -1.59508053e-02,  1.25050002e-03
    5426,  2.02204908e-03, -1.60560680e-02,  6.47306439e-04
    5427,  2.09933639e-03, -1.60919711e-02,  2.22133423e-19
    5428,  2.02204908e-03, -1.60560680e-02, -6.47306439e-04
    5429,  1.79545415e-03, -1.59508053e-02, -1.25050002e-03
    5430,  1.43499366e-03, -1.57833566e-02, -1.76847411e-03
    5431,  3.06519991e-03, -1.30940943e-02,  1.25050002e-03
    5432,  3.29756137e-03, -1.31859292e-02,  6.47306439e-04
    5433,  3.37681553e-03, -1.32172524e-02,  2.22133423e-19
    5434,  3.29756137e-03, -1.31859292e-02, -6.47306439e-04
    5435,  3.06519991e-03, -1.30940943e-02, -1.25050002e-03
    5436,  2.69556622e-03, -1.29480061e-02, -1.76847411e-03
    5437,  4.03168114e-03, -9.81652420e-03,  1.25050002e-03
    5438,  4.27743889e-03, -9.86156433e-03,  6.47306439e-04
    5439,  4.36126228e-03, -9.87692668e-03,  2.22133423e-19
    5440,  4.27743889e-03, -9.86156433e-03, -6.47306439e-04
    5441,  4.03168114e-03, -9.81652420e-03, -1.25050002e-03
    5442,  3.64073701e-03, -9.74487569e-03, -1.76847411e-03
    5443,  4.21711671e-03, -6.26644314e-03,  1.25050002e-03
    5444,  4.46617530e-03, -6.24656078e-03,  6.47306439e-04
    5445,  4.55112455e-03, -6.23977928e-03,  2.22133423e-19
    5446,  4.46617530e-03, -6.24656078e-03, -6.47306439e-04
    5447,  4.21711671e-03, -6.26644314e-03, -1.25050002e-03
    5448,  3.82092171e-03, -6.29807140e-03, -1.76847411e-03
    5449,  3.51908304e-03, -2.84232182e-03,  1.25050002e-03
    5450,  3.75689729e-03, -2.76570672e-03,  6.47306439e-04
    5451,  3.83801129e-03, -2.73957473e-03,  2.22133423e-19
    5452,  3.75689729e-03, -2.76570672e-03, -6.47306439e-04
    5453,  3.51908304e-03, -2.84232182e-03, -1.25050002e-03
    5454,  3.14077521e-03, -2.96419885e-03, -1.76847411e-03
    5455,  2.30496382e-03,  1.78267099e-04,  1.25050002e-03
    5456,  2.53201407e-03,  2.82544028e-04,  6.47306439e-04
    5457,  2.60945667e-03,  3.18110946e-04,  2.22133423e-19
    5458,  2.53201407e-03,  2.82544028e-04, -6.47306439e-04
    5459,  2.30496382e-03,  1.78267099e-04, -1.25050002e-03
    5460,  1.94377904e-03,  1.23864583e-05, -1.76847411e-03
    5461,  1.13333791e-03, -2.88228963e-02, -2.16592956e-03
    5462,  5.86658866e-04, -2.90778169e-02, -2.41578050e-03
    5463,  6.30546419e-18, -2.93513805e-02, -2.50100000e-03
    5464, -5.86658866e-04, -2.96249440e-02, -2.41578050e-03
    5465, -1.13333791e-03, -2.98798646e-02, -2.16592956e-03
    5466, -1.60278186e-03, -3.00987699e-02, -1.76847411e-03
    5467, -2.28008818e-05, -2.61631474e-02, -2.16592956e-03
    5468, -5.87933548e-04, -2.63740207e-02, -2.41578050e-03
    5469, -1.19439560e-03, -2.66003157e-02, -2.50100000e-03
    5470, -1.80085764e-03, -2.68266106e-02, -2.41578050e-03
    5471, -2.36599031e-03, -2.70374839e-02, -2.16592956e-03
    5472, -2.85128075e-03, -2.72185649e-02, -1.76847411e-03
    5473, -7.30110161e-04, -2.35224330e-02, -2.16592956e-03
    5474, -1.32668248e-03, -2.36115618e-02, -2.41578050e-03
    5475, -1.96688344e-03, -2.37072089e-02, -2.50100000e-03
    5476, -2.60708439e-03, -2.38028560e-02, -2.41578050e-03
    5477, -3.20365672e-03, -2.38919848e-02, -2.16592956e-03
    5478, -3.71594500e-03, -2.39685215e-02, -1.76847411e-03
    5479, -7.76960768e-04, -2.08590941e-02, -2.16592956e-03
    5480, -1.37621403e-03, -2.07902611e-02, -2.41578050e-03
    5481, -2.01929199e-03, -2.07163942e-02, -2.50100000e-03
    5482, -2.66236995e-03, -2.06425273e-02, -2.41578050e-03
    5483, -3.26162322e-03, -2.05736943e-02, -2.16592956e-03
    5484, -3.77621368e-03, -2.05145861e-02, -1.76847411e-03
    5485, -1.49472102e-04, -1.82147091e-02, -2.16592956e-03
    5486, -7.19031545e-04, -1.80161026e-02, -2.41578050e-03
    5487, -1.33024411e-03, -1.78029716e-02, -2.50100000e-03
    5488, -1.94145667e-03, -1.75898406e-02, -2.41578050e-03
    5489, -2.51101612e-03, -1.73912341e-02, -2.16592956e-03
    5490, -3.00010792e-03, -1.72206869e-02, -1.76847411e-03
    5491,  9.65232360e-04, -1.55651331e-02, -2.16592956e-03
    5492,  4.18183754e-04, -1.53110065e-02, -2.41578050e-03
    5493, -1.68871705e-04, -1.50382951e-02, -2.50100000e-03
    5494, -7.55927165e-04, -1.47655837e-02, -2.41578050e-03
    5495, -1.30297577e-03, -1.45114571e-02, -2.16592956e-03
    5496, -1.77273708e-03, -1.42932337e-02, -1.76847411e-03
    5497,  2.21385014e-03, -1.27576203e-02, -2.16592956e-03
    5498,  1.65287992e-03, -1.25359112e-02, -2.41578050e-03
    5499,  1.05088472e-03, -1.22979881e-02, -2.50100000e-03
    5500,  4.48889516e-04, -1.20600650e-02, -2.41578050e-03
    5501, -1.12080711e-04, -1.18383560e-02, -2.16592956e-03
    5502, -5.93796784e-04, -1.16479701e-02, -1.76847411e-03
    5503,  3.13124864e-03, -9.65150153e-03, -2.16592956e-03
    5504,  2.53793689e-03, -9.54276501e-03, -2.41578050e-03
    5505,  1.90123496e-03, -9.42607636e-03, -2.50100000e-03
    5506,  1.26453303e-03, -9.30938771e-03, -2.41578050e-03
    5507,  6.71221285e-04, -9.20065120e-03, -2.16592956e-03
    5508,  1.61732916e-04, -9.10727703e-03, -1.76847411e-03
    5509,  3.30459026e-03, -6.33929016e-03, -2.16592956e-03
    5510,  2.70330958e-03, -6.38729042e-03, -2.41578050e-03
    5511,  2.05805594e-03, -6.43880105e-03, -2.50100000e-03
    5512,  1.41280230e-03, -6.49031167e-03, -2.41578050e-03
    5513,  8.11521619e-04, -6.53831193e-03, -2.16592956e-03
    5514,  2.95190174e-04, -6.57953069e-03, -1.76847411e-03
    5515,  2.64775478e-03, -3.12303211e-03, -2.16592956e-03
    5516,  2.07362036e-03, -3.30799734e-03, -2.41578050e-03
    5517,  1.45749824e-03, -3.50648949e-03, -2.50100000e-03
    5518,  8.41376115e-04, -3.70498164e-03, -2.41578050e-03
    5519,  2.67241691e-04, -3.88994688e-03, -2.16592956e-03
    5520, -2.25778735e-04, -4.04878014e-03, -1.76847411e-03
    5521,  1.47307381e-03, -2.03793428e-04, -2.16592956e-03
    5522,  9.24925975e-04, -4.55540227e-04, -2.41578050e-03
    5523,  3.36690902e-04, -7.25697818e-04, -2.50100000e-03
    5524, -2.51544172e-04, -9.95855408e-04, -2.41578050e-03
    5525, -7.99692003e-04, -1.24760221e-03, -2.16592956e-03
    5526, -1.27039723e-03, -1.46378209e-03, -1.76847411e-03
    5527, -1.96299883e-03, -3.02667418e-02, -1.25050002e-03
    5528, -2.18944068e-03, -3.03723334e-02, -6.47306439e-04
    5529, -2.26667578e-03, -3.04083487e-02, -2.22133423e-19
    5530, -2.18944068e-03, -3.03723334e-02,  6.47306439e-04
    5531, -1.96299883e-03, -3.02667418e-02,  1.25050002e-03
    5532, -3.22365716e-03, -2.73575133e-02, -1.25050002e-03
    5533, -3.45774275e-03, -2.74448598e-02, -6.47306439e-04
    5534, -3.53758498e-03, -2.74746521e-02, -2.22133423e-19
    5535, -3.45774275e-03, -2.74448598e-02,  6.47306439e-04
    5536, -3.22365716e-03, -2.73575133e-02,  1.25050002e-03
    5537, -4.10903758e-03, -2.40272502e-02, -1.25050002e-03
    5538, -4.35614591e-03, -2.40641686e-02, -6.47306439e-04
    5539, -4.44042995e-03, -2.40767607e-02, -2.22133423e-19
    5540, -4.35614591e-03, -2.40641686e-02,  6.47306439e-04
    5541, -4.10903758e-03, -2.40272502e-02,  1.25050002e-03
    5542, -4.17107278e-03, -2.04692308e-02, -1.25050002e-03
    5543, -4.41929159e-03, -2.04407192e-02, -6.47306439e-04
    5544, -4.50395440e-03, -2.04309944e-02, -2.22133423e-19
    5545, -4.41929159e-03, -2.04407192e-02,  6.47306439e-04
    5546, -4.17107278e-03, -2.04692308e-02,  1.25050002e-03
    5547, -3.37540121e-03, -1.70898214e-02, -1.25050002e-03
    5548, -3.61132044e-03, -1.70075559e-02, -6.47306439e-04
    5549, -3.69178809e-03, -1.69794967e-02, -2.22133423e-19
    5550, -3.61132044e-03, -1.70075559e-02,  6.47306439e-04
    5551, -3.37540121e-03, -1.70898214e-02,  1.25050002e-03
    5552, -2.13319756e-03, -1.41257850e-02, -1.25050002e-03
    5553, -2.35979249e-03, -1.40205223e-02, -6.47306439e-04
    5554, -2.43707980e-03, -1.39846192e-02, -2.22133423e-19
    5555, -2.35979249e-03, -1.40205223e-02,  6.47306439e-04
    5556, -2.13319756e-03, -1.41257850e-02,  1.25050002e-03
    5557, -9.63430483e-04, -1.15018819e-02, -1.25050002e-03
    5558, -1.19579194e-03, -1.14100470e-02, -6.47306439e-04
    5559, -1.27504610e-03, -1.13787239e-02, -2.22133423e-19
    5560, -1.19579194e-03, -1.14100470e-02,  6.47306439e-04
    5561, -9.63430483e-04, -1.15018819e-02,  1.25050002e-03
    5562, -2.29211212e-04, -9.03562852e-03, -1.25050002e-03
    5563, -4.74968964e-04, -8.99058839e-03, -6.47306439e-04
    5564, -5.58792354e-04, -8.97522604e-03, -2.22133423e-19
    5565, -4.74968964e-04, -8.99058839e-03,  6.47306439e-04
    5566, -2.29211212e-04, -9.03562852e-03,  1.25050002e-03
    5567, -1.01004829e-04, -6.61115895e-03, -1.25050002e-03
    5568, -3.50063420e-04, -6.63104131e-03, -6.47306439e-04
    5569, -4.35012664e-04, -6.63782281e-03, -2.22133423e-19
    5570, -3.50063420e-04, -6.63104131e-03,  6.47306439e-04
    5571, -1.01004829e-04, -6.61115895e-03,  1.25050002e-03
    5572, -6.04086567e-04, -4.17065717e-03, -1.25050002e-03
    5573, -8.41900811e-04, -4.24727227e-03, -6.47306439e-04
    5574, -9.23014818e-04, -4.27340425e-03, -2.22133423e-19
    5575, -8.41900811e-04, -4.24727227e-03,  6.47306439e-04
    5576, -6.04086567e-04, -4.17065717e-03,  1.25050002e-03
    5577, -1.63158202e-03, -1.62966273e-03, -1.25050002e-03
    5578, -1.85863226e-03, -1.73393966e-03, -6.47306439e-04
    5579, -1.93607487e-03, -1.76950658e-03, -2.22133423e-19
    5580, -1.85863226e-03, -1.73393966e-03,  6.47306439e-04
    5581, -1.63158202e-03, -1.62966273e-03,  1.25050002e-03
*ELEMENT, TYPE=SPRINGA, ELSET=WK_0
    4753,     3973,     5318
*SPRING, ELSET=WK_0

1.957893e-01
*ELEMENT, TYPE=SPRINGA, ELSET=WK_1
    4754,     3975,     5319
*SPRING, ELSET=WK_1

1.957893e-01
*ELEMENT, TYPE=SPRINGA, ELSET=WK_2
    4755,     3977,     5320
*SPRING, ELSET=WK_2

1.957893e-01
*ELEMENT, TYPE=SPRINGA, ELSET=WK_3
    4756,     3979,     5321
*SPRING, ELSET=WK_3

1.957893e-01
*ELEMENT, TYPE=SPRINGA, ELSET=WK_4
    4757,     3981,     5322
*SPRING, ELSET=WK_4

1.957893e-01
*ELEMENT, TYPE=SPRINGA, ELSET=WK_5
    4758,     3983,     5323
*SPRING, ELSET=WK_5

1.957893e-01
*ELEMENT, TYPE=SPRINGA, ELSET=WK_6
    4759,     3985,     5324
*SPRING, ELSET=WK_6

1.957893e-01
*ELEMENT, TYPE=SPRINGA, ELSET=WK_7
    4760,     3987,     5325
*SPRING, ELSET=WK_7

3.915786e-01
*ELEMENT, TYPE=SPRINGA, ELSET=WK_8
    4761,     3989,     5326
*SPRING, ELSET=WK_8

3.915786e-01
*ELEMENT, TYPE=SPRINGA, ELSET=WK_9
    4762,     3991,     5327
*SPRING, ELSET=WK_9

3.915786e-01
*ELEMENT, TYPE=SPRINGA, ELSET=WK_10
    4763,     3993,     5328
*SPRING, ELSET=WK_10

3.915786e-01
*ELEMENT, TYPE=SPRINGA, ELSET=WK_11
    4764,     3995,     5329
*SPRING, ELSET=WK_11

3.915786e-01
*ELEMENT, TYPE=SPRINGA, ELSET=WK_12
    4765,     3997,     5330
*SPRING, ELSET=WK_12

3.915786e-01
*ELEMENT, TYPE=SPRINGA, ELSET=WK_13
    4766,     3999,     5331
*SPRING, ELSET=WK_13

3.915786e-01
*ELEMENT, TYPE=SPRINGA, ELSET=WK_14
    4767,     4001,     5332
*SPRING, ELSET=WK_14

3.915786e-01
*ELEMENT, TYPE=SPRINGA, ELSET=WK_15
    4768,     4003,     5333
*SPRING, ELSET=WK_15

3.915786e-01
*ELEMENT, TYPE=SPRINGA, ELSET=WK_16
    4769,     4005,     5334
*SPRING, ELSET=WK_16

3.915786e-01
*ELEMENT, TYPE=SPRINGA, ELSET=WK_17
    4770,     4007,     5335
*SPRING, ELSET=WK_17

3.915786e-01
*ELEMENT, TYPE=SPRINGA, ELSET=WK_18
    4771,     4009,     5336
*SPRING, ELSET=WK_18

3.915786e-01
*ELEMENT, TYPE=SPRINGA, ELSET=WK_19
    4772,     4011,     5337
*SPRING, ELSET=WK_19

3.915786e-01
*ELEMENT, TYPE=SPRINGA, ELSET=WK_20
    4773,     4013,     5338
*SPRING, ELSET=WK_20

3.915786e-01
*ELEMENT, TYPE=SPRINGA, ELSET=WK_21
    4774,     4015,     5339
*SPRING, ELSET=WK_21

3.915786e-01
*ELEMENT, TYPE=SPRINGA, ELSET=WK_22
    4775,     4017,     5340
*SPRING, ELSET=WK_22

3.915786e-01
*ELEMENT, TYPE=SPRINGA, ELSET=WK_23
    4776,     4019,     5341
*SPRING, ELSET=WK_23

3.915786e-01
*ELEMENT, TYPE=SPRINGA, ELSET=WK_24
    4777,     4021,     5342
*SPRING, ELSET=WK_24

3.915786e-01
*ELEMENT, TYPE=SPRINGA, ELSET=WK_25
    4778,     4023,     5343
*SPRING, ELSET=WK_25

3.915786e-01
*ELEMENT, TYPE=SPRINGA, ELSET=WK_26
    4779,     4025,     5344
*SPRING, ELSET=WK_26

3.915786e-01
*ELEMENT, TYPE=SPRINGA, ELSET=WK_27
    4780,     4027,     5345
*SPRING, ELSET=WK_27

3.915786e-01
*ELEMENT, TYPE=SPRINGA, ELSET=WK_28
    4781,     4029,     5346
*SPRING, ELSET=WK_28

3.915786e-01
*ELEMENT, TYPE=SPRINGA, ELSET=WK_29
    4782,     4031,     5347
*SPRING, ELSET=WK_29

3.915786e-01
*ELEMENT, TYPE=SPRINGA, ELSET=WK_30
    4783,     4033,     5348
*SPRING, ELSET=WK_30

3.915786e-01
*ELEMENT, TYPE=SPRINGA, ELSET=WK_31
    4784,     4035,     5349
*SPRING, ELSET=WK_31

3.915786e-01
*ELEMENT, TYPE=SPRINGA, ELSET=WK_32
    4785,     4037,     5350
*SPRING, ELSET=WK_32

3.915786e-01
*ELEMENT, TYPE=SPRINGA, ELSET=WK_33
    4786,     4039,     5351
*SPRING, ELSET=WK_33

3.915786e-01
*ELEMENT, TYPE=SPRINGA, ELSET=WK_34
    4787,     4041,     5352
*SPRING, ELSET=WK_34

3.915786e-01
*ELEMENT, TYPE=SPRINGA, ELSET=WK_35
    4788,     4043,     5353
*SPRING, ELSET=WK_35

3.915786e-01
*ELEMENT, TYPE=SPRINGA, ELSET=WK_36
    4789,     4045,     5354
*SPRING, ELSET=WK_36

3.915786e-01
*ELEMENT, TYPE=SPRINGA, ELSET=WK_37
    4790,     4047,     5355
*SPRING, ELSET=WK_37

3.915786e-01
*ELEMENT, TYPE=SPRINGA, ELSET=WK_38
    4791,     4049,     5356
*SPRING, ELSET=WK_38

3.915786e-01
*ELEMENT, TYPE=SPRINGA, ELSET=WK_39
    4792,     4051,     5357
*SPRING, ELSET=WK_39

3.915786e-01
*ELEMENT, TYPE=SPRINGA, ELSET=WK_40
    4793,     4053,     5358
*SPRING, ELSET=WK_40

3.915786e-01
*ELEMENT, TYPE=SPRINGA, ELSET=WK_41
    4794,     4055,     5359
*SPRING, ELSET=WK_41

3.915786e-01
*ELEMENT, TYPE=SPRINGA, ELSET=WK_42
    4795,     4057,     5360
*SPRING, ELSET=WK_42

3.915786e-01
*ELEMENT, TYPE=SPRINGA, ELSET=WK_43
    4796,     4059,     5361
*SPRING, ELSET=WK_43

3.915786e-01
*ELEMENT, TYPE=SPRINGA, ELSET=WK_44
    4797,     4061,     5362
*SPRING, ELSET=WK_44

3.915786e-01
*ELEMENT, TYPE=SPRINGA, ELSET=WK_45
    4798,     4063,     5363
*SPRING, ELSET=WK_45

3.915786e-01
*ELEMENT, TYPE=SPRINGA, ELSET=WK_46
    4799,     4065,     5364
*SPRING, ELSET=WK_46

3.915786e-01
*ELEMENT, TYPE=SPRINGA, ELSET=WK_47
    4800,     4067,     5365
*SPRING, ELSET=WK_47

3.915786e-01
*ELEMENT, TYPE=SPRINGA, ELSET=WK_48
    4801,     4069,     5366
*SPRING, ELSET=WK_48

3.915786e-01
*ELEMENT, TYPE=SPRINGA, ELSET=WK_49
    4802,     4071,     5367
*SPRING, ELSET=WK_49

3.915786e-01
*ELEMENT, TYPE=SPRINGA, ELSET=WK_50
    4803,     4073,     5368
*SPRING, ELSET=WK_50

3.915786e-01
*ELEMENT, TYPE=SPRINGA, ELSET=WK_51
    4804,     4075,     5369
*SPRING, ELSET=WK_51

3.915786e-01
*ELEMENT, TYPE=SPRINGA, ELSET=WK_52
    4805,     4077,     5370
*SPRING, ELSET=WK_52

3.915786e-01
*ELEMENT, TYPE=SPRINGA, ELSET=WK_53
    4806,     4079,     5371
*SPRING, ELSET=WK_53

3.915786e-01
*ELEMENT, TYPE=SPRINGA, ELSET=WK_54
    4807,     4081,     5372
*SPRING, ELSET=WK_54

3.915786e-01
*ELEMENT, TYPE=SPRINGA, ELSET=WK_55
    4808,     4083,     5373
*SPRING, ELSET=WK_55

3.915786e-01
*ELEMENT, TYPE=SPRINGA, ELSET=WK_56
    4809,     4085,     5374
*SPRING, ELSET=WK_56

3.915786e-01
*ELEMENT, TYPE=SPRINGA, ELSET=WK_57
    4810,     4087,     5375
*SPRING, ELSET=WK_57

3.915786e-01
*ELEMENT, TYPE=SPRINGA, ELSET=WK_58
    4811,     4089,     5376
*SPRING, ELSET=WK_58

3.915786e-01
*ELEMENT, TYPE=SPRINGA, ELSET=WK_59
    4812,     4091,     5377
*SPRING, ELSET=WK_59

3.915786e-01
*ELEMENT, TYPE=SPRINGA, ELSET=WK_60
    4813,     4093,     5378
*SPRING, ELSET=WK_60

3.915786e-01
*ELEMENT, TYPE=SPRINGA, ELSET=WK_61
    4814,     4095,     5379
*SPRING, ELSET=WK_61

3.915786e-01
*ELEMENT, TYPE=SPRINGA, ELSET=WK_62
    4815,     4097,     5380
*SPRING, ELSET=WK_62

3.915786e-01
*ELEMENT, TYPE=SPRINGA, ELSET=WK_63
    4816,     4099,     5381
*SPRING, ELSET=WK_63

3.915786e-01
*ELEMENT, TYPE=SPRINGA, ELSET=WK_64
    4817,     4101,     5382
*SPRING, ELSET=WK_64

3.915786e-01
*ELEMENT, TYPE=SPRINGA, ELSET=WK_65
    4818,     4103,     5383
*SPRING, ELSET=WK_65

3.915786e-01
*ELEMENT, TYPE=SPRINGA, ELSET=WK_66
    4819,     4105,     5384
*SPRING, ELSET=WK_66

3.915786e-01
*ELEMENT, TYPE=SPRINGA, ELSET=WK_67
    4820,     4107,     5385
*SPRING, ELSET=WK_67

3.915786e-01
*ELEMENT, TYPE=SPRINGA, ELSET=WK_68
    4821,     4109,     5386
*SPRING, ELSET=WK_68

3.915786e-01
*ELEMENT, TYPE=SPRINGA, ELSET=WK_69
    4822,     4111,     5387
*SPRING, ELSET=WK_69

3.915786e-01
*ELEMENT, TYPE=SPRINGA, ELSET=WK_70
    4823,     4113,     5388
*SPRING, ELSET=WK_70

1.957893e-01
*ELEMENT, TYPE=SPRINGA, ELSET=WK_71
    4824,     4115,     5389
*SPRING, ELSET=WK_71

1.957893e-01
*ELEMENT, TYPE=SPRINGA, ELSET=WK_72
    4825,     4117,     5390
*SPRING, ELSET=WK_72

1.957893e-01
*ELEMENT, TYPE=SPRINGA, ELSET=WK_73
    4826,     4119,     5391
*SPRING, ELSET=WK_73

1.957893e-01
*ELEMENT, TYPE=SPRINGA, ELSET=WK_74
    4827,     4121,     5392
*SPRING, ELSET=WK_74

1.957893e-01
*ELEMENT, TYPE=SPRINGA, ELSET=WK_75
    4828,     4123,     5393
*SPRING, ELSET=WK_75

1.957893e-01
*ELEMENT, TYPE=SPRINGA, ELSET=WK_76
    4829,     4125,     5394
*SPRING, ELSET=WK_76

1.957893e-01
*ELEMENT, TYPE=SPRINGA, ELSET=WK_77
    4830,     4127,     5395
*SPRING, ELSET=WK_77

1.957893e-01
*ELEMENT, TYPE=SPRINGA, ELSET=WK_78
    4831,     4129,     5396
*SPRING, ELSET=WK_78

1.957893e-01
*ELEMENT, TYPE=SPRINGA, ELSET=WK_79
    4832,     4131,     5397
*SPRING, ELSET=WK_79

1.957893e-01
*ELEMENT, TYPE=SPRINGA, ELSET=WK_80
    4833,     4133,     5398
*SPRING, ELSET=WK_80

1.957893e-01
*ELEMENT, TYPE=SPRINGA, ELSET=WK_81
    4834,     4135,     5399
*SPRING, ELSET=WK_81

1.957893e-01
*ELEMENT, TYPE=SPRINGA, ELSET=WK_82
    4835,     4137,     5400
*SPRING, ELSET=WK_82

1.957893e-01
*ELEMENT, TYPE=SPRINGA, ELSET=WK_83
    4836,     4139,     5401
*SPRING, ELSET=WK_83

3.915786e-01
*ELEMENT, TYPE=SPRINGA, ELSET=WK_84
    4837,     4141,     5402
*SPRING, ELSET=WK_84

3.915786e-01
*ELEMENT, TYPE=SPRINGA, ELSET=WK_85
    4838,     4143,     5403
*SPRING, ELSET=WK_85

3.915786e-01
*ELEMENT, TYPE=SPRINGA, ELSET=WK_86
    4839,     4145,     5404
*SPRING, ELSET=WK_86

3.915786e-01
*ELEMENT, TYPE=SPRINGA, ELSET=WK_87
    4840,     4147,     5405
*SPRING, ELSET=WK_87

3.915786e-01
*ELEMENT, TYPE=SPRINGA, ELSET=WK_88
    4841,     4149,     5406
*SPRING, ELSET=WK_88

3.915786e-01
*ELEMENT, TYPE=SPRINGA, ELSET=WK_89
    4842,     4151,     5407
*SPRING, ELSET=WK_89

3.915786e-01
*ELEMENT, TYPE=SPRINGA, ELSET=WK_90
    4843,     4153,     5408
*SPRING, ELSET=WK_90

3.915786e-01
*ELEMENT, TYPE=SPRINGA, ELSET=WK_91
    4844,     4155,     5409
*SPRING, ELSET=WK_91

3.915786e-01
*ELEMENT, TYPE=SPRINGA, ELSET=WK_92
    4845,     4157,     5410
*SPRING, ELSET=WK_92

3.915786e-01
*ELEMENT, TYPE=SPRINGA, ELSET=WK_93
    4846,     4159,     5411
*SPRING, ELSET=WK_93

3.915786e-01
*ELEMENT, TYPE=SPRINGA, ELSET=WK_94
    4847,     4161,     5412
*SPRING, ELSET=WK_94

3.915786e-01
*ELEMENT, TYPE=SPRINGA, ELSET=WK_95
    4848,     4163,     5413
*SPRING, ELSET=WK_95

3.915786e-01
*ELEMENT, TYPE=SPRINGA, ELSET=WK_96
    4849,     4165,     5414
*SPRING, ELSET=WK_96

3.915786e-01
*ELEMENT, TYPE=SPRINGA, ELSET=WK_97
    4850,     4167,     5415
*SPRING, ELSET=WK_97

3.915786e-01
*ELEMENT, TYPE=SPRINGA, ELSET=WK_98
    4851,     4169,     5416
*SPRING, ELSET=WK_98

3.915786e-01
*ELEMENT, TYPE=SPRINGA, ELSET=WK_99
    4852,     4171,     5417
*SPRING, ELSET=WK_99

3.915786e-01
*ELEMENT, TYPE=SPRINGA, ELSET=WK_100
    4853,     4173,     5418
*SPRING, ELSET=WK_100

3.915786e-01
*ELEMENT, TYPE=SPRINGA, ELSET=WK_101
    4854,     4175,     5419
*SPRING, ELSET=WK_101

3.915786e-01
*ELEMENT, TYPE=SPRINGA, ELSET=WK_102
    4855,     4177,     5420
*SPRING, ELSET=WK_102

3.915786e-01
*ELEMENT, TYPE=SPRINGA, ELSET=WK_103
    4856,     4179,     5421
*SPRING, ELSET=WK_103

3.915786e-01
*ELEMENT, TYPE=SPRINGA, ELSET=WK_104
    4857,     4181,     5422
*SPRING, ELSET=WK_104

3.915786e-01
*ELEMENT, TYPE=SPRINGA, ELSET=WK_105
    4858,     4183,     5423
*SPRING, ELSET=WK_105

3.915786e-01
*ELEMENT, TYPE=SPRINGA, ELSET=WK_106
    4859,     4185,     5424
*SPRING, ELSET=WK_106

3.915786e-01
*ELEMENT, TYPE=SPRINGA, ELSET=WK_107
    4860,     4187,     5425
*SPRING, ELSET=WK_107

3.915786e-01
*ELEMENT, TYPE=SPRINGA, ELSET=WK_108
    4861,     4189,     5426
*SPRING, ELSET=WK_108

3.915786e-01
*ELEMENT, TYPE=SPRINGA, ELSET=WK_109
    4862,     4191,     5427
*SPRING, ELSET=WK_109

3.915786e-01
*ELEMENT, TYPE=SPRINGA, ELSET=WK_110
    4863,     4193,     5428
*SPRING, ELSET=WK_110

3.915786e-01
*ELEMENT, TYPE=SPRINGA, ELSET=WK_111
    4864,     4195,     5429
*SPRING, ELSET=WK_111

3.915786e-01
*ELEMENT, TYPE=SPRINGA, ELSET=WK_112
    4865,     4197,     5430
*SPRING, ELSET=WK_112

3.915786e-01
*ELEMENT, TYPE=SPRINGA, ELSET=WK_113
    4866,     4199,     5431
*SPRING, ELSET=WK_113

3.915786e-01
*ELEMENT, TYPE=SPRINGA, ELSET=WK_114
    4867,     4201,     5432
*SPRING, ELSET=WK_114

3.915786e-01
*ELEMENT, TYPE=SPRINGA, ELSET=WK_115
    4868,     4203,     5433
*SPRING, ELSET=WK_115

3.915786e-01
*ELEMENT, TYPE=SPRINGA, ELSET=WK_116
    4869,     4205,     5434
*SPRING, ELSET=WK_116

3.915786e-01
*ELEMENT, TYPE=SPRINGA, ELSET=WK_117
    4870,     4207,     5435
*SPRING, ELSET=WK_117

3.915786e-01
*ELEMENT, TYPE=SPRINGA, ELSET=WK_118
    4871,     4209,     5436
*SPRING, ELSET=WK_118

3.915786e-01
*ELEMENT, TYPE=SPRINGA, ELSET=WK_119
    4872,     4211,     5437
*SPRING, ELSET=WK_119

3.915786e-01
*ELEMENT, TYPE=SPRINGA, ELSET=WK_120
    4873,     4213,     5438
*SPRING, ELSET=WK_120

2.936839e-01
*ELEMENT, TYPE=SPRINGA, ELSET=WK_121
    4874,     4215,     5439
*SPRING, ELSET=WK_121

1.957893e-01
*ELEMENT, TYPE=SPRINGA, ELSET=WK_122
    4875,     4217,     5440
*SPRING, ELSET=WK_122

2.936839e-01
*ELEMENT, TYPE=SPRINGA, ELSET=WK_123
    4876,     4219,     5441
*SPRING, ELSET=WK_123

3.915786e-01
*ELEMENT, TYPE=SPRINGA, ELSET=WK_124
    4877,     4221,     5442
*SPRING, ELSET=WK_124

3.915786e-01
*ELEMENT, TYPE=SPRINGA, ELSET=WK_125
    4878,     4223,     5443
*SPRING, ELSET=WK_125

3.915786e-01
*ELEMENT, TYPE=SPRINGA, ELSET=WK_126
    4879,     4225,     5444
*SPRING, ELSET=WK_126

2.936839e-01
*ELEMENT, TYPE=SPRINGA, ELSET=WK_127
    4880,     4227,     5445
*SPRING, ELSET=WK_127

1.957893e-01
*ELEMENT, TYPE=SPRINGA, ELSET=WK_128
    4881,     4229,     5446
*SPRING, ELSET=WK_128

2.936839e-01
*ELEMENT, TYPE=SPRINGA, ELSET=WK_129
    4882,     4231,     5447
*SPRING, ELSET=WK_129

3.915786e-01
*ELEMENT, TYPE=SPRINGA, ELSET=WK_130
    4883,     4233,     5448
*SPRING, ELSET=WK_130

3.915786e-01
*ELEMENT, TYPE=SPRINGA, ELSET=WK_131
    4884,     4235,     5449
*SPRING, ELSET=WK_131

3.915786e-01
*ELEMENT, TYPE=SPRINGA, ELSET=WK_132
    4885,     4237,     5450
*SPRING, ELSET=WK_132

3.915786e-01
*ELEMENT, TYPE=SPRINGA, ELSET=WK_133
    4886,     4239,     5451
*SPRING, ELSET=WK_133

3.915786e-01
*ELEMENT, TYPE=SPRINGA, ELSET=WK_134
    4887,     4241,     5452
*SPRING, ELSET=WK_134

3.915786e-01
*ELEMENT, TYPE=SPRINGA, ELSET=WK_135
    4888,     4243,     5453
*SPRING, ELSET=WK_135

3.915786e-01
*ELEMENT, TYPE=SPRINGA, ELSET=WK_136
    4889,     4245,     5454
*SPRING, ELSET=WK_136

3.915786e-01
*ELEMENT, TYPE=SPRINGA, ELSET=WK_137
    4890,     4247,     5455
*SPRING, ELSET=WK_137

1.957893e-01
*ELEMENT, TYPE=SPRINGA, ELSET=WK_138
    4891,     4249,     5456
*SPRING, ELSET=WK_138

1.957893e-01
*ELEMENT, TYPE=SPRINGA, ELSET=WK_139
    4892,     4251,     5457
*SPRING, ELSET=WK_139

1.957893e-01
*ELEMENT, TYPE=SPRINGA, ELSET=WK_140
    4893,     4253,     5458
*SPRING, ELSET=WK_140

1.957893e-01
*ELEMENT, TYPE=SPRINGA, ELSET=WK_141
    4894,     4255,     5459
*SPRING, ELSET=WK_141

1.957893e-01
*ELEMENT, TYPE=SPRINGA, ELSET=WK_142
    4895,     4257,     5460
*SPRING, ELSET=WK_142

1.957893e-01
*ELEMENT, TYPE=SPRINGA, ELSET=WK_143
    4896,     4259,     5461
*SPRING, ELSET=WK_143

1.957893e-01
*ELEMENT, TYPE=SPRINGA, ELSET=WK_144
    4897,     4261,     5462
*SPRING, ELSET=WK_144

1.957893e-01
*ELEMENT, TYPE=SPRINGA, ELSET=WK_145
    4898,     4263,     5463
*SPRING, ELSET=WK_145

1.957893e-01
*ELEMENT, TYPE=SPRINGA, ELSET=WK_146
    4899,     4265,     5464
*SPRING, ELSET=WK_146

1.957893e-01
*ELEMENT, TYPE=SPRINGA, ELSET=WK_147
    4900,     4267,     5465
*SPRING, ELSET=WK_147

1.957893e-01
*ELEMENT, TYPE=SPRINGA, ELSET=WK_148
    4901,     4269,     5466
*SPRING, ELSET=WK_148

1.957893e-01
*ELEMENT, TYPE=SPRINGA, ELSET=WK_149
    4902,     4271,     5467
*SPRING, ELSET=WK_149

3.915786e-01
*ELEMENT, TYPE=SPRINGA, ELSET=WK_150
    4903,     4273,     5468
*SPRING, ELSET=WK_150

3.915786e-01
*ELEMENT, TYPE=SPRINGA, ELSET=WK_151
    4904,     4275,     5469
*SPRING, ELSET=WK_151

3.915786e-01
*ELEMENT, TYPE=SPRINGA, ELSET=WK_152
    4905,     4277,     5470
*SPRING, ELSET=WK_152

3.915786e-01
*ELEMENT, TYPE=SPRINGA, ELSET=WK_153
    4906,     4279,     5471
*SPRING, ELSET=WK_153

3.915786e-01
*ELEMENT, TYPE=SPRINGA, ELSET=WK_154
    4907,     4281,     5472
*SPRING, ELSET=WK_154

3.915786e-01
*ELEMENT, TYPE=SPRINGA, ELSET=WK_155
    4908,     4283,     5473
*SPRING, ELSET=WK_155

3.915786e-01
*ELEMENT, TYPE=SPRINGA, ELSET=WK_156
    4909,     4285,     5474
*SPRING, ELSET=WK_156

3.915786e-01
*ELEMENT, TYPE=SPRINGA, ELSET=WK_157
    4910,     4287,     5475
*SPRING, ELSET=WK_157

3.915786e-01
*ELEMENT, TYPE=SPRINGA, ELSET=WK_158
    4911,     4289,     5476
*SPRING, ELSET=WK_158

3.915786e-01
*ELEMENT, TYPE=SPRINGA, ELSET=WK_159
    4912,     4291,     5477
*SPRING, ELSET=WK_159

3.915786e-01
*ELEMENT, TYPE=SPRINGA, ELSET=WK_160
    4913,     4293,     5478
*SPRING, ELSET=WK_160

3.915786e-01
*ELEMENT, TYPE=SPRINGA, ELSET=WK_161
    4914,     4295,     5479
*SPRING, ELSET=WK_161

3.915786e-01
*ELEMENT, TYPE=SPRINGA, ELSET=WK_162
    4915,     4297,     5480
*SPRING, ELSET=WK_162

3.915786e-01
*ELEMENT, TYPE=SPRINGA, ELSET=WK_163
    4916,     4299,     5481
*SPRING, ELSET=WK_163

3.915786e-01
*ELEMENT, TYPE=SPRINGA, ELSET=WK_164
    4917,     4301,     5482
*SPRING, ELSET=WK_164

3.915786e-01
*ELEMENT, TYPE=SPRINGA, ELSET=WK_165
    4918,     4303,     5483
*SPRING, ELSET=WK_165

3.915786e-01
*ELEMENT, TYPE=SPRINGA, ELSET=WK_166
    4919,     4305,     5484
*SPRING, ELSET=WK_166

3.915786e-01
*ELEMENT, TYPE=SPRINGA, ELSET=WK_167
    4920,     4307,     5485
*SPRING, ELSET=WK_167

3.915786e-01
*ELEMENT, TYPE=SPRINGA, ELSET=WK_168
    4921,     4309,     5486
*SPRING, ELSET=WK_168

3.915786e-01
*ELEMENT, TYPE=SPRINGA, ELSET=WK_169
    4922,     4311,     5487
*SPRING, ELSET=WK_169

3.915786e-01
*ELEMENT, TYPE=SPRINGA, ELSET=WK_170
    4923,     4313,     5488
*SPRING, ELSET=WK_170

3.915786e-01
*ELEMENT, TYPE=SPRINGA, ELSET=WK_171
    4924,     4315,     5489
*SPRING, ELSET=WK_171

3.915786e-01
*ELEMENT, TYPE=SPRINGA, ELSET=WK_172
    4925,     4317,     5490
*SPRING, ELSET=WK_172

3.915786e-01
*ELEMENT, TYPE=SPRINGA, ELSET=WK_173
    4926,     4319,     5491
*SPRING, ELSET=WK_173

3.915786e-01
*ELEMENT, TYPE=SPRINGA, ELSET=WK_174
    4927,     4321,     5492
*SPRING, ELSET=WK_174

3.915786e-01
*ELEMENT, TYPE=SPRINGA, ELSET=WK_175
    4928,     4323,     5493
*SPRING, ELSET=WK_175

3.915786e-01
*ELEMENT, TYPE=SPRINGA, ELSET=WK_176
    4929,     4325,     5494
*SPRING, ELSET=WK_176

3.915786e-01
*ELEMENT, TYPE=SPRINGA, ELSET=WK_177
    4930,     4327,     5495
*SPRING, ELSET=WK_177

3.915786e-01
*ELEMENT, TYPE=SPRINGA, ELSET=WK_178
    4931,     4329,     5496
*SPRING, ELSET=WK_178

3.915786e-01
*ELEMENT, TYPE=SPRINGA, ELSET=WK_179
    4932,     4331,     5497
*SPRING, ELSET=WK_179

3.915786e-01
*ELEMENT, TYPE=SPRINGA, ELSET=WK_180
    4933,     4333,     5498
*SPRING, ELSET=WK_180

3.915786e-01
*ELEMENT, TYPE=SPRINGA, ELSET=WK_181
    4934,     4335,     5499
*SPRING, ELSET=WK_181

3.915786e-01
*ELEMENT, TYPE=SPRINGA, ELSET=WK_182
    4935,     4337,     5500
*SPRING, ELSET=WK_182

3.915786e-01
*ELEMENT, TYPE=SPRINGA, ELSET=WK_183
    4936,     4339,     5501
*SPRING, ELSET=WK_183

3.915786e-01
*ELEMENT, TYPE=SPRINGA, ELSET=WK_184
    4937,     4341,     5502
*SPRING, ELSET=WK_184

3.915786e-01
*ELEMENT, TYPE=SPRINGA, ELSET=WK_185
    4938,     4343,     5503
*SPRING, ELSET=WK_185

3.915786e-01
*ELEMENT, TYPE=SPRINGA, ELSET=WK_186
    4939,     4345,     5504
*SPRING, ELSET=WK_186

3.915786e-01
*ELEMENT, TYPE=SPRINGA, ELSET=WK_187
    4940,     4347,     5505
*SPRING, ELSET=WK_187

3.915786e-01
*ELEMENT, TYPE=SPRINGA, ELSET=WK_188
    4941,     4349,     5506
*SPRING, ELSET=WK_188

3.915786e-01
*ELEMENT, TYPE=SPRINGA, ELSET=WK_189
    4942,     4351,     5507
*SPRING, ELSET=WK_189

3.915786e-01
*ELEMENT, TYPE=SPRINGA, ELSET=WK_190
    4943,     4353,     5508
*SPRING, ELSET=WK_190

3.915786e-01
*ELEMENT, TYPE=SPRINGA, ELSET=WK_191
    4944,     4355,     5509
*SPRING, ELSET=WK_191

3.915786e-01
*ELEMENT, TYPE=SPRINGA, ELSET=WK_192
    4945,     4357,     5510
*SPRING, ELSET=WK_192

3.915786e-01
*ELEMENT, TYPE=SPRINGA, ELSET=WK_193
    4946,     4359,     5511
*SPRING, ELSET=WK_193

3.915786e-01
*ELEMENT, TYPE=SPRINGA, ELSET=WK_194
    4947,     4361,     5512
*SPRING, ELSET=WK_194

3.915786e-01
*ELEMENT, TYPE=SPRINGA, ELSET=WK_195
    4948,     4363,     5513
*SPRING, ELSET=WK_195

3.915786e-01
*ELEMENT, TYPE=SPRINGA, ELSET=WK_196
    4949,     4365,     5514
*SPRING, ELSET=WK_196

3.915786e-01
*ELEMENT, TYPE=SPRINGA, ELSET=WK_197
    4950,     4367,     5515
*SPRING, ELSET=WK_197

3.915786e-01
*ELEMENT, TYPE=SPRINGA, ELSET=WK_198
    4951,     4369,     5516
*SPRING, ELSET=WK_198

3.915786e-01
*ELEMENT, TYPE=SPRINGA, ELSET=WK_199
    4952,     4371,     5517
*SPRING, ELSET=WK_199

3.915786e-01
*ELEMENT, TYPE=SPRINGA, ELSET=WK_200
    4953,     4373,     5518
*SPRING, ELSET=WK_200

3.915786e-01
*ELEMENT, TYPE=SPRINGA, ELSET=WK_201
    4954,     4375,     5519
*SPRING, ELSET=WK_201

3.915786e-01
*ELEMENT, TYPE=SPRINGA, ELSET=WK_202
    4955,     4377,     5520
*SPRING, ELSET=WK_202

3.915786e-01
*ELEMENT, TYPE=SPRINGA, ELSET=WK_203
    4956,     4379,     5521
*SPRING, ELSET=WK_203

1.957893e-01
*ELEMENT, TYPE=SPRINGA, ELSET=WK_204
    4957,     4381,     5522
*SPRING, ELSET=WK_204

1.957893e-01
*ELEMENT, TYPE=SPRINGA, ELSET=WK_205
    4958,     4383,     5523
*SPRING, ELSET=WK_205

1.957893e-01
*ELEMENT, TYPE=SPRINGA, ELSET=WK_206
    4959,     4385,     5524
*SPRING, ELSET=WK_206

1.957893e-01
*ELEMENT, TYPE=SPRINGA, ELSET=WK_207
    4960,     4387,     5525
*SPRING, ELSET=WK_207

1.957893e-01
*ELEMENT, TYPE=SPRINGA, ELSET=WK_208
    4961,     4389,     5526
*SPRING, ELSET=WK_208

1.957893e-01
*ELEMENT, TYPE=SPRINGA, ELSET=WK_209
    4962,     4391,     5527
*SPRING, ELSET=WK_209

1.957893e-01
*ELEMENT, TYPE=SPRINGA, ELSET=WK_210
    4963,     4393,     5528
*SPRING, ELSET=WK_210

1.957893e-01
*ELEMENT, TYPE=SPRINGA, ELSET=WK_211
    4964,     4395,     5529
*SPRING, ELSET=WK_211

1.957893e-01
*ELEMENT, TYPE=SPRINGA, ELSET=WK_212
    4965,     4397,     5530
*SPRING, ELSET=WK_212

1.957893e-01
*ELEMENT, TYPE=SPRINGA, ELSET=WK_213
    4966,     4399,     5531
*SPRING, ELSET=WK_213

1.957893e-01
*ELEMENT, TYPE=SPRINGA, ELSET=WK_214
    4967,     4401,     5532
*SPRING, ELSET=WK_214

3.915786e-01
*ELEMENT, TYPE=SPRINGA, ELSET=WK_215
    4968,     4403,     5533
*SPRING, ELSET=WK_215

3.915786e-01
*ELEMENT, TYPE=SPRINGA, ELSET=WK_216
    4969,     4405,     5534
*SPRING, ELSET=WK_216

3.915786e-01
*ELEMENT, TYPE=SPRINGA, ELSET=WK_217
    4970,     4407,     5535
*SPRING, ELSET=WK_217

3.915786e-01
*ELEMENT, TYPE=SPRINGA, ELSET=WK_218
    4971,     4409,     5536
*SPRING, ELSET=WK_218

3.915786e-01
*ELEMENT, TYPE=SPRINGA, ELSET=WK_219
    4972,     4411,     5537
*SPRING, ELSET=WK_219

3.915786e-01
*ELEMENT, TYPE=SPRINGA, ELSET=WK_220
    4973,     4413,     5538
*SPRING, ELSET=WK_220

3.915786e-01
*ELEMENT, TYPE=SPRINGA, ELSET=WK_221
    4974,     4415,     5539
*SPRING, ELSET=WK_221

3.915786e-01
*ELEMENT, TYPE=SPRINGA, ELSET=WK_222
    4975,     4417,     5540
*SPRING, ELSET=WK_222

3.915786e-01
*ELEMENT, TYPE=SPRINGA, ELSET=WK_223
    4976,     4419,     5541
*SPRING, ELSET=WK_223

3.915786e-01
*ELEMENT, TYPE=SPRINGA, ELSET=WK_224
    4977,     4421,     5542
*SPRING, ELSET=WK_224

3.915786e-01
*ELEMENT, TYPE=SPRINGA, ELSET=WK_225
    4978,     4423,     5543
*SPRING, ELSET=WK_225

3.915786e-01
*ELEMENT, TYPE=SPRINGA, ELSET=WK_226
    4979,     4425,     5544
*SPRING, ELSET=WK_226

3.915786e-01
*ELEMENT, TYPE=SPRINGA, ELSET=WK_227
    4980,     4427,     5545
*SPRING, ELSET=WK_227

3.915786e-01
*ELEMENT, TYPE=SPRINGA, ELSET=WK_228
    4981,     4429,     5546
*SPRING, ELSET=WK_228

3.915786e-01
*ELEMENT, TYPE=SPRINGA, ELSET=WK_229
    4982,     4431,     5547
*SPRING, ELSET=WK_229

3.915786e-01
*ELEMENT, TYPE=SPRINGA, ELSET=WK_230
    4983,     4433,     5548
*SPRING, ELSET=WK_230

3.915786e-01
*ELEMENT, TYPE=SPRINGA, ELSET=WK_231
    4984,     4435,     5549
*SPRING, ELSET=WK_231

3.915786e-01
*ELEMENT, TYPE=SPRINGA, ELSET=WK_232
    4985,     4437,     5550
*SPRING, ELSET=WK_232

3.915786e-01
*ELEMENT, TYPE=SPRINGA, ELSET=WK_233
    4986,     4439,     5551
*SPRING, ELSET=WK_233

3.915786e-01
*ELEMENT, TYPE=SPRINGA, ELSET=WK_234
    4987,     4441,     5552
*SPRING, ELSET=WK_234

3.915786e-01
*ELEMENT, TYPE=SPRINGA, ELSET=WK_235
    4988,     4443,     5553
*SPRING, ELSET=WK_235

3.915786e-01
*ELEMENT, TYPE=SPRINGA, ELSET=WK_236
    4989,     4445,     5554
*SPRING, ELSET=WK_236

3.915786e-01
*ELEMENT, TYPE=SPRINGA, ELSET=WK_237
    4990,     4447,     5555
*SPRING, ELSET=WK_237

3.915786e-01
*ELEMENT, TYPE=SPRINGA, ELSET=WK_238
    4991,     4449,     5556
*SPRING, ELSET=WK_238

3.915786e-01
*ELEMENT, TYPE=SPRINGA, ELSET=WK_239
    4992,     4451,     5557
*SPRING, ELSET=WK_239

3.915786e-01
*ELEMENT, TYPE=SPRINGA, ELSET=WK_240
    4993,     4453,     5558
*SPRING, ELSET=WK_240

3.915786e-01
*ELEMENT, TYPE=SPRINGA, ELSET=WK_241
    4994,     4455,     5559
*SPRING, ELSET=WK_241

3.915786e-01
*ELEMENT, TYPE=SPRINGA, ELSET=WK_242
    4995,     4457,     5560
*SPRING, ELSET=WK_242

3.915786e-01
*ELEMENT, TYPE=SPRINGA, ELSET=WK_243
    4996,     4459,     5561
*SPRING, ELSET=WK_243

3.915786e-01
*ELEMENT, TYPE=SPRINGA, ELSET=WK_244
    4997,     4461,     5562
*SPRING, ELSET=WK_244

3.915786e-01
*ELEMENT, TYPE=SPRINGA, ELSET=WK_245
    4998,     4463,     5563
*SPRING, ELSET=WK_245

3.915786e-01
*ELEMENT, TYPE=SPRINGA, ELSET=WK_246
    4999,     4465,     5564
*SPRING, ELSET=WK_246

3.915786e-01
*ELEMENT, TYPE=SPRINGA, ELSET=WK_247
    5000,     4467,     5565
*SPRING, ELSET=WK_247

3.915786e-01
*ELEMENT, TYPE=SPRINGA, ELSET=WK_248
    5001,     4469,     5566
*SPRING, ELSET=WK_248

3.915786e-01
*ELEMENT, TYPE=SPRINGA, ELSET=WK_249
    5002,     4471,     5567
*SPRING, ELSET=WK_249

3.915786e-01
*ELEMENT, TYPE=SPRINGA, ELSET=WK_250
    5003,     4473,     5568
*SPRING, ELSET=WK_250

3.915786e-01
*ELEMENT, TYPE=SPRINGA, ELSET=WK_251
    5004,     4475,     5569
*SPRING, ELSET=WK_251

3.915786e-01
*ELEMENT, TYPE=SPRINGA, ELSET=WK_252
    5005,     4477,     5570
*SPRING, ELSET=WK_252

3.915786e-01
*ELEMENT, TYPE=SPRINGA, ELSET=WK_253
    5006,     4479,     5571
*SPRING, ELSET=WK_253

3.915786e-01
*ELEMENT, TYPE=SPRINGA, ELSET=WK_254
    5007,     4481,     5572
*SPRING, ELSET=WK_254

3.915786e-01
*ELEMENT, TYPE=SPRINGA, ELSET=WK_255
    5008,     4483,     5573
*SPRING, ELSET=WK_255

3.915786e-01
*ELEMENT, TYPE=SPRINGA, ELSET=WK_256
    5009,     4485,     5574
*SPRING, ELSET=WK_256

3.915786e-01
*ELEMENT, TYPE=SPRINGA, ELSET=WK_257
    5010,     4487,     5575
*SPRING, ELSET=WK_257

3.915786e-01
*ELEMENT, TYPE=SPRINGA, ELSET=WK_258
    5011,     4489,     5576
*SPRING, ELSET=WK_258

3.915786e-01
*ELEMENT, TYPE=SPRINGA, ELSET=WK_259
    5012,     4491,     5577
*SPRING, ELSET=WK_259

1.957893e-01
*ELEMENT, TYPE=SPRINGA, ELSET=WK_260
    5013,     4493,     5578
*SPRING, ELSET=WK_260

1.957893e-01
*ELEMENT, TYPE=SPRINGA, ELSET=WK_261
    5014,     4495,     5579
*SPRING, ELSET=WK_261

1.957893e-01
*ELEMENT, TYPE=SPRINGA, ELSET=WK_262
    5015,     4497,     5580
*SPRING, ELSET=WK_262

1.957893e-01
*ELEMENT, TYPE=SPRINGA, ELSET=WK_263
    5016,     4499,     5581
*SPRING, ELSET=WK_263

1.957893e-01
*BOUNDARY
GHOST_WINKLER, 1, 3, 0
