** Malha C3D8I gerada por foam_polymesh_to_ccx_inp.py
** Origem: ../solid/constant/polyMesh
*NODE, NSET=NALL
       1,  6.79730840e-04, -2.90344168e-02,  7.50000000e-04
       2,  6.79730840e-04, -2.90344168e-02,  5.00000000e-04
       3,  6.79730840e-04, -2.90344168e-02,  2.50000000e-04
       4,  6.79730840e-04, -2.90344168e-02,  0.00000000e+00
       5,  6.79730840e-04, -2.90344168e-02, -2.50000000e-04
       6,  6.79730840e-04, -2.90344168e-02, -5.00000000e-04
       7,  6.79730840e-04, -2.90344168e-02, -7.50000000e-04
       8,  4.53153894e-04, -2.91400713e-02,  7.50000000e-04
       9,  4.53153894e-04, -2.91400713e-02,  5.00000000e-04
      10,  4.53153894e-04, -2.91400713e-02,  2.50000000e-04
      11,  4.53153894e-04, -2.91400713e-02,  0.00000000e+00
      12,  4.53153894e-04, -2.91400713e-02, -2.50000000e-04
      13,  4.53153894e-04, -2.91400713e-02, -5.00000000e-04
      14,  4.53153894e-04, -2.91400713e-02, -7.50000000e-04
      15,  2.26576947e-04, -2.92457259e-02,  7.50000000e-04
      16,  2.26576947e-04, -2.92457259e-02,  5.00000000e-04
      17,  2.26576947e-04, -2.92457259e-02,  2.50000000e-04
      18,  2.26576947e-04, -2.92457259e-02,  0.00000000e+00
      19,  2.26576947e-04, -2.92457259e-02, -2.50000000e-04
      20,  2.26576947e-04, -2.92457259e-02, -5.00000000e-04
      21,  2.26576947e-04, -2.92457259e-02, -7.50000000e-04
      22,  6.10414293e-18, -2.93513805e-02,  7.50000000e-04
      23,  6.10414293e-18, -2.93513805e-02,  5.00000000e-04
      24,  6.10414293e-18, -2.93513805e-02,  2.50000000e-04
      25,  6.10414293e-18, -2.93513805e-02,  0.00000000e+00
      26,  6.10414293e-18, -2.93513805e-02, -2.50000000e-04
      27,  6.10833545e-18, -2.93513805e-02, -5.00000000e-04
      28,  6.10414293e-18, -2.93513805e-02, -7.50000000e-04
      29, -2.26576947e-04, -2.94570350e-02,  7.50000000e-04
      30, -2.26576947e-04, -2.94570350e-02,  5.00000000e-04
      31, -2.26576947e-04, -2.94570350e-02,  2.50000000e-04
      32, -2.26576947e-04, -2.94570350e-02,  0.00000000e+00
      33, -2.26576947e-04, -2.94570350e-02, -2.50000000e-04
      34, -2.26576947e-04, -2.94570350e-02, -5.00000000e-04
      35, -2.26576947e-04, -2.94570350e-02, -7.50000000e-04
      36, -4.53153894e-04, -2.95626896e-02,  7.50000000e-04
      37, -4.53153894e-04, -2.95626896e-02,  5.00000000e-04
      38, -4.53153894e-04, -2.95626896e-02,  2.50000000e-04
      39, -4.53153894e-04, -2.95626896e-02,  0.00000000e+00
      40, -4.53153894e-04, -2.95626896e-02, -2.50000000e-04
      41, -4.53153894e-04, -2.95626896e-02, -5.00000000e-04
      42, -4.53153894e-04, -2.95626896e-02, -7.50000000e-04
      43, -6.79730840e-04, -2.96683442e-02,  7.50000000e-04
      44, -6.79730840e-04, -2.96683442e-02,  5.00000000e-04
      45, -6.79730840e-04, -2.96683442e-02,  2.50000000e-04
      46, -6.79730840e-04, -2.96683442e-02,  0.00000000e+00
      47, -6.79730840e-04, -2.96683442e-02, -2.50000000e-04
      48, -6.79730840e-04, -2.96683442e-02, -5.00000000e-04
      49, -6.79730840e-04, -2.96683442e-02, -7.50000000e-04
      50, -4.91719849e-04, -2.63381196e-02,  7.50000000e-04
      51, -4.91719849e-04, -2.63381196e-02,  5.00000000e-04
      52, -4.91719849e-04, -2.63381196e-02,  2.50000000e-04
      53, -4.91719849e-04, -2.63381196e-02,  0.00000000e+00
      54, -4.91719849e-04, -2.63381196e-02, -2.50000000e-04
      55, -4.91719849e-04, -2.63381196e-02, -5.00000000e-04
      56, -4.91719849e-04, -2.63381196e-02, -7.50000000e-04
      57, -7.25945098e-04, -2.64255183e-02,  7.50000000e-04
      58, -7.25945098e-04, -2.64255183e-02,  5.00000000e-04
      59, -7.25945098e-04, -2.64255183e-02,  2.50000000e-04
      60, -7.25945098e-04, -2.64255183e-02,  0.00000000e+00
      61, -7.25945098e-04, -2.64255183e-02, -2.50000000e-04
      62, -7.25945098e-04, -2.64255183e-02, -5.00000000e-04
      63, -7.25945098e-04, -2.64255183e-02, -7.50000000e-04
      64, -9.60170347e-04, -2.65129170e-02,  7.50000000e-04
      65, -9.60170347e-04, -2.65129170e-02,  5.00000000e-04
      66, -9.60170347e-04, -2.65129170e-02,  2.50000000e-04
      67, -9.60170347e-04, -2.65129170e-02,  0.00000000e+00
      68, -9.60170347e-04, -2.65129170e-02, -2.50000000e-04
      69, -9.60170347e-04, -2.65129170e-02, -5.00000000e-04
      70, -9.60170347e-04, -2.65129170e-02, -7.50000000e-04
      71, -1.19439560e-03, -2.66003157e-02,  7.50000000e-04
      72, -1.19439560e-03, -2.66003157e-02,  5.00000000e-04
      73, -1.19439560e-03, -2.66003157e-02,  2.50000000e-04
      74, -1.19439560e-03, -2.66003157e-02,  0.00000000e+00
      75, -1.19439560e-03, -2.66003157e-02, -2.50000000e-04
      76, -1.19439560e-03, -2.66003157e-02, -5.00000000e-04
      77, -1.19439560e-03, -2.66003157e-02, -7.50000000e-04
      78, -1.42862084e-03, -2.66877144e-02,  7.50000000e-04
      79, -1.42862084e-03, -2.66877144e-02,  5.00000000e-04
      80, -1.42862084e-03, -2.66877144e-02,  2.50000000e-04
      81, -1.42862084e-03, -2.66877144e-02,  0.00000000e+00
      82, -1.42862084e-03, -2.66877144e-02, -2.50000000e-04
      83, -1.42862084e-03, -2.66877144e-02, -5.00000000e-04
      84, -1.42862084e-03, -2.66877144e-02, -7.50000000e-04
      85, -1.66284609e-03, -2.67751131e-02,  7.50000000e-04
      86, -1.66284609e-03, -2.67751131e-02,  5.00000000e-04
      87, -1.66284609e-03, -2.67751131e-02,  2.50000000e-04
      88, -1.66284609e-03, -2.67751131e-02,  0.00000000e+00
      89, -1.66284609e-03, -2.67751131e-02, -2.50000000e-04
      90, -1.66284609e-03, -2.67751131e-02, -5.00000000e-04
      91, -1.66284609e-03, -2.67751131e-02, -7.50000000e-04
      92, -1.89707134e-03, -2.68625117e-02,  7.50000000e-04
      93, -1.89707134e-03, -2.68625117e-02,  5.00000000e-04
      94, -1.89707134e-03, -2.68625117e-02,  2.50000000e-04
      95, -1.89707134e-03, -2.68625117e-02,  0.00000000e+00
      96, -1.89707134e-03, -2.68625117e-02, -2.50000000e-04
      97, -1.89707134e-03, -2.68625117e-02, -5.00000000e-04
      98, -1.89707134e-03, -2.68625117e-02, -7.50000000e-04
      99, -1.22511619e-03, -2.35963877e-02,  7.50000000e-04
     100, -1.22511619e-03, -2.35963877e-02,  5.00000000e-04
     101, -1.22511619e-03, -2.35963877e-02,  2.50000000e-04
     102, -1.22511619e-03, -2.35963877e-02,  0.00000000e+00
     103, -1.22511619e-03, -2.35963877e-02, -2.50000000e-04
     104, -1.22511619e-03, -2.35963877e-02, -5.00000000e-04
     105, -1.22511619e-03, -2.35963877e-02, -7.50000000e-04
     106, -1.47237194e-03, -2.36333281e-02,  7.50000000e-04
     107, -1.47237194e-03, -2.36333281e-02,  5.00000000e-04
     108, -1.47237194e-03, -2.36333281e-02,  2.50000000e-04
     109, -1.47237194e-03, -2.36333281e-02,  0.00000000e+00
     110, -1.47237194e-03, -2.36333281e-02, -2.50000000e-04
     111, -1.47237194e-03, -2.36333281e-02, -5.00000000e-04
     112, -1.47237194e-03, -2.36333281e-02, -7.50000000e-04
     113, -1.71962769e-03, -2.36702685e-02,  7.50000000e-04
     114, -1.71962769e-03, -2.36702685e-02,  5.00000000e-04
     115, -1.71962769e-03, -2.36702685e-02,  2.50000000e-04
     116, -1.71962769e-03, -2.36702685e-02,  0.00000000e+00
     117, -1.71962769e-03, -2.36702685e-02, -2.50000000e-04
     118, -1.71962769e-03, -2.36702685e-02, -5.00000000e-04
     119, -1.71962769e-03, -2.36702685e-02, -7.50000000e-04
     120, -1.96688344e-03, -2.37072089e-02,  7.50000000e-04
     121, -1.96688344e-03, -2.37072089e-02,  5.00000000e-04
     122, -1.96688344e-03, -2.37072089e-02,  2.50000000e-04
     123, -1.96688344e-03, -2.37072089e-02,  0.00000000e+00
     124, -1.96688344e-03, -2.37072089e-02, -2.50000000e-04
     125, -1.96688344e-03, -2.37072089e-02, -5.00000000e-04
     126, -1.96688344e-03, -2.37072089e-02, -7.50000000e-04
     127, -2.21413919e-03, -2.37441493e-02,  7.50000000e-04
     128, -2.21413919e-03, -2.37441493e-02,  5.00000000e-04
     129, -2.21413919e-03, -2.37441493e-02,  2.50000000e-04
     130, -2.21413919e-03, -2.37441493e-02,  0.00000000e+00
     131, -2.21413919e-03, -2.37441493e-02, -2.50000000e-04
     132, -2.21413919e-03, -2.37441493e-02, -5.00000000e-04
     133, -2.21413919e-03, -2.37441493e-02, -7.50000000e-04
     134, -2.46139494e-03, -2.37810897e-02,  7.50000000e-04
     135, -2.46139494e-03, -2.37810897e-02,  5.00000000e-04
     136, -2.46139494e-03, -2.37810897e-02,  2.50000000e-04
     137, -2.46139494e-03, -2.37810897e-02,  0.00000000e+00
     138, -2.46139494e-03, -2.37810897e-02, -2.50000000e-04
     139, -2.46139494e-03, -2.37810897e-02, -5.00000000e-04
     140, -2.46139494e-03, -2.37810897e-02, -7.50000000e-04
     141, -2.70865069e-03, -2.38180301e-02,  7.50000000e-04
     142, -2.70865069e-03, -2.38180301e-02,  5.00000000e-04
     143, -2.70865069e-03, -2.38180301e-02,  2.50000000e-04
     144, -2.70865069e-03, -2.38180301e-02,  0.00000000e+00
     145, -2.70865069e-03, -2.38180301e-02, -2.50000000e-04
     146, -2.70865069e-03, -2.38180301e-02, -5.00000000e-04
     147, -2.70865069e-03, -2.38180301e-02, -7.50000000e-04
     148, -1.27419131e-03, -2.08019799e-02,  7.50000000e-04
     149, -1.27419131e-03, -2.08019799e-02,  5.00000000e-04
     150, -1.27419131e-03, -2.08019799e-02,  2.50000000e-04
     151, -1.27419131e-03, -2.08019799e-02,  0.00000000e+00
     152, -1.27419131e-03, -2.08019799e-02, -2.50000000e-04
     153, -1.27419131e-03, -2.08019799e-02, -5.00000000e-04
     154, -1.27419131e-03, -2.08019799e-02, -7.50000000e-04
     155, -1.52255820e-03, -2.07734513e-02,  7.50000000e-04
     156, -1.52255820e-03, -2.07734513e-02,  5.00000000e-04
     157, -1.52255820e-03, -2.07734513e-02,  2.50000000e-04
     158, -1.52255820e-03, -2.07734513e-02,  0.00000000e+00
     159, -1.52255820e-03, -2.07734513e-02, -2.50000000e-04
     160, -1.52255820e-03, -2.07734513e-02, -5.00000000e-04
     161, -1.52255820e-03, -2.07734513e-02, -7.50000000e-04
     162, -1.77092510e-03, -2.07449228e-02,  7.50000000e-04
     163, -1.77092510e-03, -2.07449228e-02,  5.00000000e-04
     164, -1.77092510e-03, -2.07449228e-02,  2.50000000e-04
     165, -1.77092510e-03, -2.07449228e-02,  0.00000000e+00
     166, -1.77092510e-03, -2.07449228e-02, -2.50000000e-04
     167, -1.77092510e-03, -2.07449228e-02, -5.00000000e-04
     168, -1.77092510e-03, -2.07449228e-02, -7.50000000e-04
     169, -2.01929199e-03, -2.07163942e-02,  7.50000000e-04
     170, -2.01929199e-03, -2.07163942e-02,  5.00000000e-04
     171, -2.01929199e-03, -2.07163942e-02,  2.50000000e-04
     172, -2.01929199e-03, -2.07163942e-02,  0.00000000e+00
     173, -2.01929199e-03, -2.07163942e-02, -2.50000000e-04
     174, -2.01929199e-03, -2.07163942e-02, -5.00000000e-04
     175, -2.01929199e-03, -2.07163942e-02, -7.50000000e-04
     176, -2.26765889e-03, -2.06878656e-02,  7.50000000e-04
     177, -2.26765889e-03, -2.06878656e-02,  5.00000000e-04
     178, -2.26765889e-03, -2.06878656e-02,  2.50000000e-04
     179, -2.26765889e-03, -2.06878656e-02,  0.00000000e+00
     180, -2.26765889e-03, -2.06878656e-02, -2.50000000e-04
     181, -2.26765889e-03, -2.06878656e-02, -5.00000000e-04
     182, -2.26765889e-03, -2.06878656e-02, -7.50000000e-04
     183, -2.51602578e-03, -2.06593371e-02,  7.50000000e-04
     184, -2.51602578e-03, -2.06593371e-02,  5.00000000e-04
     185, -2.51602578e-03, -2.06593371e-02,  2.50000000e-04
     186, -2.51602578e-03, -2.06593371e-02,  0.00000000e+00
     187, -2.51602578e-03, -2.06593371e-02, -2.50000000e-04
     188, -2.51602578e-03, -2.06593371e-02, -5.00000000e-04
     189, -2.51602578e-03, -2.06593371e-02, -7.50000000e-04
     190, -2.76439268e-03, -2.06308085e-02,  7.50000000e-04
     191, -2.76439268e-03, -2.06308085e-02,  5.00000000e-04
     192, -2.76439268e-03, -2.06308085e-02,  2.50000000e-04
     193, -2.76439268e-03, -2.06308085e-02,  0.00000000e+00
     194, -2.76439268e-03, -2.06308085e-02, -2.50000000e-04
     195, -2.76439268e-03, -2.06308085e-02, -5.00000000e-04
     196, -2.76439268e-03, -2.06308085e-02, -7.50000000e-04
     197, -6.22064188e-04, -1.80499153e-02,  7.50000000e-04
     198, -6.22064188e-04, -1.80499153e-02,  5.00000000e-04
     199, -6.22064188e-04, -1.80499153e-02,  2.50000000e-04
     200, -6.22064188e-04, -1.80499153e-02,  0.00000000e+00
     201, -6.22064188e-04, -1.80499153e-02, -2.50000000e-04
     202, -6.22064188e-04, -1.80499153e-02, -5.00000000e-04
     203, -6.22064188e-04, -1.80499153e-02, -7.50000000e-04
     204, -8.58124162e-04, -1.79676008e-02,  7.50000000e-04
     205, -8.58124162e-04, -1.79676008e-02,  5.00000000e-04
     206, -8.58124162e-04, -1.79676008e-02,  2.50000000e-04
     207, -8.58124162e-04, -1.79676008e-02,  0.00000000e+00
     208, -8.58124162e-04, -1.79676008e-02, -2.50000000e-04
     209, -8.58124162e-04, -1.79676008e-02, -5.00000000e-04
     210, -8.58124162e-04, -1.79676008e-02, -7.50000000e-04
     211, -1.09418414e-03, -1.78852862e-02,  7.50000000e-04
     212, -1.09418414e-03, -1.78852862e-02,  5.00000000e-04
     213, -1.09418414e-03, -1.78852862e-02,  2.50000000e-04
     214, -1.09418414e-03, -1.78852862e-02,  0.00000000e+00
     215, -1.09418414e-03, -1.78852862e-02, -2.50000000e-04
     216, -1.09418414e-03, -1.78852862e-02, -5.00000000e-04
     217, -1.09418414e-03, -1.78852862e-02, -7.50000000e-04
     218, -1.33024411e-03, -1.78029716e-02,  7.50000000e-04
     219, -1.33024411e-03, -1.78029716e-02,  5.00000000e-04
     220, -1.33024411e-03, -1.78029716e-02,  2.50000000e-04
     221, -1.33024411e-03, -1.78029716e-02,  0.00000000e+00
     222, -1.33024411e-03, -1.78029716e-02, -2.50000000e-04
     223, -1.33024411e-03, -1.78029716e-02, -5.00000000e-04
     224, -1.33024411e-03, -1.78029716e-02, -7.50000000e-04
     225, -1.56630408e-03, -1.77206570e-02,  7.50000000e-04
     226, -1.56630408e-03, -1.77206570e-02,  5.00000000e-04
     227, -1.56630408e-03, -1.77206570e-02,  2.50000000e-04
     228, -1.56630408e-03, -1.77206570e-02,  0.00000000e+00
     229, -1.56630408e-03, -1.77206570e-02, -2.50000000e-04
     230, -1.56630408e-03, -1.77206570e-02, -5.00000000e-04
     231, -1.56630408e-03, -1.77206570e-02, -7.50000000e-04
     232, -1.80236406e-03, -1.76383425e-02,  7.50000000e-04
     233, -1.80236406e-03, -1.76383425e-02,  5.00000000e-04
     234, -1.80236406e-03, -1.76383425e-02,  2.50000000e-04
     235, -1.80236406e-03, -1.76383425e-02,  0.00000000e+00
     236, -1.80236406e-03, -1.76383425e-02, -2.50000000e-04
     237, -1.80236406e-03, -1.76383425e-02, -5.00000000e-04
     238, -1.80236406e-03, -1.76383425e-02, -7.50000000e-04
     239, -2.03842403e-03, -1.75560279e-02,  7.50000000e-04
     240, -2.03842403e-03, -1.75560279e-02,  5.00000000e-04
     241, -2.03842403e-03, -1.75560279e-02,  2.50000000e-04
     242, -2.03842403e-03, -1.75560279e-02,  0.00000000e+00
     243, -2.03842403e-03, -1.75560279e-02, -2.50000000e-04
     244, -2.03842403e-03, -1.75560279e-02, -5.00000000e-04
     245, -2.03842403e-03, -1.75560279e-02, -7.50000000e-04
     246,  5.11318647e-04, -1.53542715e-02,  7.50000000e-04
     247,  5.11318647e-04, -1.53542715e-02,  5.00000000e-04
     248,  5.11318647e-04, -1.53542715e-02,  2.50000000e-04
     249,  5.11318647e-04, -1.53542715e-02,  0.00000000e+00
     250,  5.11318647e-04, -1.53542715e-02, -2.50000000e-04
     251,  5.11318647e-04, -1.53542715e-02, -5.00000000e-04
     252,  5.11318647e-04, -1.53542715e-02, -7.50000000e-04
     253,  2.84588529e-04, -1.52489461e-02,  7.50000000e-04
     254,  2.84588529e-04, -1.52489461e-02,  5.00000000e-04
     255,  2.84588529e-04, -1.52489461e-02,  2.50000000e-04
     256,  2.84588529e-04, -1.52489461e-02,  0.00000000e+00
     257,  2.84588529e-04, -1.52489461e-02, -2.50000000e-04
     258,  2.84588529e-04, -1.52489461e-02, -5.00000000e-04
     259,  2.84588529e-04, -1.52489461e-02, -7.50000000e-04
     260,  5.78584120e-05, -1.51436206e-02,  7.50000000e-04
     261,  5.78584120e-05, -1.51436206e-02,  5.00000000e-04
     262,  5.78584120e-05, -1.51436206e-02,  2.50000000e-04
     263,  5.78584120e-05, -1.51436206e-02,  0.00000000e+00
     264,  5.78584120e-05, -1.51436206e-02, -2.50000000e-04
     265,  5.78584120e-05, -1.51436206e-02, -5.00000000e-04
     266,  5.78584120e-05, -1.51436206e-02, -7.50000000e-04
     267, -1.68871705e-04, -1.50382951e-02,  7.50000000e-04
     268, -1.68871705e-04, -1.50382951e-02,  5.00000000e-04
     269, -1.68871705e-04, -1.50382951e-02,  2.50000000e-04
     270, -1.68871705e-04, -1.50382951e-02,  0.00000000e+00
     271, -1.68871705e-04, -1.50382951e-02, -2.50000000e-04
     272, -1.68871705e-04, -1.50382951e-02, -5.00000000e-04
     273, -1.68871705e-04, -1.50382951e-02, -7.50000000e-04
     274, -3.95601823e-04, -1.49329697e-02,  7.50000000e-04
     275, -3.95601823e-04, -1.49329697e-02,  5.00000000e-04
     276, -3.95601823e-04, -1.49329697e-02,  2.50000000e-04
     277, -3.95601823e-04, -1.49329697e-02,  0.00000000e+00
     278, -3.95601823e-04, -1.49329697e-02, -2.50000000e-04
     279, -3.95601823e-04, -1.49329697e-02, -5.00000000e-04
     280, -3.95601823e-04, -1.49329697e-02, -7.50000000e-04
     281, -6.22331940e-04, -1.48276442e-02,  7.50000000e-04
     282, -6.22331940e-04, -1.48276442e-02,  5.00000000e-04
     283, -6.22331940e-04, -1.48276442e-02,  2.50000000e-04
     284, -6.22331940e-04, -1.48276442e-02,  0.00000000e+00
     285, -6.22331940e-04, -1.48276442e-02, -2.50000000e-04
     286, -6.22331940e-04, -1.48276442e-02, -5.00000000e-04
     287, -6.22331940e-04, -1.48276442e-02, -7.50000000e-04
     288, -8.49062057e-04, -1.47223187e-02,  7.50000000e-04
     289, -8.49062057e-04, -1.47223187e-02,  5.00000000e-04
     290, -8.49062057e-04, -1.47223187e-02,  2.50000000e-04
     291, -8.49062057e-04, -1.47223187e-02,  0.00000000e+00
     292, -8.49062057e-04, -1.47223187e-02, -2.50000000e-04
     293, -8.49062057e-04, -1.47223187e-02, -5.00000000e-04
     294, -8.49062057e-04, -1.47223187e-02, -7.50000000e-04
     295,  1.74838496e-03, -1.25736571e-02,  7.50000000e-04
     296,  1.74838496e-03, -1.25736571e-02,  5.00000000e-04
     297,  1.74838496e-03, -1.25736571e-02,  2.50000000e-04
     298,  1.74838496e-03, -1.25736571e-02,  0.00000000e+00
     299,  1.74838496e-03, -1.25736571e-02, -2.50000000e-04
     300,  1.74838496e-03, -1.25736571e-02, -5.00000000e-04
     301,  1.74838496e-03, -1.25736571e-02, -7.50000000e-04
     302,  1.51588488e-03, -1.24817675e-02,  7.50000000e-04
     303,  1.51588488e-03, -1.24817675e-02,  5.00000000e-04
     304,  1.51588488e-03, -1.24817675e-02,  2.50000000e-04
     305,  1.51588488e-03, -1.24817675e-02,  0.00000000e+00
     306,  1.51588488e-03, -1.24817675e-02, -2.50000000e-04
     307,  1.51588488e-03, -1.24817675e-02, -5.00000000e-04
     308,  1.51588488e-03, -1.24817675e-02, -7.50000000e-04
     309,  1.28338480e-03, -1.23898778e-02,  7.50000000e-04
     310,  1.28338480e-03, -1.23898778e-02,  5.00000000e-04
     311,  1.28338480e-03, -1.23898778e-02,  2.50000000e-04
     312,  1.28338480e-03, -1.23898778e-02,  0.00000000e+00
     313,  1.28338480e-03, -1.23898778e-02, -2.50000000e-04
     314,  1.28338480e-03, -1.23898778e-02, -5.00000000e-04
     315,  1.28338480e-03, -1.23898778e-02, -7.50000000e-04
     316,  1.05088472e-03, -1.22979881e-02,  7.50000000e-04
     317,  1.05088472e-03, -1.22979881e-02,  5.00000000e-04
     318,  1.05088472e-03, -1.22979881e-02,  2.50000000e-04
     319,  1.05088472e-03, -1.22979881e-02,  0.00000000e+00
     320,  1.05088472e-03, -1.22979881e-02, -2.50000000e-04
     321,  1.05088472e-03, -1.22979881e-02, -5.00000000e-04
     322,  1.05088472e-03, -1.22979881e-02, -7.50000000e-04
     323,  8.18384634e-04, -1.22060984e-02,  7.50000000e-04
     324,  8.18384634e-04, -1.22060984e-02,  5.00000000e-04
     325,  8.18384634e-04, -1.22060984e-02,  2.50000000e-04
     326,  8.18384634e-04, -1.22060984e-02,  0.00000000e+00
     327,  8.18384634e-04, -1.22060984e-02, -2.50000000e-04
     328,  8.18384634e-04, -1.22060984e-02, -5.00000000e-04
     329,  8.18384634e-04, -1.22060984e-02, -7.50000000e-04
     330,  5.85884552e-04, -1.21142088e-02,  7.50000000e-04
     331,  5.85884552e-04, -1.21142088e-02,  5.00000000e-04
     332,  5.85884552e-04, -1.21142088e-02,  2.50000000e-04
     333,  5.85884552e-04, -1.21142088e-02,  0.00000000e+00
     334,  5.85884552e-04, -1.21142088e-02, -2.50000000e-04
     335,  5.85884552e-04, -1.21142088e-02, -5.00000000e-04
     336,  5.85884552e-04, -1.21142088e-02, -7.50000000e-04
     337,  3.53384471e-04, -1.20223191e-02,  7.50000000e-04
     338,  3.53384471e-04, -1.20223191e-02,  5.00000000e-04
     339,  3.53384471e-04, -1.20223191e-02,  2.50000000e-04
     340,  3.53384471e-04, -1.20223191e-02,  0.00000000e+00
     341,  3.53384471e-04, -1.20223191e-02, -2.50000000e-04
     342,  3.53384471e-04, -1.20223191e-02, -5.00000000e-04
     343,  3.53384471e-04, -1.20223191e-02, -7.50000000e-04
     344,  2.63894807e-03, -9.56127738e-03,  7.50000000e-04
     345,  2.63894807e-03, -9.56127738e-03,  5.00000000e-04
     346,  2.63894807e-03, -9.56127738e-03,  2.50000000e-04
     347,  2.63894807e-03, -9.56127738e-03,  0.00000000e+00
     348,  2.63894807e-03, -9.56127738e-03, -2.50000000e-04
     349,  2.63894807e-03, -9.56127738e-03, -5.00000000e-04
     350,  2.63894807e-03, -9.56127738e-03, -7.50000000e-04
     351,  2.39304370e-03, -9.51621037e-03,  7.50000000e-04
     352,  2.39304370e-03, -9.51621037e-03,  5.00000000e-04
     353,  2.39304370e-03, -9.51621037e-03,  2.50000000e-04
     354,  2.39304370e-03, -9.51621037e-03,  0.00000000e+00
     355,  2.39304370e-03, -9.51621037e-03, -2.50000000e-04
     356,  2.39304370e-03, -9.51621037e-03, -5.00000000e-04
     357,  2.39304370e-03, -9.51621037e-03, -7.50000000e-04
     358,  2.14713933e-03, -9.47114337e-03,  7.50000000e-04
     359,  2.14713933e-03, -9.47114337e-03,  5.00000000e-04
     360,  2.14713933e-03, -9.47114337e-03,  2.50000000e-04
     361,  2.14713933e-03, -9.47114337e-03,  0.00000000e+00
     362,  2.14713933e-03, -9.47114337e-03, -2.50000000e-04
     363,  2.14713933e-03, -9.47114337e-03, -5.00000000e-04
     364,  2.14713933e-03, -9.47114337e-03, -7.50000000e-04
     365,  1.90123496e-03, -9.42607636e-03,  7.50000000e-04
     366,  1.90123496e-03, -9.42607636e-03,  5.00000000e-04
     367,  1.90123496e-03, -9.42607636e-03,  2.50000000e-04
     368,  1.90123496e-03, -9.42607636e-03,  0.00000000e+00
     369,  1.90123496e-03, -9.42607636e-03, -2.50000000e-04
     370,  1.90123496e-03, -9.42607636e-03, -5.00000000e-04
     371,  1.90123496e-03, -9.42607636e-03, -7.50000000e-04
     372,  1.65533059e-03, -9.38100936e-03,  7.50000000e-04
     373,  1.65533059e-03, -9.38100936e-03,  5.00000000e-04
     374,  1.65533059e-03, -9.38100936e-03,  2.50000000e-04
     375,  1.65533059e-03, -9.38100936e-03,  0.00000000e+00
     376,  1.65533059e-03, -9.38100936e-03, -2.50000000e-04
     377,  1.65533059e-03, -9.38100936e-03, -5.00000000e-04
     378,  1.65533059e-03, -9.38100936e-03, -7.50000000e-04
     379,  1.40942622e-03, -9.33594235e-03,  7.50000000e-04
     380,  1.40942622e-03, -9.33594235e-03,  5.00000000e-04
     381,  1.40942622e-03, -9.33594235e-03,  2.50000000e-04
     382,  1.40942622e-03, -9.33594235e-03,  0.00000000e+00
     383,  1.40942622e-03, -9.33594235e-03, -2.50000000e-04
     384,  1.40942622e-03, -9.33594235e-03, -5.00000000e-04
     385,  1.40942622e-03, -9.33594235e-03, -7.50000000e-04
     386,  1.16352185e-03, -9.29087534e-03,  7.50000000e-04
     387,  1.16352185e-03, -9.29087534e-03,  5.00000000e-04
     388,  1.16352185e-03, -9.29087534e-03,  2.50000000e-04
     389,  1.16352185e-03, -9.29087534e-03,  0.00000000e+00
     390,  1.16352185e-03, -9.29087534e-03, -2.50000000e-04
     391,  1.16352185e-03, -9.29087534e-03, -5.00000000e-04
     392,  1.16352185e-03, -9.29087534e-03, -7.50000000e-04
     393,  2.80567747e-03, -6.37911839e-03,  7.50000000e-04
     394,  2.80567747e-03, -6.37911839e-03,  5.00000000e-04
     395,  2.80567747e-03, -6.37911839e-03,  2.50000000e-04
     396,  2.80567747e-03, -6.37911839e-03,  0.00000000e+00
     397,  2.80567747e-03, -6.37911839e-03, -2.50000000e-04
     398,  2.80567747e-03, -6.37911839e-03, -5.00000000e-04
     399,  2.80567747e-03, -6.37911839e-03, -7.50000000e-04
     400,  2.55647030e-03, -6.39901261e-03,  7.50000000e-04
     401,  2.55647030e-03, -6.39901261e-03,  5.00000000e-04
     402,  2.55647030e-03, -6.39901261e-03,  2.50000000e-04
     403,  2.55647030e-03, -6.39901261e-03,  0.00000000e+00
     404,  2.55647030e-03, -6.39901261e-03, -2.50000000e-04
     405,  2.55647030e-03, -6.39901261e-03, -5.00000000e-04
     406,  2.55647030e-03, -6.39901261e-03, -7.50000000e-04
     407,  2.30726312e-03, -6.41890683e-03,  7.50000000e-04
     408,  2.30726312e-03, -6.41890683e-03,  5.00000000e-04
     409,  2.30726312e-03, -6.41890683e-03,  2.50000000e-04
     410,  2.30726312e-03, -6.41890683e-03,  0.00000000e+00
     411,  2.30726312e-03, -6.41890683e-03, -2.50000000e-04
     412,  2.30726312e-03, -6.41890683e-03, -5.00000000e-04
     413,  2.30726312e-03, -6.41890683e-03, -7.50000000e-04
     414,  2.05805594e-03, -6.43880105e-03,  7.50000000e-04
     415,  2.05805594e-03, -6.43880105e-03,  5.00000000e-04
     416,  2.05805594e-03, -6.43880105e-03,  2.50000000e-04
     417,  2.05805594e-03, -6.43880105e-03,  0.00000000e+00
     418,  2.05805594e-03, -6.43880105e-03, -2.50000000e-04
     419,  2.05805594e-03, -6.43880105e-03, -5.00000000e-04
     420,  2.05805594e-03, -6.43880105e-03, -7.50000000e-04
     421,  1.80884876e-03, -6.45869527e-03,  7.50000000e-04
     422,  1.80884876e-03, -6.45869527e-03,  5.00000000e-04
     423,  1.80884876e-03, -6.45869527e-03,  2.50000000e-04
     424,  1.80884876e-03, -6.45869527e-03,  0.00000000e+00
     425,  1.80884876e-03, -6.45869527e-03, -2.50000000e-04
     426,  1.80884876e-03, -6.45869527e-03, -5.00000000e-04
     427,  1.80884876e-03, -6.45869527e-03, -7.50000000e-04
     428,  1.55964159e-03, -6.47858948e-03,  7.50000000e-04
     429,  1.55964159e-03, -6.47858948e-03,  5.00000000e-04
     430,  1.55964159e-03, -6.47858948e-03,  2.50000000e-04
     431,  1.55964159e-03, -6.47858948e-03,  0.00000000e+00
     432,  1.55964159e-03, -6.47858948e-03, -2.50000000e-04
     433,  1.55964159e-03, -6.47858948e-03, -5.00000000e-04
     434,  1.55964159e-03, -6.47858948e-03, -7.50000000e-04
     435,  1.31043441e-03, -6.49848370e-03,  7.50000000e-04
     436,  1.31043441e-03, -6.49848370e-03,  5.00000000e-04
     437,  1.31043441e-03, -6.49848370e-03,  2.50000000e-04
     438,  1.31043441e-03, -6.49848370e-03,  0.00000000e+00
     439,  1.31043441e-03, -6.49848370e-03, -2.50000000e-04
     440,  1.31043441e-03, -6.49848370e-03, -5.00000000e-04
     441,  1.31043441e-03, -6.49848370e-03, -7.50000000e-04
     442,  2.17136661e-03, -3.27650706e-03,  7.50000000e-04
     443,  2.17136661e-03, -3.27650706e-03,  5.00000000e-04
     444,  2.17136661e-03, -3.27650706e-03,  2.50000000e-04
     445,  2.17136661e-03, -3.27650706e-03,  0.00000000e+00
     446,  2.17136661e-03, -3.27650706e-03, -2.50000000e-04
     447,  2.17136661e-03, -3.27650706e-03, -5.00000000e-04
     448,  2.17136661e-03, -3.27650706e-03, -7.50000000e-04
     449,  1.93341048e-03, -3.35316787e-03,  7.50000000e-04
     450,  1.93341048e-03, -3.35316787e-03,  5.00000000e-04
     451,  1.93341048e-03, -3.35316787e-03,  2.50000000e-04
     452,  1.93341048e-03, -3.35316787e-03,  0.00000000e+00
     453,  1.93341048e-03, -3.35316787e-03, -2.50000000e-04
     454,  1.93341048e-03, -3.35316787e-03, -5.00000000e-04
     455,  1.93341048e-03, -3.35316787e-03, -7.50000000e-04
     456,  1.69545436e-03, -3.42982868e-03,  7.50000000e-04
     457,  1.69545436e-03, -3.42982868e-03,  5.00000000e-04
     458,  1.69545436e-03, -3.42982868e-03,  2.50000000e-04
     459,  1.69545436e-03, -3.42982868e-03,  0.00000000e+00
     460,  1.69545436e-03, -3.42982868e-03, -2.50000000e-04
     461,  1.69545436e-03, -3.42982868e-03, -5.00000000e-04
     462,  1.69545436e-03, -3.42982868e-03, -7.50000000e-04
     463,  1.45749824e-03, -3.50648949e-03,  7.50000000e-04
     464,  1.45749824e-03, -3.50648949e-03,  5.00000000e-04
     465,  1.45749824e-03, -3.50648949e-03,  2.50000000e-04
     466,  1.45749824e-03, -3.50648949e-03,  0.00000000e+00
     467,  1.45749824e-03, -3.50648949e-03, -2.50000000e-04
     468,  1.45749824e-03, -3.50648949e-03, -5.00000000e-04
     469,  1.45749824e-03, -3.50648949e-03, -7.50000000e-04
     470,  1.21954211e-03, -3.58315030e-03,  7.50000000e-04
     471,  1.21954211e-03, -3.58315030e-03,  5.00000000e-04
     472,  1.21954211e-03, -3.58315030e-03,  2.50000000e-04
     473,  1.21954211e-03, -3.58315030e-03,  0.00000000e+00
     474,  1.21954211e-03, -3.58315030e-03, -2.50000000e-04
     475,  1.21954211e-03, -3.58315030e-03, -5.00000000e-04
     476,  1.21954211e-03, -3.58315030e-03, -7.50000000e-04
     477,  9.81585992e-04, -3.65981112e-03,  7.50000000e-04
     478,  9.81585992e-04, -3.65981112e-03,  5.00000000e-04
     479,  9.81585992e-04, -3.65981112e-03,  2.50000000e-04
     480,  9.81585992e-04, -3.65981112e-03,  0.00000000e+00
     481,  9.81585992e-04, -3.65981112e-03, -2.50000000e-04
     482,  9.81585992e-04, -3.65981112e-03, -5.00000000e-04
     483,  9.81585992e-04, -3.65981112e-03, -7.50000000e-04
     484,  7.43629868e-04, -3.73647193e-03,  7.50000000e-04
     485,  7.43629868e-04, -3.73647193e-03,  5.00000000e-04
     486,  7.43629868e-04, -3.73647193e-03,  2.50000000e-04
     487,  7.43629868e-04, -3.73647193e-03,  0.00000000e+00
     488,  7.43629868e-04, -3.73647193e-03, -2.50000000e-04
     489,  7.43629868e-04, -3.73647193e-03, -5.00000000e-04
     490,  7.43629868e-04, -3.73647193e-03, -7.50000000e-04
     491,  1.01824801e-03, -4.12680395e-04,  7.50000000e-04
     492,  1.01824801e-03, -4.12680395e-04,  5.00000000e-04
     493,  1.01824801e-03, -4.12680395e-04,  2.50000000e-04
     494,  1.01824801e-03, -4.12680395e-04,  0.00000000e+00
     495,  1.01824801e-03, -4.12680395e-04, -2.50000000e-04
     496,  1.01824801e-03, -4.12680395e-04, -5.00000000e-04
     497,  1.01824801e-03, -4.12680395e-04, -7.50000000e-04
     498,  7.91062308e-04, -5.17019536e-04,  7.50000000e-04
     499,  7.91062308e-04, -5.17019536e-04,  5.00000000e-04
     500,  7.91062308e-04, -5.17019536e-04,  2.50000000e-04
     501,  7.91062308e-04, -5.17019536e-04,  0.00000000e+00
     502,  7.91062308e-04, -5.17019536e-04, -2.50000000e-04
     503,  7.91062308e-04, -5.17019536e-04, -5.00000000e-04
     504,  7.91062308e-04, -5.17019536e-04, -7.50000000e-04
     505,  5.63876605e-04, -6.21358677e-04,  7.50000000e-04
     506,  5.63876605e-04, -6.21358677e-04,  5.00000000e-04
     507,  5.63876605e-04, -6.21358677e-04,  2.50000000e-04
     508,  5.63876605e-04, -6.21358677e-04,  0.00000000e+00
     509,  5.63876605e-04, -6.21358677e-04, -2.50000000e-04
     510,  5.63876605e-04, -6.21358677e-04, -5.00000000e-04
     511,  5.63876605e-04, -6.21358677e-04, -7.50000000e-04
     512,  3.36690902e-04, -7.25697818e-04,  7.50000000e-04
     513,  3.36690902e-04, -7.25697818e-04,  5.00000000e-04
     514,  3.36690902e-04, -7.25697818e-04,  2.50000000e-04
     515,  3.36690902e-04, -7.25697818e-04,  0.00000000e+00
     516,  3.36690902e-04, -7.25697818e-04, -2.50000000e-04
     517,  3.36690902e-04, -7.25697818e-04, -5.00000000e-04
     518,  3.36690902e-04, -7.25697818e-04, -7.50000000e-04
     519,  1.09505199e-04, -8.30036958e-04,  7.50000000e-04
     520,  1.09505199e-04, -8.30036958e-04,  5.00000000e-04
     521,  1.09505199e-04, -8.30036958e-04,  2.50000000e-04
     522,  1.09505199e-04, -8.30036958e-04,  0.00000000e+00
     523,  1.09505199e-04, -8.30036958e-04, -2.50000000e-04
     524,  1.09505199e-04, -8.30036958e-04, -5.00000000e-04
     525,  1.09505199e-04, -8.30036958e-04, -7.50000000e-04
     526, -1.17680504e-04, -9.34376099e-04,  7.50000000e-04
     527, -1.17680504e-04, -9.34376099e-04,  5.00000000e-04
     528, -1.17680504e-04, -9.34376099e-04,  2.50000000e-04
     529, -1.17680504e-04, -9.34376099e-04,  0.00000000e+00
     530, -1.17680504e-04, -9.34376099e-04, -2.50000000e-04
     531, -1.17680504e-04, -9.34376099e-04, -5.00000000e-04
     532, -1.17680504e-04, -9.34376099e-04, -7.50000000e-04
     533, -3.44866207e-04, -1.03871524e-03,  7.50000000e-04
     534, -3.44866207e-04, -1.03871524e-03,  5.00000000e-04
     535, -3.44866207e-04, -1.03871524e-03,  2.50000000e-04
     536, -3.44866207e-04, -1.03871524e-03,  0.00000000e+00
     537, -3.44866207e-04, -1.03871524e-03, -2.50000000e-04
     538, -3.44866207e-04, -1.03871524e-03, -5.00000000e-04
     539, -3.44866207e-04, -1.03871524e-03, -7.50000000e-04
     540, -7.26656437e-04, -2.96902259e-02,  8.01776667e-04
     541, -7.73582032e-04, -2.97121077e-02,  8.53553333e-04
     542, -8.20507629e-04, -2.97339894e-02,  9.05330000e-04
     543, -8.67433225e-04, -2.97558712e-02,  9.57106667e-04
     544, -9.14358818e-04, -2.97777530e-02,  1.00888333e-03
     545, -9.61284417e-04, -2.97996347e-02,  1.06066000e-03
     546, -4.90916706e-04, -2.95802987e-02,  8.41506337e-04
     547, -5.28679519e-04, -2.95979078e-02,  9.33012674e-04
     548, -5.66442332e-04, -2.96155169e-02,  1.02451901e-03
     549, -6.04205145e-04, -2.96331259e-02,  1.11602535e-03
     550, -6.41967958e-04, -2.96507350e-02,  1.20753168e-03
     551, -6.79730771e-04, -2.96683441e-02,  1.29903802e-03
     552, -2.47456547e-04, -2.94667713e-02,  8.66481453e-04
     553, -2.68336148e-04, -2.94765077e-02,  9.82962906e-04
     554, -2.89215749e-04, -2.94862440e-02,  1.09944436e-03
     555, -3.10095349e-04, -2.94959803e-02,  1.21592581e-03
     556, -3.30974949e-04, -2.95057166e-02,  1.33240726e-03
     557, -3.51854551e-04, -2.95154529e-02,  1.44888872e-03
     558,  6.12091300e-18, -2.93513805e-02,  8.75000000e-04
     559,  6.13768306e-18, -2.93513805e-02,  1.00000000e-03
     560,  6.15445312e-18, -2.93513805e-02,  1.12500000e-03
     561,  6.17122319e-18, -2.93513805e-02,  1.25000000e-03
     562,  6.18380073e-18, -2.93513805e-02,  1.37500000e-03
     563,  6.20476331e-18, -2.93513805e-02,  1.50000000e-03
     564,  2.47456547e-04, -2.92359896e-02,  8.66481453e-04
     565,  2.68336148e-04, -2.92262533e-02,  9.82962906e-04
     566,  2.89215749e-04, -2.92165169e-02,  1.09944436e-03
     567,  3.10095349e-04, -2.92067806e-02,  1.21592581e-03
     568,  3.30974949e-04, -2.91970443e-02,  1.33240726e-03
     569,  3.51854551e-04, -2.91873080e-02,  1.44888872e-03
     570,  4.90916706e-04, -2.91224622e-02,  8.41506337e-04
     571,  5.28679519e-04, -2.91048531e-02,  9.33012674e-04
     572,  5.66442332e-04, -2.90872441e-02,  1.02451901e-03
     573,  6.04205145e-04, -2.90696350e-02,  1.11602535e-03
     574,  6.41967958e-04, -2.90520259e-02,  1.20753168e-03
     575,  6.79730771e-04, -2.90344168e-02,  1.29903802e-03
     576,  7.26656437e-04, -2.90125350e-02,  8.01776667e-04
     577,  7.73582032e-04, -2.89906532e-02,  8.53553333e-04
     578,  8.20507629e-04, -2.89687715e-02,  9.05330000e-04
     579,  8.67433225e-04, -2.89468897e-02,  9.57106667e-04
     580,  9.14358818e-04, -2.89250079e-02,  1.00888333e-03
     581,  9.61284417e-04, -2.89031262e-02,  1.06066000e-03
     582, -1.94558095e-03, -2.68806126e-02,  8.01776667e-04
     583, -1.99409056e-03, -2.68987134e-02,  8.53553333e-04
     584, -2.04260017e-03, -2.69168143e-02,  9.05330000e-04
     585, -2.09110978e-03, -2.69349151e-02,  9.57106667e-04
     586, -2.13961939e-03, -2.69530160e-02,  1.00888333e-03
     587, -2.18812901e-03, -2.69711168e-02,  1.06066000e-03
     588, -1.70188362e-03, -2.67896795e-02,  8.41506337e-04
     589, -1.74092115e-03, -2.68042459e-02,  9.33012674e-04
     590, -1.77995868e-03, -2.68188124e-02,  1.02451901e-03
     591, -1.81899621e-03, -2.68333788e-02,  1.11602535e-03
     592, -1.85803374e-03, -2.68479453e-02,  1.20753168e-03
     593, -1.89707127e-03, -2.68625117e-02,  1.29903802e-03
     594, -1.45020525e-03, -2.66957684e-02,  8.66481453e-04
     595, -1.47178966e-03, -2.67038224e-02,  9.82962906e-04
     596, -1.49337407e-03, -2.67118764e-02,  1.09944436e-03
     597, -1.51495848e-03, -2.67199303e-02,  1.21592581e-03
     598, -1.53654289e-03, -2.67279843e-02,  1.33240726e-03
     599, -1.55812730e-03, -2.67360383e-02,  1.44888872e-03
     600, -1.19439560e-03, -2.66003157e-02,  8.75000000e-04
     601, -1.19439560e-03, -2.66003157e-02,  1.00000000e-03
     602, -1.19439560e-03, -2.66003157e-02,  1.12500000e-03
     603, -1.19439560e-03, -2.66003157e-02,  1.25000000e-03
     604, -1.19439560e-03, -2.66003157e-02,  1.37500000e-03
     605, -1.19439560e-03, -2.66003157e-02,  1.50000000e-03
     606, -9.38585937e-04, -2.65048630e-02,  8.66481453e-04
     607, -9.17001527e-04, -2.64968090e-02,  9.82962906e-04
     608, -8.95417117e-04, -2.64887550e-02,  1.09944436e-03
     609, -8.73832708e-04, -2.64807010e-02,  1.21592581e-03
     610, -8.52248298e-04, -2.64726470e-02,  1.33240726e-03
     611, -8.30663888e-04, -2.64645930e-02,  1.44888872e-03
     612, -6.86907568e-04, -2.64109519e-02,  8.41506337e-04
     613, -6.47870038e-04, -2.63963854e-02,  9.33012674e-04
     614, -6.08832509e-04, -2.63818190e-02,  1.02451901e-03
     615, -5.69794979e-04, -2.63672525e-02,  1.11602535e-03
     616, -5.30757450e-04, -2.63526861e-02,  1.20753168e-03
     617, -4.91719920e-04, -2.63381196e-02,  1.29903802e-03
     618, -4.43210238e-04, -2.63200188e-02,  8.01776667e-04
     619, -3.94700628e-04, -2.63019179e-02,  8.53553333e-04
     620, -3.46191017e-04, -2.62838171e-02,  9.05330000e-04
     621, -2.97681406e-04, -2.62657162e-02,  9.57106667e-04
     622, -2.49171799e-04, -2.62476154e-02,  1.00888333e-03
     623, -2.00662186e-04, -2.62295145e-02,  1.06066000e-03
     624, -2.75985900e-03, -2.38256807e-02,  8.01776667e-04
     625, -2.81106731e-03, -2.38333313e-02,  8.53553333e-04
     626, -2.86227563e-03, -2.38409819e-02,  9.05330000e-04
     627, -2.91348394e-03, -2.38486325e-02,  9.57106667e-04
     628, -2.96469225e-03, -2.38562831e-02,  1.00888333e-03
     629, -3.01590057e-03, -2.38639337e-02,  1.06066000e-03
     630, -2.50260422e-03, -2.37872464e-02,  8.41506337e-04
     631, -2.54381350e-03, -2.37934032e-02,  9.33012674e-04
     632, -2.58502277e-03, -2.37995599e-02,  1.02451901e-03
     633, -2.62623205e-03, -2.38057166e-02,  1.11602535e-03
     634, -2.66744133e-03, -2.38118734e-02,  1.20753168e-03
     635, -2.70865061e-03, -2.38180301e-02,  1.29903802e-03
     636, -2.23692439e-03, -2.37475534e-02,  8.66481453e-04
     637, -2.25970959e-03, -2.37509576e-02,  9.82962906e-04
     638, -2.28249479e-03, -2.37543617e-02,  1.09944436e-03
     639, -2.30527999e-03, -2.37577659e-02,  1.21592581e-03
     640, -2.32806519e-03, -2.37611700e-02,  1.33240726e-03
     641, -2.35085040e-03, -2.37645742e-02,  1.44888872e-03
     642, -1.96688344e-03, -2.37072089e-02,  8.75000000e-04
     643, -1.96688344e-03, -2.37072089e-02,  1.00000000e-03
     644, -1.96688344e-03, -2.37072089e-02,  1.12500000e-03
     645, -1.96688344e-03, -2.37072089e-02,  1.25000000e-03
     646, -1.96688344e-03, -2.37072089e-02,  1.37500000e-03
     647, -1.96688344e-03, -2.37072089e-02,  1.50000000e-03
     648, -1.69684249e-03, -2.36668643e-02,  8.66481453e-04
     649, -1.67405729e-03, -2.36634602e-02,  9.82962906e-04
     650, -1.65127209e-03, -2.36600560e-02,  1.09944436e-03
     651, -1.62848689e-03, -2.36566519e-02,  1.21592581e-03
     652, -1.60570168e-03, -2.36532478e-02,  1.33240726e-03
     653, -1.58291648e-03, -2.36498436e-02,  1.44888872e-03
     654, -1.43116266e-03, -2.36271713e-02,  8.41506337e-04
     655, -1.38995338e-03, -2.36210146e-02,  9.33012674e-04
     656, -1.34874410e-03, -2.36148579e-02,  1.02451901e-03
     657, -1.30753482e-03, -2.36087011e-02,  1.11602535e-03
     658, -1.26632555e-03, -2.36025444e-02,  1.20753168e-03
     659, -1.22511627e-03, -2.35963877e-02,  1.29903802e-03
     660, -1.17390788e-03, -2.35887371e-02,  8.01776667e-04
     661, -1.12269956e-03, -2.35810865e-02,  8.53553333e-04
     662, -1.07149125e-03, -2.35734359e-02,  9.05330000e-04
     663, -1.02028293e-03, -2.35657852e-02,  9.57106667e-04
     664, -9.69074624e-04, -2.35581346e-02,  1.00888333e-03
     665, -9.17866307e-04, -2.35504840e-02,  1.06066000e-03
     666, -2.81583112e-03, -2.06249001e-02,  8.01776667e-04
     667, -2.86726955e-03, -2.06189916e-02,  8.53553333e-04
     668, -2.91870799e-03, -2.06130831e-02,  9.05330000e-04
     669, -2.97014643e-03, -2.06071747e-02,  9.57106667e-04
     670, -3.02158487e-03, -2.06012662e-02,  1.00888333e-03
     671, -3.07302331e-03, -2.05953578e-02,  1.06066000e-03
     672, -2.55742025e-03, -2.06545823e-02,  8.41506337e-04
     673, -2.59881472e-03, -2.06498276e-02,  9.33012674e-04
     674, -2.64020919e-03, -2.06450728e-02,  1.02451901e-03
     675, -2.68160366e-03, -2.06403180e-02,  1.11602535e-03
     676, -2.72299813e-03, -2.06355633e-02,  1.20753168e-03
     677, -2.76439260e-03, -2.06308085e-02,  1.29903802e-03
     678, -2.29054648e-03, -2.06852367e-02,  8.66481453e-04
     679, -2.31343408e-03, -2.06826077e-02,  9.82962906e-04
     680, -2.33632167e-03, -2.06799787e-02,  1.09944436e-03
     681, -2.35920927e-03, -2.06773497e-02,  1.21592581e-03
     682, -2.38209687e-03, -2.06747208e-02,  1.33240726e-03
     683, -2.40498446e-03, -2.06720918e-02,  1.44888872e-03
     684, -2.01929199e-03, -2.07163942e-02,  8.75000000e-04
     685, -2.01929199e-03, -2.07163942e-02,  1.00000000e-03
     686, -2.01929199e-03, -2.07163942e-02,  1.12500000e-03
     687, -2.01929199e-03, -2.07163942e-02,  1.25000000e-03
     688, -2.01929199e-03, -2.07163942e-02,  1.37500000e-03
     689, -2.01929199e-03, -2.07163942e-02,  1.50000000e-03
     690, -1.74803750e-03, -2.07475518e-02,  8.66481453e-04
     691, -1.72514991e-03, -2.07501807e-02,  9.82962906e-04
     692, -1.70226231e-03, -2.07528097e-02,  1.09944436e-03
     693, -1.67937472e-03, -2.07554387e-02,  1.21592581e-03
     694, -1.65648712e-03, -2.07580676e-02,  1.33240726e-03
     695, -1.63359952e-03, -2.07606966e-02,  1.44888872e-03
     696, -1.48116373e-03, -2.07782061e-02,  8.41506337e-04
     697, -1.43976927e-03, -2.07829609e-02,  9.33012674e-04
     698, -1.39837480e-03, -2.07877156e-02,  1.02451901e-03
     699, -1.35698033e-03, -2.07924704e-02,  1.11602535e-03
     700, -1.31558586e-03, -2.07972251e-02,  1.20753168e-03
     701, -1.27419139e-03, -2.08019799e-02,  1.29903802e-03
     702, -1.22275287e-03, -2.08078884e-02,  8.01776667e-04
     703, -1.17131443e-03, -2.08137968e-02,  8.53553333e-04
     704, -1.11987599e-03, -2.08197053e-02,  9.05330000e-04
     705, -1.06843755e-03, -2.08256137e-02,  9.57106667e-04
     706, -1.01699912e-03, -2.08315222e-02,  1.00888333e-03
     707, -9.65560673e-04, -2.08374306e-02,  1.06066000e-03
     708, -2.08731363e-03, -1.75389800e-02,  8.01776667e-04
     709, -2.13620322e-03, -1.75219321e-02,  8.53553333e-04
     710, -2.18509281e-03, -1.75048842e-02,  9.05330000e-04
     711, -2.23398241e-03, -1.74878363e-02,  9.57106667e-04
     712, -2.28287200e-03, -1.74707884e-02,  1.00888333e-03
     713, -2.33176160e-03, -1.74537405e-02,  1.06066000e-03
     714, -1.84170737e-03, -1.76246234e-02,  8.41506337e-04
     715, -1.88105069e-03, -1.76109043e-02,  9.33012674e-04
     716, -1.92039401e-03, -1.75971852e-02,  1.02451901e-03
     717, -1.95973733e-03, -1.75834661e-02,  1.11602535e-03
     718, -1.99908064e-03, -1.75697470e-02,  1.20753168e-03
     719, -2.03842396e-03, -1.75560279e-02,  1.29903802e-03
     720, -1.58805757e-03, -1.77130716e-02,  8.66481453e-04
     721, -1.60981105e-03, -1.77054861e-02,  9.82962906e-04
     722, -1.63156454e-03, -1.76979006e-02,  1.09944436e-03
     723, -1.65331802e-03, -1.76903151e-02,  1.21592581e-03
     724, -1.67507150e-03, -1.76827296e-02,  1.33240726e-03
     725, -1.69682499e-03, -1.76751442e-02,  1.44888872e-03
     726, -1.33024411e-03, -1.78029716e-02,  8.75000000e-04
     727, -1.33024411e-03, -1.78029716e-02,  1.00000000e-03
     728, -1.33024411e-03, -1.78029716e-02,  1.12500000e-03
     729, -1.33024411e-03, -1.78029716e-02,  1.25000000e-03
     730, -1.33024411e-03, -1.78029716e-02,  1.37500000e-03
     731, -1.33024411e-03, -1.78029716e-02,  1.50000000e-03
     732, -1.07243065e-03, -1.78928717e-02,  8.66481453e-04
     733, -1.05067717e-03, -1.79004571e-02,  9.82962906e-04
     734, -1.02892368e-03, -1.79080426e-02,  1.09944436e-03
     735, -1.00717020e-03, -1.79156281e-02,  1.21592581e-03
     736, -9.85416716e-04, -1.79232136e-02,  1.33240726e-03
     737, -9.63663232e-04, -1.79307991e-02,  1.44888872e-03
     738, -8.18780845e-04, -1.79813198e-02,  8.41506337e-04
     739, -7.79437528e-04, -1.79950389e-02,  9.33012674e-04
     740, -7.40094211e-04, -1.80087580e-02,  1.02451901e-03
     741, -7.00750894e-04, -1.80224771e-02,  1.11602535e-03
     742, -6.61407577e-04, -1.80361962e-02,  1.20753168e-03
     743, -6.22064260e-04, -1.80499153e-02,  1.29903802e-03
     744, -5.73174593e-04, -1.80669632e-02,  8.01776667e-04
     745, -5.24285000e-04, -1.80840111e-02,  8.53553333e-04
     746, -4.75395405e-04, -1.81010590e-02,  9.05330000e-04
     747, -4.26505810e-04, -1.81181069e-02,  9.57106667e-04
     748, -3.77616220e-04, -1.81351548e-02,  1.00888333e-03
     749, -3.28726622e-04, -1.81522027e-02,  1.06066000e-03
     750, -8.96019376e-04, -1.47005051e-02,  8.01776667e-04
     751, -9.42976695e-04, -1.46786915e-02,  8.53553333e-04
     752, -9.89934014e-04, -1.46568779e-02,  9.05330000e-04
     753, -1.03689133e-03, -1.46350643e-02,  9.57106667e-04
     754, -1.08384865e-03, -1.46132507e-02,  1.00888333e-03
     755, -1.13080597e-03, -1.45914371e-02,  1.06066000e-03
     756, -6.60120281e-04, -1.48100900e-02,  8.41506337e-04
     757, -6.97908623e-04, -1.47925357e-02,  9.33012674e-04
     758, -7.35696964e-04, -1.47749815e-02,  1.02451901e-03
     759, -7.73485306e-04, -1.47574272e-02,  1.11602535e-03
     760, -8.11273647e-04, -1.47398730e-02,  1.20753168e-03
     761, -8.49061988e-04, -1.47223188e-02,  1.29903802e-03
     762, -4.16495538e-04, -1.49232637e-02,  8.66481453e-04
     763, -4.37389254e-04, -1.49135577e-02,  9.82962906e-04
     764, -4.58282970e-04, -1.49038517e-02,  1.09944436e-03
     765, -4.79176685e-04, -1.48941457e-02,  1.21592581e-03
     766, -5.00070401e-04, -1.48844397e-02,  1.33240726e-03
     767, -5.20964117e-04, -1.48747337e-02,  1.44888872e-03
     768, -1.68871705e-04, -1.50382951e-02,  8.75000000e-04
     769, -1.68871705e-04, -1.50382951e-02,  1.00000000e-03
     770, -1.68871705e-04, -1.50382951e-02,  1.12500000e-03
     771, -1.68871705e-04, -1.50382951e-02,  1.25000000e-03
     772, -1.68871705e-04, -1.50382951e-02,  1.37500000e-03
     773, -1.68871705e-04, -1.50382951e-02,  1.50000000e-03
     774,  7.87521274e-05, -1.51533266e-02,  8.66481453e-04
     775,  9.96458437e-05, -1.51630326e-02,  9.82962906e-04
     776,  1.20539559e-04, -1.51727386e-02,  1.09944436e-03
     777,  1.41433274e-04, -1.51824446e-02,  1.21592581e-03
     778,  1.62326990e-04, -1.51921506e-02,  1.33240726e-03
     779,  1.83220706e-04, -1.52018565e-02,  1.44888872e-03
     780,  3.22376871e-04, -1.52665003e-02,  8.41506337e-04
     781,  3.60165212e-04, -1.52840545e-02,  9.33012674e-04
     782,  3.97953554e-04, -1.53016088e-02,  1.02451901e-03
     783,  4.35741895e-04, -1.53191630e-02,  1.11602535e-03
     784,  4.73530236e-04, -1.53367173e-02,  1.20753168e-03
     785,  5.11318578e-04, -1.53542715e-02,  1.29903802e-03
     786,  5.58275966e-04, -1.53760851e-02,  8.01776667e-04
     787,  6.05233284e-04, -1.53978987e-02,  8.53553333e-04
     788,  6.52190603e-04, -1.54197124e-02,  9.05330000e-04
     789,  6.99147922e-04, -1.54415260e-02,  9.57106667e-04
     790,  7.46105238e-04, -1.54633396e-02,  1.00888333e-03
     791,  7.93062560e-04, -1.54851532e-02,  1.06066000e-03
     792,  3.05232153e-04, -1.20032881e-02,  8.01776667e-04
     793,  2.57079837e-04, -1.19842572e-02,  8.53553333e-04
     794,  2.08927520e-04, -1.19652262e-02,  9.05330000e-04
     795,  1.60775203e-04, -1.19461953e-02,  9.57106667e-04
     796,  1.12622889e-04, -1.19271643e-02,  1.00888333e-03
     797,  6.44705692e-05, -1.19081333e-02,  1.06066000e-03
     798,  5.47134550e-04, -1.20988938e-02,  8.41506337e-04
     799,  5.08384549e-04, -1.20835789e-02,  9.33012674e-04
     800,  4.69634547e-04, -1.20682640e-02,  1.02451901e-03
     801,  4.30884545e-04, -1.20529490e-02,  1.11602535e-03
     802,  3.92134543e-04, -1.20376341e-02,  1.20753168e-03
     803,  3.53384541e-04, -1.20223191e-02,  1.29903802e-03
     804,  7.96959203e-04, -1.21976306e-02,  8.66481453e-04
     805,  7.75533771e-04, -1.21891627e-02,  9.82962906e-04
     806,  7.54108339e-04, -1.21806949e-02,  1.09944436e-03
     807,  7.32682908e-04, -1.21722270e-02,  1.21592581e-03
     808,  7.11257477e-04, -1.21637592e-02,  1.33240726e-03
     809,  6.89832045e-04, -1.21552913e-02,  1.44888872e-03
     810,  1.05088472e-03, -1.22979881e-02,  8.75000000e-04
     811,  1.05088472e-03, -1.22979881e-02,  1.00000000e-03
     812,  1.05088472e-03, -1.22979881e-02,  1.12500000e-03
     813,  1.05088472e-03, -1.22979881e-02,  1.25000000e-03
     814,  1.05088472e-03, -1.22979881e-02,  1.37500000e-03
     815,  1.05088472e-03, -1.22979881e-02,  1.50000000e-03
     816,  1.30481023e-03, -1.23983456e-02,  8.66481453e-04
     817,  1.32623566e-03, -1.24068135e-02,  9.82962906e-04
     818,  1.34766109e-03, -1.24152813e-02,  1.09944436e-03
     819,  1.36908652e-03, -1.24237492e-02,  1.21592581e-03
     820,  1.39051195e-03, -1.24322170e-02,  1.33240726e-03
     821,  1.41193739e-03, -1.24406849e-02,  1.44888872e-03
     822,  1.55463488e-03, -1.24970824e-02,  8.41506337e-04
     823,  1.59338488e-03, -1.25123973e-02,  9.33012674e-04
     824,  1.63213488e-03, -1.25277123e-02,  1.02451901e-03
     825,  1.67088489e-03, -1.25430272e-02,  1.11602535e-03
     826,  1.70963489e-03, -1.25583422e-02,  1.20753168e-03
     827,  1.74838489e-03, -1.25736571e-02,  1.29903802e-03
     828,  1.79653728e-03, -1.25926881e-02,  8.01776667e-04
     829,  1.84468959e-03, -1.26117191e-02,  8.53553333e-04
     830,  1.89284191e-03, -1.26307500e-02,  9.05330000e-04
     831,  1.94099423e-03, -1.26497810e-02,  9.57106667e-04
     832,  1.98914654e-03, -1.26688119e-02,  1.00888333e-03
     833,  2.03729886e-03, -1.26878429e-02,  1.06066000e-03
     834,  1.11259342e-03, -9.28154167e-03,  8.01776667e-04
     835,  1.06166498e-03, -9.27220799e-03,  8.53553333e-04
     836,  1.01073655e-03, -9.26287431e-03,  9.05330000e-04
     837,  9.59808115e-04, -9.25354063e-03,  9.57106667e-04
     838,  9.08879684e-04, -9.24420696e-03,  1.00888333e-03
     839,  8.57951247e-04, -9.23487328e-03,  1.06066000e-03
     840,  1.36844217e-03, -9.32843118e-03,  8.41506337e-04
     841,  1.32745812e-03, -9.32092002e-03,  9.33012674e-04
     842,  1.28647408e-03, -9.31340885e-03,  1.02451901e-03
     843,  1.24549003e-03, -9.30589769e-03,  1.11602535e-03
     844,  1.20450598e-03, -9.29838652e-03,  1.20753168e-03
     845,  1.16352193e-03, -9.29087536e-03,  1.29903802e-03
     846,  1.63266992e-03, -9.37685632e-03,  8.66481453e-04
     847,  1.61000926e-03, -9.37270329e-03,  9.82962906e-04
     848,  1.58734859e-03, -9.36855026e-03,  1.09944436e-03
     849,  1.56468792e-03, -9.36439723e-03,  1.21592581e-03
     850,  1.54202725e-03, -9.36024420e-03,  1.33240726e-03
     851,  1.51936658e-03, -9.35609117e-03,  1.44888872e-03
     852,  1.90123496e-03, -9.42607636e-03,  8.75000000e-04
     853,  1.90123496e-03, -9.42607636e-03,  1.00000000e-03
     854,  1.90123496e-03, -9.42607636e-03,  1.12500000e-03
     855,  1.90123496e-03, -9.42607636e-03,  1.25000000e-03
     856,  1.90123496e-03, -9.42607636e-03,  1.37500000e-03
     857,  1.90123496e-03, -9.42607636e-03,  1.50000000e-03
     858,  2.16980000e-03, -9.47529640e-03,  8.66481453e-04
     859,  2.19246067e-03, -9.47944943e-03,  9.82962906e-04
     860,  2.21512134e-03, -9.48360246e-03,  1.09944436e-03
     861,  2.23778201e-03, -9.48775549e-03,  1.21592581e-03
     862,  2.26044267e-03, -9.49190852e-03,  1.33240726e-03
     863,  2.28310334e-03, -9.49606155e-03,  1.44888872e-03
     864,  2.43402775e-03, -9.52372154e-03,  8.41506337e-04
     865,  2.47501180e-03, -9.53123270e-03,  9.33012674e-04
     866,  2.51599585e-03, -9.53874387e-03,  1.02451901e-03
     867,  2.55697990e-03, -9.54625503e-03,  1.11602535e-03
     868,  2.59796395e-03, -9.55376620e-03,  1.20753168e-03
     869,  2.63894800e-03, -9.56127736e-03,  1.29903802e-03
     870,  2.68987651e-03, -9.57061106e-03,  8.01776667e-04
     871,  2.74080494e-03, -9.57994473e-03,  8.53553333e-04
     872,  2.79173338e-03, -9.58927841e-03,  9.05330000e-04
     873,  2.84266181e-03, -9.59861209e-03,  9.57106667e-04
     874,  2.89359024e-03, -9.60794576e-03,  1.00888333e-03
     875,  2.94451868e-03, -9.61727944e-03,  1.06066000e-03
     876,  1.25882194e-03, -6.50260393e-03,  8.01776667e-04
     877,  1.20720947e-03, -6.50672415e-03,  8.53553333e-04
     878,  1.15559700e-03, -6.51084438e-03,  9.05330000e-04
     879,  1.10398454e-03, -6.51496460e-03,  9.57106667e-04
     880,  1.05237207e-03, -6.51908483e-03,  1.00888333e-03
     881,  1.00075960e-03, -6.52320505e-03,  1.06066000e-03
     882,  1.51810707e-03, -6.48190519e-03,  8.41506337e-04
     883,  1.47657255e-03, -6.48522089e-03,  9.33012674e-04
     884,  1.43503804e-03, -6.48853659e-03,  1.02451901e-03
     885,  1.39350352e-03, -6.49185229e-03,  1.11602535e-03
     886,  1.35196900e-03, -6.49516799e-03,  1.20753168e-03
     887,  1.31043448e-03, -6.49848370e-03,  1.29903802e-03
     888,  1.78588373e-03, -6.46052856e-03,  8.66481453e-04
     889,  1.76291870e-03, -6.46236186e-03,  9.82962906e-04
     890,  1.73995367e-03, -6.46419516e-03,  1.09944436e-03
     891,  1.71698864e-03, -6.46602846e-03,  1.21592581e-03
     892,  1.69402362e-03, -6.46786176e-03,  1.33240726e-03
     893,  1.67105858e-03, -6.46969506e-03,  1.44888872e-03
     894,  2.05805594e-03, -6.43880105e-03,  8.75000000e-04
     895,  2.05805594e-03, -6.43880105e-03,  1.00000000e-03
     896,  2.05805594e-03, -6.43880105e-03,  1.12500000e-03
     897,  2.05805594e-03, -6.43880105e-03,  1.25000000e-03
     898,  2.05805594e-03, -6.43880105e-03,  1.37500000e-03
     899,  2.05805594e-03, -6.43880105e-03,  1.50000000e-03
     900,  2.33022815e-03, -6.41707353e-03,  8.66481453e-04
     901,  2.35319318e-03, -6.41524023e-03,  9.82962906e-04
     902,  2.37615821e-03, -6.41340693e-03,  1.09944436e-03
     903,  2.39912324e-03, -6.41157363e-03,  1.21592581e-03
     904,  2.42208827e-03, -6.40974033e-03,  1.33240726e-03
     905,  2.44505330e-03, -6.40790703e-03,  1.44888872e-03
     906,  2.59800481e-03, -6.39569691e-03,  8.41506337e-04
     907,  2.63953933e-03, -6.39238121e-03,  9.33012674e-04
     908,  2.68107385e-03, -6.38906550e-03,  1.02451901e-03
     909,  2.72260836e-03, -6.38574980e-03,  1.11602535e-03
     910,  2.76414288e-03, -6.38243410e-03,  1.20753168e-03
     911,  2.80567740e-03, -6.37911840e-03,  1.29903802e-03
     912,  2.85728994e-03, -6.37499817e-03,  8.01776667e-04
     913,  2.90890241e-03, -6.37087794e-03,  8.53553333e-04
     914,  2.96051488e-03, -6.36675771e-03,  9.05330000e-04
     915,  3.01212735e-03, -6.36263749e-03,  9.57106667e-04
     916,  3.06373981e-03, -6.35851726e-03,  1.00888333e-03
     917,  3.11535228e-03, -6.35439704e-03,  1.06066000e-03
     918,  6.94347569e-04, -3.75234889e-03,  8.01776667e-04
     919,  6.45065270e-04, -3.76822586e-03,  8.53553333e-04
     920,  5.95782970e-04, -3.78410282e-03,  9.05330000e-04
     921,  5.46500670e-04, -3.79997979e-03,  9.57106667e-04
     922,  4.97218374e-04, -3.81585675e-03,  1.00888333e-03
     923,  4.47936072e-04, -3.83173372e-03,  1.06066000e-03
     924,  9.41926650e-04, -3.67258791e-03,  8.41506337e-04
     925,  9.02267308e-04, -3.68536471e-03,  9.33012674e-04
     926,  8.62607966e-04, -3.69814151e-03,  1.02451901e-03
     927,  8.22948624e-04, -3.71091831e-03,  1.11602535e-03
     928,  7.83289283e-04, -3.72369511e-03,  1.20753168e-03
     929,  7.43629941e-04, -3.73647190e-03,  1.29903802e-03
     930,  1.19761390e-03, -3.59021478e-03,  8.66481453e-04
     931,  1.17568568e-03, -3.59727925e-03,  9.82962906e-04
     932,  1.15375746e-03, -3.60434373e-03,  1.09944436e-03
     933,  1.13182924e-03, -3.61140820e-03,  1.21592581e-03
     934,  1.10990102e-03, -3.61847268e-03,  1.33240726e-03
     935,  1.08797280e-03, -3.62553715e-03,  1.44888872e-03
     936,  1.45749824e-03, -3.50648949e-03,  8.75000000e-04
     937,  1.45749824e-03, -3.50648949e-03,  1.00000000e-03
     938,  1.45749824e-03, -3.50648949e-03,  1.12500000e-03
     939,  1.45749824e-03, -3.50648949e-03,  1.25000000e-03
     940,  1.45749824e-03, -3.50648949e-03,  1.37500000e-03
     941,  1.45749824e-03, -3.50648949e-03,  1.50000000e-03
     942,  1.71738258e-03, -3.42276421e-03,  8.66481453e-04
     943,  1.73931080e-03, -3.41569973e-03,  9.82962906e-04
     944,  1.76123902e-03, -3.40863526e-03,  1.09944436e-03
     945,  1.78316724e-03, -3.40157078e-03,  1.21592581e-03
     946,  1.80509545e-03, -3.39450631e-03,  1.33240726e-03
     947,  1.82702367e-03, -3.38744183e-03,  1.44888872e-03
     948,  1.97306983e-03, -3.34039107e-03,  8.41506337e-04
     949,  2.01272917e-03, -3.32761427e-03,  9.33012674e-04
     950,  2.05238851e-03, -3.31483748e-03,  1.02451901e-03
     951,  2.09204785e-03, -3.30206068e-03,  1.11602535e-03
     952,  2.13170719e-03, -3.28928388e-03,  1.20753168e-03
     953,  2.17136653e-03, -3.27650708e-03,  1.29903802e-03
     954,  2.22064891e-03, -3.26063009e-03,  8.01776667e-04
     955,  2.26993121e-03, -3.24475313e-03,  8.53553333e-04
     956,  2.31921351e-03, -3.22887616e-03,  9.05330000e-04
     957,  2.36849581e-03, -3.21299920e-03,  9.57106667e-04
     958,  2.41777810e-03, -3.19712223e-03,  1.00888333e-03
     959,  2.46706040e-03, -3.18124527e-03,  1.06066000e-03
     960, -3.91917881e-04, -1.06032457e-03,  8.01776667e-04
     961, -4.38969554e-04, -1.08193390e-03,  8.53553333e-04
     962, -4.86021228e-04, -1.10354323e-03,  9.05330000e-04
     963, -5.33072902e-04, -1.12515257e-03,  9.57106667e-04
     964, -5.80124572e-04, -1.14676190e-03,  1.00888333e-03
     965, -6.27176249e-04, -1.16837123e-03,  1.06066000e-03
     966, -1.55544776e-04, -9.51765950e-04,  8.41506337e-04
     967, -1.93409049e-04, -9.69155802e-04,  9.33012674e-04
     968, -2.31273321e-04, -9.86545653e-04,  1.02451901e-03
     969, -2.69137593e-04, -1.00393550e-03,  1.11602535e-03
     970, -3.07001866e-04, -1.02132536e-03,  1.20753168e-03
     971, -3.44866138e-04, -1.03871521e-03,  1.29903802e-03
     972,  8.85695002e-05, -8.39652056e-04,  8.66481453e-04
     973,  6.76338006e-05, -8.49267155e-04,  9.82962906e-04
     974,  4.66981020e-05, -8.58882253e-04,  1.09944436e-03
     975,  2.57624033e-05, -8.68497351e-04,  1.21592581e-03
     976,  4.82670458e-06, -8.78112449e-04,  1.33240726e-03
     977, -1.61089950e-05, -8.87727547e-04,  1.44888872e-03
     978,  3.36690902e-04, -7.25697818e-04,  8.75000000e-04
     979,  3.36690902e-04, -7.25697818e-04,  1.00000000e-03
     980,  3.36690902e-04, -7.25697818e-04,  1.12500000e-03
     981,  3.36690902e-04, -7.25697818e-04,  1.25000000e-03
     982,  3.36690902e-04, -7.25697818e-04,  1.37500000e-03
     983,  3.36690902e-04, -7.25697818e-04,  1.50000000e-03
     984,  5.84812304e-04, -6.11743579e-04,  8.66481453e-04
     985,  6.05748003e-04, -6.02128480e-04,  9.82962906e-04
     986,  6.26683702e-04, -5.92513382e-04,  1.09944436e-03
     987,  6.47619401e-04, -5.82898284e-04,  1.21592581e-03
     988,  6.68555099e-04, -5.73283186e-04,  1.33240726e-03
     989,  6.89490799e-04, -5.63668088e-04,  1.44888872e-03
     990,  8.28926580e-04, -4.99629685e-04,  8.41506337e-04
     991,  8.66790852e-04, -4.82239833e-04,  9.33012674e-04
     992,  9.04655125e-04, -4.64849982e-04,  1.02451901e-03
     993,  9.42519397e-04, -4.47460130e-04,  1.11602535e-03
     994,  9.80383669e-04, -4.30070279e-04,  1.20753168e-03
     995,  1.01824794e-03, -4.12680427e-04,  1.29903802e-03
     996,  1.06529968e-03, -3.91071064e-04,  8.01776667e-04
     997,  1.11235136e-03, -3.69461732e-04,  8.53553333e-04
     998,  1.15940303e-03, -3.47852401e-04,  9.05330000e-04
     999,  1.20645471e-03, -3.26243069e-04,  9.57106667e-04
    1000,  1.25350638e-03, -3.04633739e-04,  1.00888333e-03
    1001,  1.30055805e-03, -2.83024406e-04,  1.06066000e-03
    1002,  7.62663746e-04, -2.89957445e-02,  5.41666654e-04
    1003,  8.45596652e-04, -2.89570723e-02,  5.83333308e-04
    1004,  9.28529557e-04, -2.89184000e-02,  6.24999962e-04
    1005,  1.01146247e-03, -2.88797278e-02,  6.66666616e-04
    1006,  1.09439536e-03, -2.88410555e-02,  7.08333270e-04
    1007,  1.17732827e-03, -2.88023833e-02,  7.49999924e-04
    1008,  7.85298888e-04, -2.89851896e-02,  2.73038090e-04
    1009,  8.90866936e-04, -2.89359624e-02,  2.96076181e-04
    1010,  9.96434985e-04, -2.88867352e-02,  3.19114271e-04
    1011,  1.10200303e-03, -2.88375080e-02,  3.42152361e-04
    1012,  1.20757108e-03, -2.87882808e-02,  3.65190451e-04
    1013,  1.31313913e-03, -2.87390536e-02,  3.88228542e-04
    1014,  7.93019314e-04, -2.89815895e-02,  1.85037171e-20
    1015,  9.06307787e-04, -2.89287622e-02,  3.70074342e-20
    1016,  1.01959626e-03, -2.88759349e-02,  5.55111512e-20
    1017,  1.13288473e-03, -2.88231076e-02,  7.40148683e-20
    1018,  1.24617321e-03, -2.87702803e-02,  9.71445147e-20
    1019,  1.35946168e-03, -2.87174531e-02,  1.11022303e-19
    1020,  7.85298888e-04, -2.89851896e-02, -2.73038090e-04
    1021,  8.90866936e-04, -2.89359624e-02, -2.96076181e-04
    1022,  9.96434985e-04, -2.88867352e-02, -3.19114271e-04
    1023,  1.10200303e-03, -2.88375080e-02, -3.42152361e-04
    1024,  1.20757108e-03, -2.87882808e-02, -3.65190451e-04
    1025,  1.31313913e-03, -2.87390536e-02, -3.88228542e-04
    1026,  7.62663746e-04, -2.89957445e-02, -5.41666654e-04
    1027,  8.45596652e-04, -2.89570723e-02, -5.83333308e-04
    1028,  9.28529557e-04, -2.89184000e-02, -6.24999962e-04
    1029,  1.01146247e-03, -2.88797278e-02, -6.66666616e-04
    1030,  1.09439536e-03, -2.88410555e-02, -7.08333270e-04
    1031,  1.17732827e-03, -2.88023833e-02, -7.49999924e-04
    1032,  7.26656437e-04, -2.90125350e-02, -8.01776667e-04
    1033,  7.73582032e-04, -2.89906532e-02, -8.53553333e-04
    1034,  8.20507629e-04, -2.89687715e-02, -9.05330000e-04
    1035,  8.67433225e-04, -2.89468897e-02, -9.57106667e-04
    1036,  9.14358818e-04, -2.89250079e-02, -1.00888333e-03
    1037,  9.61284417e-04, -2.89031262e-02, -1.06066000e-03
    1038, -4.05987471e-04, -2.63061295e-02,  5.41666654e-04
    1039, -3.20255092e-04, -2.62741393e-02,  5.83333308e-04
    1040, -2.34522715e-04, -2.62421492e-02,  6.24999962e-04
    1041, -1.48790334e-04, -2.62101591e-02,  6.66666616e-04
    1042, -6.30579624e-05, -2.61781689e-02,  7.08333270e-04
    1043,  2.26744187e-05, -2.61461788e-02,  7.49999924e-04
    1044, -3.82588260e-04, -2.62973983e-02,  2.73038090e-04
    1045, -2.73456670e-04, -2.62566770e-02,  2.96076181e-04
    1046, -1.64325080e-04, -2.62159557e-02,  3.19114271e-04
    1047, -5.51934936e-05, -2.61752344e-02,  3.42152361e-04
    1048,  5.39380929e-05, -2.61345131e-02,  3.65190451e-04
    1049,  1.63069689e-04, -2.60937918e-02,  3.88228542e-04
    1050, -3.74607224e-04, -2.62944203e-02,  1.85037171e-20
    1051, -2.57494600e-04, -2.62507209e-02,  3.70074342e-20
    1052, -1.40381975e-04, -2.62070216e-02,  5.55111512e-20
    1053, -2.32693511e-05, -2.61633222e-02,  7.40148683e-20
    1054,  9.38432734e-05, -2.61196229e-02,  9.71445147e-20
    1055,  2.10955898e-04, -2.60759236e-02,  1.11022303e-19
    1056, -3.82588260e-04, -2.62973983e-02, -2.73038090e-04
    1057, -2.73456670e-04, -2.62566770e-02, -2.96076181e-04
    1058, -1.64325080e-04, -2.62159557e-02, -3.19114271e-04
    1059, -5.51934936e-05, -2.61752344e-02, -3.42152361e-04
    1060,  5.39380929e-05, -2.61345131e-02, -3.65190451e-04
    1061,  1.63069689e-04, -2.60937918e-02, -3.88228542e-04
    1062, -4.05987471e-04, -2.63061295e-02, -5.41666654e-04
    1063, -3.20255092e-04, -2.62741393e-02, -5.83333308e-04
    1064, -2.34522715e-04, -2.62421492e-02, -6.24999962e-04
    1065, -1.48790334e-04, -2.62101591e-02, -6.66666616e-04
    1066, -6.30579624e-05, -2.61781689e-02, -7.08333270e-04
    1067,  2.26744187e-05, -2.61461788e-02, -7.49999924e-04
    1068, -4.43210238e-04, -2.63200188e-02, -8.01776667e-04
    1069, -3.94700628e-04, -2.63019179e-02, -8.53553333e-04
    1070, -3.46191017e-04, -2.62838171e-02, -9.05330000e-04
    1071, -2.97681406e-04, -2.62657162e-02, -9.57106667e-04
    1072, -2.49171799e-04, -2.62476154e-02, -1.00888333e-03
    1073, -2.00662186e-04, -2.62295145e-02, -1.06066000e-03
    1074, -1.13461432e-03, -2.35828665e-02,  5.41666654e-04
    1075, -1.04411245e-03, -2.35693454e-02,  5.83333308e-04
    1076, -9.53610577e-04, -2.35558243e-02,  6.24999962e-04
    1077, -8.63108702e-04, -2.35423032e-02,  6.66666616e-04
    1078, -7.72606838e-04, -2.35287820e-02,  7.08333270e-04
    1079, -6.82104963e-04, -2.35152609e-02,  7.49999924e-04
    1080, -1.10991336e-03, -2.35791762e-02,  2.73038090e-04
    1081, -9.94710520e-04, -2.35619647e-02,  2.96076181e-04
    1082, -8.79507683e-04, -2.35447532e-02,  3.19114271e-04
    1083, -7.64304850e-04, -2.35275417e-02,  3.42152361e-04
    1084, -6.49102017e-04, -2.35103302e-02,  3.65190451e-04
    1085, -5.33899175e-04, -2.34931187e-02,  3.88228542e-04
    1086, -1.10148832e-03, -2.35779175e-02,  1.85037171e-20
    1087, -9.77860442e-04, -2.35594473e-02,  3.70074342e-20
    1088, -8.54232567e-04, -2.35409771e-02,  5.55111512e-20
    1089, -7.30604693e-04, -2.35225068e-02,  7.40148683e-20
    1090, -6.06976818e-04, -2.35040366e-02,  7.86407976e-20
    1091, -4.83348943e-04, -2.34855664e-02,  1.11022303e-19
    1092, -1.10991336e-03, -2.35791762e-02, -2.73038090e-04
    1093, -9.94710520e-04, -2.35619647e-02, -2.96076181e-04
    1094, -8.79507683e-04, -2.35447532e-02, -3.19114271e-04
    1095, -7.64304850e-04, -2.35275417e-02, -3.42152361e-04
    1096, -6.49102017e-04, -2.35103302e-02, -3.65190451e-04
    1097, -5.33899175e-04, -2.34931187e-02, -3.88228542e-04
    1098, -1.13461432e-03, -2.35828665e-02, -5.41666654e-04
    1099, -1.04411245e-03, -2.35693454e-02, -5.83333308e-04
    1100, -9.53610577e-04, -2.35558243e-02, -6.24999962e-04
    1101, -8.63108702e-04, -2.35423032e-02, -6.66666616e-04
    1102, -7.72606838e-04, -2.35287820e-02, -7.08333270e-04
    1103, -6.82104963e-04, -2.35152609e-02, -7.49999924e-04
    1104, -1.17390788e-03, -2.35887371e-02, -8.01776667e-04
    1105, -1.12269956e-03, -2.35810865e-02, -8.53553333e-04
    1106, -1.07149125e-03, -2.35734359e-02, -9.05330000e-04
    1107, -1.02028293e-03, -2.35657852e-02, -9.57106667e-04
    1108, -9.69074624e-04, -2.35581346e-02, -1.00888333e-03
    1109, -9.17866307e-04, -2.35504840e-02, -1.06066000e-03
    1110, -1.18328273e-03, -2.08124221e-02,  5.41666654e-04
    1111, -1.09237415e-03, -2.08228643e-02,  5.83333308e-04
    1112, -1.00146557e-03, -2.08333064e-02,  6.24999962e-04
    1113, -9.10556993e-04, -2.08437486e-02,  6.66666616e-04
    1114, -8.19648421e-04, -2.08541908e-02,  7.08333270e-04
    1115, -7.28739839e-04, -2.08646330e-02,  7.49999924e-04
    1116, -1.15847076e-03, -2.08152721e-02,  2.73038090e-04
    1117, -1.04275022e-03, -2.08285643e-02,  2.96076181e-04
    1118, -9.27029669e-04, -2.08418565e-02,  3.19114271e-04
    1119, -8.11309125e-04, -2.08551487e-02,  3.42152361e-04
    1120, -6.95588581e-04, -2.08684409e-02,  3.65190451e-04
    1121, -5.79868027e-04, -2.08817331e-02,  3.88228542e-04
    1122, -1.15000786e-03, -2.08162442e-02,  1.85037171e-20
    1123, -1.02582442e-03, -2.08305085e-02,  3.70074342e-20
    1124, -9.01640969e-04, -2.08447728e-02,  5.55111512e-20
    1125, -7.77457522e-04, -2.08590370e-02,  7.40148683e-20
    1126, -6.53274075e-04, -2.08733013e-02,  9.71445147e-20
    1127, -5.29090628e-04, -2.08875656e-02,  1.11022303e-19
    1128, -1.15847076e-03, -2.08152721e-02, -2.73038090e-04
    1129, -1.04275022e-03, -2.08285643e-02, -2.96076181e-04
    1130, -9.27029669e-04, -2.08418565e-02, -3.19114271e-04
    1131, -8.11309125e-04, -2.08551487e-02, -3.42152361e-04
    1132, -6.95588581e-04, -2.08684409e-02, -3.65190451e-04
    1133, -5.79868027e-04, -2.08817331e-02, -3.88228542e-04
    1134, -1.18328273e-03, -2.08124221e-02, -5.41666654e-04
    1135, -1.09237415e-03, -2.08228643e-02, -5.83333308e-04
    1136, -1.00146557e-03, -2.08333064e-02, -6.24999962e-04
    1137, -9.10556993e-04, -2.08437486e-02, -6.66666616e-04
    1138, -8.19648421e-04, -2.08541908e-02, -7.08333270e-04
    1139, -7.28739839e-04, -2.08646330e-02, -7.49999924e-04
    1140, -1.22275287e-03, -2.08078884e-02, -8.01776667e-04
    1141, -1.17131443e-03, -2.08137968e-02, -8.53553333e-04
    1142, -1.11987599e-03, -2.08197053e-02, -9.05330000e-04
    1143, -1.06843755e-03, -2.08256137e-02, -9.57106667e-04
    1144, -1.01699912e-03, -2.08315222e-02, -1.00888333e-03
    1145, -9.65560673e-04, -2.08374306e-02, -1.06066000e-03
    1146, -5.35660254e-04, -1.80800445e-02,  5.41666654e-04
    1147, -4.49256320e-04, -1.81101738e-02,  5.83333308e-04
    1148, -3.62852387e-04, -1.81403030e-02,  6.24999962e-04
    1149, -2.76448450e-04, -1.81704322e-02,  6.66666616e-04
    1150, -1.90044522e-04, -1.82005614e-02,  7.08333270e-04
    1151, -1.03640585e-04, -1.82306906e-02,  7.49999924e-04
    1152, -5.12077753e-04, -1.80882678e-02,  2.73038090e-04
    1153, -4.02091318e-04, -1.81266203e-02,  2.96076181e-04
    1154, -2.92104882e-04, -1.81649728e-02,  3.19114271e-04
    1155, -1.82118450e-04, -1.82033252e-02,  3.42152361e-04
    1156, -7.21320178e-05, -1.82416777e-02,  3.65190451e-04
    1157,  3.78544239e-05, -1.82800302e-02,  3.88228542e-04
    1158, -5.04034201e-04, -1.80910726e-02,  1.85037171e-20
    1159, -3.86004214e-04, -1.81322299e-02,  3.70074342e-20
    1160, -2.67974227e-04, -1.81733872e-02,  5.55111512e-20
    1161, -1.49944240e-04, -1.82145445e-02,  7.40148683e-20
    1162, -3.19142534e-05, -1.82557017e-02,  9.71445147e-20
    1163,  8.61157335e-05, -1.82968590e-02,  1.11022303e-19
    1164, -5.12077753e-04, -1.80882678e-02, -2.73038090e-04
    1165, -4.02091318e-04, -1.81266203e-02, -2.96076181e-04
    1166, -2.92104882e-04, -1.81649728e-02, -3.19114271e-04
    1167, -1.82118450e-04, -1.82033252e-02, -3.42152361e-04
    1168, -7.21320178e-05, -1.82416777e-02, -3.65190451e-04
    1169,  3.78544239e-05, -1.82800302e-02, -3.88228542e-04
    1170, -5.35660254e-04, -1.80800445e-02, -5.41666654e-04
    1171, -4.49256320e-04, -1.81101738e-02, -5.83333308e-04
    1172, -3.62852387e-04, -1.81403030e-02, -6.24999962e-04
    1173, -2.76448450e-04, -1.81704322e-02, -6.66666616e-04
    1174, -1.90044522e-04, -1.82005614e-02, -7.08333270e-04
    1175, -1.03640585e-04, -1.82306906e-02, -7.49999924e-04
    1176, -5.73174593e-04, -1.80669632e-02, -8.01776667e-04
    1177, -5.24285000e-04, -1.80840111e-02, -8.53553333e-04
    1178, -4.75395405e-04, -1.81010590e-02, -9.05330000e-04
    1179, -4.26505810e-04, -1.81181069e-02, -9.57106667e-04
    1180, -3.77616220e-04, -1.81351548e-02, -1.00888333e-03
    1181, -3.28726622e-04, -1.81522027e-02, -1.06066000e-03
    1182,  5.94307617e-04, -1.53928233e-02,  5.41666654e-04
    1183,  6.77296587e-04, -1.54313751e-02,  5.83333308e-04
    1184,  7.60285556e-04, -1.54699269e-02,  6.24999962e-04
    1185,  8.43274529e-04, -1.55084787e-02,  6.66666616e-04
    1186,  9.26263493e-04, -1.55470305e-02,  7.08333270e-04
    1187,  1.00925247e-03, -1.55855823e-02,  7.49999924e-04
    1188,  6.16958061e-04, -1.54033454e-02,  2.73038090e-04
    1189,  7.22597475e-04, -1.54524192e-02,  2.96076181e-04
    1190,  8.28236890e-04, -1.55014931e-02,  3.19114271e-04
    1191,  9.33876301e-04, -1.55505669e-02,  3.42152361e-04
    1192,  1.03951571e-03, -1.55996408e-02,  3.65190451e-04
    1193,  1.14515513e-03, -1.56487147e-02,  3.88228542e-04
    1194,  6.24683705e-04, -1.54069343e-02,  1.85037171e-20
    1195,  7.38048764e-04, -1.54595970e-02,  3.70074342e-20
    1196,  8.51413823e-04, -1.55122597e-02,  5.55111512e-20
    1197,  9.64778881e-04, -1.55649225e-02,  7.40148683e-20
    1198,  1.07814394e-03, -1.56175852e-02,  9.71445147e-20
    1199,  1.19150900e-03, -1.56702479e-02,  1.11022303e-19
    1200,  6.16958061e-04, -1.54033454e-02, -2.73038090e-04
    1201,  7.22597475e-04, -1.54524192e-02, -2.96076181e-04
    1202,  8.28236890e-04, -1.55014931e-02, -3.19114271e-04
    1203,  9.33876301e-04, -1.55505669e-02, -3.42152361e-04
    1204,  1.03951571e-03, -1.55996408e-02, -3.65190451e-04
    1205,  1.14515513e-03, -1.56487147e-02, -3.88228542e-04
    1206,  5.94307617e-04, -1.53928233e-02, -5.41666654e-04
    1207,  6.77296587e-04, -1.54313751e-02, -5.83333308e-04
    1208,  7.60285556e-04, -1.54699269e-02, -6.24999962e-04
    1209,  8.43274529e-04, -1.55084787e-02, -6.66666616e-04
    1210,  9.26263493e-04, -1.55470305e-02, -7.08333270e-04
    1211,  1.00925247e-03, -1.55855823e-02, -7.49999924e-04
    1212,  5.58275966e-04, -1.53760851e-02, -8.01776667e-04
    1213,  6.05233284e-04, -1.53978987e-02, -8.53553333e-04
    1214,  6.52190603e-04, -1.54197124e-02, -9.05330000e-04
    1215,  6.99147922e-04, -1.54415260e-02, -9.57106667e-04
    1216,  7.46105238e-04, -1.54633396e-02, -1.00888333e-03
    1217,  7.93062560e-04, -1.54851532e-02, -1.06066000e-03
    1218,  1.83348588e-03, -1.26072911e-02,  5.41666654e-04
    1219,  1.91858681e-03, -1.26409250e-02,  5.83333308e-04
    1220,  2.00368773e-03, -1.26745590e-02,  6.24999962e-04
    1221,  2.08878866e-03, -1.27081929e-02,  6.66666616e-04
    1222,  2.17388957e-03, -1.27418269e-02,  7.08333270e-04
    1223,  2.25899050e-03, -1.27754608e-02,  7.49999924e-04
    1224,  1.85671275e-03, -1.26164709e-02,  2.73038090e-04
    1225,  1.96504054e-03, -1.26592847e-02,  2.96076181e-04
    1226,  2.07336833e-03, -1.27020984e-02,  3.19114271e-04
    1227,  2.18169612e-03, -1.27449122e-02,  3.42152361e-04
    1228,  2.29002390e-03, -1.27877260e-02,  3.65190451e-04
    1229,  2.39835170e-03, -1.28305397e-02,  3.88228542e-04
    1230,  1.86463500e-03, -1.26196020e-02,  1.85037171e-20
    1231,  1.98088504e-03, -1.26655468e-02,  3.70074342e-20
    1232,  2.09713508e-03, -1.27114916e-02,  5.55111512e-20
    1233,  2.21338512e-03, -1.27574365e-02,  7.40148683e-20
    1234,  2.32963516e-03, -1.28033813e-02,  9.71445147e-20
    1235,  2.44588521e-03, -1.28493261e-02,  1.11022303e-19
    1236,  1.85671275e-03, -1.26164709e-02, -2.73038090e-04
    1237,  1.96504054e-03, -1.26592847e-02, -2.96076181e-04
    1238,  2.07336833e-03, -1.27020984e-02, -3.19114271e-04
    1239,  2.18169612e-03, -1.27449122e-02, -3.42152361e-04
    1240,  2.29002390e-03, -1.27877260e-02, -3.65190451e-04
    1241,  2.39835170e-03, -1.28305397e-02, -3.88228542e-04
    1242,  1.83348588e-03, -1.26072911e-02, -5.41666654e-04
    1243,  1.91858681e-03, -1.26409250e-02, -5.83333308e-04
    1244,  2.00368773e-03, -1.26745590e-02, -6.24999962e-04
    1245,  2.08878866e-03, -1.27081929e-02, -6.66666616e-04
    1246,  2.17388957e-03, -1.27418269e-02, -7.08333270e-04
    1247,  2.25899050e-03, -1.27754608e-02, -7.49999924e-04
    1248,  1.79653728e-03, -1.25926881e-02, -8.01776667e-04
    1249,  1.84468959e-03, -1.26117191e-02, -8.53553333e-04
    1250,  1.89284191e-03, -1.26307500e-02, -9.05330000e-04
    1251,  1.94099423e-03, -1.26497810e-02, -9.57106667e-04
    1252,  1.98914654e-03, -1.26688119e-02, -1.00888333e-03
    1253,  2.03729886e-03, -1.26878429e-02, -1.06066000e-03
    1254,  2.72895530e-03, -9.57777304e-03,  5.41666654e-04
    1255,  2.81896254e-03, -9.59426871e-03,  5.83333308e-04
    1256,  2.90896977e-03, -9.61076438e-03,  6.24999962e-04
    1257,  2.99897700e-03, -9.62726004e-03,  6.66666616e-04
    1258,  3.08898423e-03, -9.64375571e-03,  7.08333270e-04
    1259,  3.17899147e-03, -9.66025138e-03,  7.49999924e-04
    1260,  2.75352127e-03, -9.58227526e-03,  2.73038090e-04
    1261,  2.86809446e-03, -9.60327314e-03,  2.96076181e-04
    1262,  2.98266765e-03, -9.62427102e-03,  3.19114271e-04
    1263,  3.09724084e-03, -9.64526890e-03,  3.42152361e-04
    1264,  3.21181403e-03, -9.66626678e-03,  3.65190451e-04
    1265,  3.32638723e-03, -9.68726467e-03,  3.88228542e-04
    1266,  2.76190026e-03, -9.58381088e-03,  1.85037171e-20
    1267,  2.88485244e-03, -9.60634438e-03,  3.70074342e-20
    1268,  3.00780463e-03, -9.62887789e-03,  5.55111512e-20
    1269,  3.13075681e-03, -9.65141139e-03,  7.40148683e-20
    1270,  3.25370900e-03, -9.67394489e-03,  7.86407976e-20
    1271,  3.37666118e-03, -9.69647839e-03,  1.11022303e-19
    1272,  2.75352127e-03, -9.58227526e-03, -2.73038090e-04
    1273,  2.86809446e-03, -9.60327314e-03, -2.96076181e-04
    1274,  2.98266765e-03, -9.62427102e-03, -3.19114271e-04
    1275,  3.09724084e-03, -9.64526890e-03, -3.42152361e-04
    1276,  3.21181403e-03, -9.66626678e-03, -3.65190451e-04
    1277,  3.32638723e-03, -9.68726467e-03, -3.88228542e-04
    1278,  2.72895530e-03, -9.57777304e-03, -5.41666654e-04
    1279,  2.81896254e-03, -9.59426871e-03, -5.83333308e-04
    1280,  2.90896977e-03, -9.61076438e-03, -6.24999962e-04
    1281,  2.99897700e-03, -9.62726004e-03, -6.66666616e-04
    1282,  3.08898423e-03, -9.64375571e-03, -7.08333270e-04
    1283,  3.17899147e-03, -9.66025138e-03, -7.49999924e-04
    1284,  2.68987651e-03, -9.57061106e-03, -8.01776667e-04
    1285,  2.74080494e-03, -9.57994473e-03, -8.53553333e-04
    1286,  2.79173338e-03, -9.58927841e-03, -9.05330000e-04
    1287,  2.84266181e-03, -9.59861209e-03, -9.57106667e-04
    1288,  2.89359024e-03, -9.60794576e-03, -1.00888333e-03
    1289,  2.94451868e-03, -9.61727944e-03, -1.06066000e-03
    1290,  2.89689362e-03, -6.37183660e-03,  5.41666654e-04
    1291,  2.98810976e-03, -6.36455481e-03,  5.83333308e-04
    1292,  3.07932591e-03, -6.35727303e-03,  6.24999962e-04
    1293,  3.17054205e-03, -6.34999124e-03,  6.66666616e-04
    1294,  3.26175819e-03, -6.34270945e-03,  7.08333270e-04
    1295,  3.35297434e-03, -6.33542766e-03,  7.49999924e-04
    1296,  2.92178953e-03, -6.36984916e-03,  2.73038090e-04
    1297,  3.03790159e-03, -6.36057993e-03,  2.96076181e-04
    1298,  3.15401365e-03, -6.35131070e-03,  3.19114271e-04
    1299,  3.27012570e-03, -6.34204147e-03,  3.42152361e-04
    1300,  3.38623775e-03, -6.33277224e-03,  3.65190451e-04
    1301,  3.50234982e-03, -6.32350301e-03,  3.88228542e-04
    1302,  2.93028106e-03, -6.36917128e-03,  1.85037171e-20
    1303,  3.05488465e-03, -6.35922417e-03,  3.70074342e-20
    1304,  3.17948824e-03, -6.34927706e-03,  5.55111512e-20
    1305,  3.30409183e-03, -6.33932995e-03,  7.40148683e-20
    1306,  3.42869542e-03, -6.32938284e-03,  9.71445147e-20
    1307,  3.55329901e-03, -6.31943573e-03,  1.11022303e-19
    1308,  2.92178953e-03, -6.36984916e-03, -2.73038090e-04
    1309,  3.03790159e-03, -6.36057993e-03, -2.96076181e-04
    1310,  3.15401365e-03, -6.35131070e-03, -3.19114271e-04
    1311,  3.27012570e-03, -6.34204147e-03, -3.42152361e-04
    1312,  3.38623775e-03, -6.33277224e-03, -3.65190451e-04
    1313,  3.50234982e-03, -6.32350301e-03, -3.88228542e-04
    1314,  2.89689362e-03, -6.37183660e-03, -5.41666654e-04
    1315,  2.98810976e-03, -6.36455481e-03, -5.83333308e-04
    1316,  3.07932591e-03, -6.35727303e-03, -6.24999962e-04
    1317,  3.17054205e-03, -6.34999124e-03, -6.66666616e-04
    1318,  3.26175819e-03, -6.34270945e-03, -7.08333270e-04
    1319,  3.35297434e-03, -6.33542766e-03, -7.49999924e-04
    1320,  2.85728994e-03, -6.37499817e-03, -8.01776667e-04
    1321,  2.90890241e-03, -6.37087794e-03, -8.53553333e-04
    1322,  2.96051488e-03, -6.36675771e-03, -9.05330000e-04
    1323,  3.01212735e-03, -6.36263749e-03, -9.57106667e-04
    1324,  3.06373981e-03, -6.35851726e-03, -1.00888333e-03
    1325,  3.11535228e-03, -6.35439704e-03, -1.06066000e-03
    1326,  2.25846458e-03, -3.24844726e-03,  5.41666654e-04
    1327,  2.34556255e-03, -3.22038746e-03,  5.83333308e-04
    1328,  2.43266052e-03, -3.19232766e-03,  6.24999962e-04
    1329,  2.51975850e-03, -3.16426786e-03,  6.66666616e-04
    1330,  2.60685647e-03, -3.13620806e-03,  7.08333270e-04
    1331,  2.69395444e-03, -3.10814826e-03,  7.49999924e-04
    1332,  2.28223651e-03, -3.24078881e-03,  2.73038090e-04
    1333,  2.39310641e-03, -3.20507056e-03,  2.96076181e-04
    1334,  2.50397631e-03, -3.16935230e-03,  3.19114271e-04
    1335,  2.61484621e-03, -3.13363405e-03,  3.42152361e-04
    1336,  2.72571610e-03, -3.09791580e-03,  3.65190451e-04
    1337,  2.83658601e-03, -3.06219755e-03,  3.88228542e-04
    1338,  2.29034467e-03, -3.23817665e-03,  1.85037171e-20
    1339,  2.40932273e-03, -3.19984625e-03,  3.70074342e-20
    1340,  2.52830079e-03, -3.16151584e-03,  5.55111512e-20
    1341,  2.64727885e-03, -3.12318543e-03,  7.40148683e-20
    1342,  2.76625692e-03, -3.08485503e-03,  7.40148683e-20
    1343,  2.88523498e-03, -3.04652462e-03,  1.11022303e-19
    1344,  2.28223651e-03, -3.24078881e-03, -2.73038090e-04
    1345,  2.39310641e-03, -3.20507056e-03, -2.96076181e-04
    1346,  2.50397631e-03, -3.16935230e-03, -3.19114271e-04
    1347,  2.61484621e-03, -3.13363405e-03, -3.42152361e-04
    1348,  2.72571610e-03, -3.09791580e-03, -3.65190451e-04
    1349,  2.83658601e-03, -3.06219755e-03, -3.88228542e-04
    1350,  2.25846458e-03, -3.24844726e-03, -5.41666654e-04
    1351,  2.34556255e-03, -3.22038746e-03, -5.83333308e-04
    1352,  2.43266052e-03, -3.19232766e-03, -6.24999962e-04
    1353,  2.51975850e-03, -3.16426786e-03, -6.66666616e-04
    1354,  2.60685647e-03, -3.13620806e-03, -7.08333270e-04
    1355,  2.69395444e-03, -3.10814826e-03, -7.49999924e-04
    1356,  2.22064891e-03, -3.26063009e-03, -8.01776667e-04
    1357,  2.26993121e-03, -3.24475313e-03, -8.53553333e-04
    1358,  2.31921351e-03, -3.22887616e-03, -9.05330000e-04
    1359,  2.36849581e-03, -3.21299920e-03, -9.57106667e-04
    1360,  2.41777810e-03, -3.19712223e-03, -1.00888333e-03
    1361,  2.46706040e-03, -3.18124527e-03, -1.06066000e-03
    1362,  1.10140374e-03, -3.74489625e-04,  5.41666654e-04
    1363,  1.18455946e-03, -3.36298855e-04,  5.83333308e-04
    1364,  1.26771519e-03, -2.98108085e-04,  6.24999962e-04
    1365,  1.35087092e-03, -2.59917314e-04,  6.66666616e-04
    1366,  1.43402664e-03, -2.21726546e-04,  7.08333270e-04
    1367,  1.51718236e-03, -1.83535775e-04,  7.49999924e-04
    1368,  1.12409969e-03, -3.64066097e-04,  2.73038090e-04
    1369,  1.22995138e-03, -3.15451798e-04,  2.96076181e-04
    1370,  1.33580306e-03, -2.66837499e-04,  3.19114271e-04
    1371,  1.44165474e-03, -2.18223201e-04,  3.42152361e-04
    1372,  1.54750642e-03, -1.69608903e-04,  3.65190451e-04
    1373,  1.65335811e-03, -1.20994602e-04,  3.88228542e-04
    1374,  1.13184086e-03, -3.60510825e-04,  1.85037171e-20
    1375,  1.24543371e-03, -3.08341255e-04,  3.70074342e-20
    1376,  1.35902657e-03, -2.56171684e-04,  5.55111512e-20
    1377,  1.47261942e-03, -2.04002114e-04,  7.40148683e-20
    1378,  1.58621227e-03, -1.51832544e-04,  9.71445147e-20
    1379,  1.69980512e-03, -9.96629735e-05,  1.11022303e-19
    1380,  1.12409969e-03, -3.64066097e-04, -2.73038090e-04
    1381,  1.22995138e-03, -3.15451798e-04, -2.96076181e-04
    1382,  1.33580306e-03, -2.66837499e-04, -3.19114271e-04
    1383,  1.44165474e-03, -2.18223201e-04, -3.42152361e-04
    1384,  1.54750642e-03, -1.69608903e-04, -3.65190451e-04
    1385,  1.65335811e-03, -1.20994602e-04, -3.88228542e-04
    1386,  1.10140374e-03, -3.74489625e-04, -5.41666654e-04
    1387,  1.18455946e-03, -3.36298855e-04, -5.83333308e-04
    1388,  1.26771519e-03, -2.98108085e-04, -6.24999962e-04
    1389,  1.35087092e-03, -2.59917314e-04, -6.66666616e-04
    1390,  1.43402664e-03, -2.21726546e-04, -7.08333270e-04
    1391,  1.51718236e-03, -1.83535775e-04, -7.49999924e-04
    1392,  1.06529968e-03, -3.91071064e-04, -8.01776667e-04
    1393,  1.11235136e-03, -3.69461732e-04, -8.53553333e-04
    1394,  1.15940303e-03, -3.47852401e-04, -9.05330000e-04
    1395,  1.20645471e-03, -3.26243069e-04, -9.57106667e-04
    1396,  1.25350638e-03, -3.04633739e-04, -1.00888333e-03
    1397,  1.30055805e-03, -2.83024406e-04, -1.06066000e-03
    1398,  4.90916706e-04, -2.91224622e-02, -8.41506337e-04
    1399,  5.28679519e-04, -2.91048531e-02, -9.33012674e-04
    1400,  5.66442332e-04, -2.90872441e-02, -1.02451901e-03
    1401,  6.04205145e-04, -2.90696350e-02, -1.11602535e-03
    1402,  6.41967958e-04, -2.90520259e-02, -1.20753168e-03
    1403,  6.79730771e-04, -2.90344168e-02, -1.29903802e-03
    1404,  2.47456547e-04, -2.92359896e-02, -8.66481453e-04
    1405,  2.68336148e-04, -2.92262533e-02, -9.82962906e-04
    1406,  2.89215749e-04, -2.92165169e-02, -1.09944436e-03
    1407,  3.10095349e-04, -2.92067806e-02, -1.21592581e-03
    1408,  3.30974949e-04, -2.91970443e-02, -1.33240726e-03
    1409,  3.51854551e-04, -2.91873080e-02, -1.44888872e-03
    1410,  6.12091300e-18, -2.93513805e-02, -8.75000000e-04
    1411,  6.13768306e-18, -2.93513805e-02, -1.00000000e-03
    1412,  6.15445312e-18, -2.93513805e-02, -1.12500000e-03
    1413,  6.17122319e-18, -2.93513805e-02, -1.25000000e-03
    1414,  6.19218576e-18, -2.93513805e-02, -1.37500000e-03
    1415,  6.20476331e-18, -2.93513805e-02, -1.50000000e-03
    1416, -2.47456547e-04, -2.94667713e-02, -8.66481453e-04
    1417, -2.68336148e-04, -2.94765077e-02, -9.82962906e-04
    1418, -2.89215749e-04, -2.94862440e-02, -1.09944436e-03
    1419, -3.10095349e-04, -2.94959803e-02, -1.21592581e-03
    1420, -3.30974949e-04, -2.95057166e-02, -1.33240726e-03
    1421, -3.51854551e-04, -2.95154529e-02, -1.44888872e-03
    1422, -4.90916706e-04, -2.95802987e-02, -8.41506337e-04
    1423, -5.28679519e-04, -2.95979078e-02, -9.33012674e-04
    1424, -5.66442332e-04, -2.96155169e-02, -1.02451901e-03
    1425, -6.04205145e-04, -2.96331259e-02, -1.11602535e-03
    1426, -6.41967958e-04, -2.96507350e-02, -1.20753168e-03
    1427, -6.79730771e-04, -2.96683441e-02, -1.29903802e-03
    1428, -7.26656437e-04, -2.96902259e-02, -8.01776667e-04
    1429, -7.73582032e-04, -2.97121077e-02, -8.53553333e-04
    1430, -8.20507629e-04, -2.97339894e-02, -9.05330000e-04
    1431, -8.67433225e-04, -2.97558712e-02, -9.57106667e-04
    1432, -9.14358818e-04, -2.97777530e-02, -1.00888333e-03
    1433, -9.61284417e-04, -2.97996347e-02, -1.06066000e-03
    1434, -6.86907568e-04, -2.64109519e-02, -8.41506337e-04
    1435, -6.47870038e-04, -2.63963854e-02, -9.33012674e-04
    1436, -6.08832509e-04, -2.63818190e-02, -1.02451901e-03
    1437, -5.69794979e-04, -2.63672525e-02, -1.11602535e-03
    1438, -5.30757450e-04, -2.63526861e-02, -1.20753168e-03
    1439, -4.91719920e-04, -2.63381196e-02, -1.29903802e-03
    1440, -9.38585937e-04, -2.65048630e-02, -8.66481453e-04
    1441, -9.17001527e-04, -2.64968090e-02, -9.82962906e-04
    1442, -8.95417117e-04, -2.64887550e-02, -1.09944436e-03
    1443, -8.73832708e-04, -2.64807010e-02, -1.21592581e-03
    1444, -8.52248298e-04, -2.64726470e-02, -1.33240726e-03
    1445, -8.30663888e-04, -2.64645930e-02, -1.44888872e-03
    1446, -1.19439560e-03, -2.66003157e-02, -8.75000000e-04
    1447, -1.19439560e-03, -2.66003157e-02, -1.00000000e-03
    1448, -1.19439560e-03, -2.66003157e-02, -1.12500000e-03
    1449, -1.19439560e-03, -2.66003157e-02, -1.25000000e-03
    1450, -1.19439560e-03, -2.66003157e-02, -1.37500000e-03
    1451, -1.19439560e-03, -2.66003157e-02, -1.50000000e-03
    1452, -1.45020525e-03, -2.66957684e-02, -8.66481453e-04
    1453, -1.47178966e-03, -2.67038224e-02, -9.82962906e-04
    1454, -1.49337407e-03, -2.67118764e-02, -1.09944436e-03
    1455, -1.51495848e-03, -2.67199303e-02, -1.21592581e-03
    1456, -1.53654289e-03, -2.67279843e-02, -1.33240726e-03
    1457, -1.55812730e-03, -2.67360383e-02, -1.44888872e-03
    1458, -1.70188362e-03, -2.67896795e-02, -8.41506337e-04
    1459, -1.74092115e-03, -2.68042459e-02, -9.33012674e-04
    1460, -1.77995868e-03, -2.68188124e-02, -1.02451901e-03
    1461, -1.81899621e-03, -2.68333788e-02, -1.11602535e-03
    1462, -1.85803374e-03, -2.68479453e-02, -1.20753168e-03
    1463, -1.89707127e-03, -2.68625117e-02, -1.29903802e-03
    1464, -1.94558095e-03, -2.68806126e-02, -8.01776667e-04
    1465, -1.99409056e-03, -2.68987134e-02, -8.53553333e-04
    1466, -2.04260017e-03, -2.69168143e-02, -9.05330000e-04
    1467, -2.09110978e-03, -2.69349151e-02, -9.57106667e-04
    1468, -2.13961939e-03, -2.69530160e-02, -1.00888333e-03
    1469, -2.18812901e-03, -2.69711168e-02, -1.06066000e-03
    1470, -1.43116266e-03, -2.36271713e-02, -8.41506337e-04
    1471, -1.38995338e-03, -2.36210146e-02, -9.33012674e-04
    1472, -1.34874410e-03, -2.36148579e-02, -1.02451901e-03
    1473, -1.30753482e-03, -2.36087011e-02, -1.11602535e-03
    1474, -1.26632555e-03, -2.36025444e-02, -1.20753168e-03
    1475, -1.22511627e-03, -2.35963877e-02, -1.29903802e-03
    1476, -1.69684249e-03, -2.36668643e-02, -8.66481453e-04
    1477, -1.67405729e-03, -2.36634602e-02, -9.82962906e-04
    1478, -1.65127209e-03, -2.36600560e-02, -1.09944436e-03
    1479, -1.62848689e-03, -2.36566519e-02, -1.21592581e-03
    1480, -1.60570168e-03, -2.36532478e-02, -1.33240726e-03
    1481, -1.58291648e-03, -2.36498436e-02, -1.44888872e-03
    1482, -1.96688344e-03, -2.37072089e-02, -8.75000000e-04
    1483, -1.96688344e-03, -2.37072089e-02, -1.00000000e-03
    1484, -1.96688344e-03, -2.37072089e-02, -1.12500000e-03
    1485, -1.96688344e-03, -2.37072089e-02, -1.25000000e-03
    1486, -1.96688344e-03, -2.37072089e-02, -1.37500000e-03
    1487, -1.96688344e-03, -2.37072089e-02, -1.50000000e-03
    1488, -2.23692439e-03, -2.37475534e-02, -8.66481453e-04
    1489, -2.25970959e-03, -2.37509576e-02, -9.82962906e-04
    1490, -2.28249479e-03, -2.37543617e-02, -1.09944436e-03
    1491, -2.30527999e-03, -2.37577659e-02, -1.21592581e-03
    1492, -2.32806519e-03, -2.37611700e-02, -1.33240726e-03
    1493, -2.35085040e-03, -2.37645742e-02, -1.44888872e-03
    1494, -2.50260422e-03, -2.37872464e-02, -8.41506337e-04
    1495, -2.54381350e-03, -2.37934032e-02, -9.33012674e-04
    1496, -2.58502277e-03, -2.37995599e-02, -1.02451901e-03
    1497, -2.62623205e-03, -2.38057166e-02, -1.11602535e-03
    1498, -2.66744133e-03, -2.38118734e-02, -1.20753168e-03
    1499, -2.70865061e-03, -2.38180301e-02, -1.29903802e-03
    1500, -2.75985900e-03, -2.38256807e-02, -8.01776667e-04
    1501, -2.81106731e-03, -2.38333313e-02, -8.53553333e-04
    1502, -2.86227563e-03, -2.38409819e-02, -9.05330000e-04
    1503, -2.91348394e-03, -2.38486325e-02, -9.57106667e-04
    1504, -2.96469225e-03, -2.38562831e-02, -1.00888333e-03
    1505, -3.01590057e-03, -2.38639337e-02, -1.06066000e-03
    1506, -1.48116373e-03, -2.07782061e-02, -8.41506337e-04
    1507, -1.43976927e-03, -2.07829609e-02, -9.33012674e-04
    1508, -1.39837480e-03, -2.07877156e-02, -1.02451901e-03
    1509, -1.35698033e-03, -2.07924704e-02, -1.11602535e-03
    1510, -1.31558586e-03, -2.07972251e-02, -1.20753168e-03
    1511, -1.27419139e-03, -2.08019799e-02, -1.29903802e-03
    1512, -1.74803750e-03, -2.07475518e-02, -8.66481453e-04
    1513, -1.72514991e-03, -2.07501807e-02, -9.82962906e-04
    1514, -1.70226231e-03, -2.07528097e-02, -1.09944436e-03
    1515, -1.67937472e-03, -2.07554387e-02, -1.21592581e-03
    1516, -1.65648712e-03, -2.07580676e-02, -1.33240726e-03
    1517, -1.63359952e-03, -2.07606966e-02, -1.44888872e-03
    1518, -2.01929199e-03, -2.07163942e-02, -8.75000000e-04
    1519, -2.01929199e-03, -2.07163942e-02, -1.00000000e-03
    1520, -2.01929199e-03, -2.07163942e-02, -1.12500000e-03
    1521, -2.01929199e-03, -2.07163942e-02, -1.25000000e-03
    1522, -2.01929199e-03, -2.07163942e-02, -1.37500000e-03
    1523, -2.01929199e-03, -2.07163942e-02, -1.50000000e-03
    1524, -2.29054648e-03, -2.06852367e-02, -8.66481453e-04
    1525, -2.31343408e-03, -2.06826077e-02, -9.82962906e-04
    1526, -2.33632167e-03, -2.06799787e-02, -1.09944436e-03
    1527, -2.35920927e-03, -2.06773497e-02, -1.21592581e-03
    1528, -2.38209687e-03, -2.06747208e-02, -1.33240726e-03
    1529, -2.40498446e-03, -2.06720918e-02, -1.44888872e-03
    1530, -2.55742025e-03, -2.06545823e-02, -8.41506337e-04
    1531, -2.59881472e-03, -2.06498276e-02, -9.33012674e-04
    1532, -2.64020919e-03, -2.06450728e-02, -1.02451901e-03
    1533, -2.68160366e-03, -2.06403180e-02, -1.11602535e-03
    1534, -2.72299813e-03, -2.06355633e-02, -1.20753168e-03
    1535, -2.76439260e-03, -2.06308085e-02, -1.29903802e-03
    1536, -2.81583112e-03, -2.06249001e-02, -8.01776667e-04
    1537, -2.86726955e-03, -2.06189916e-02, -8.53553333e-04
    1538, -2.91870799e-03, -2.06130831e-02, -9.05330000e-04
    1539, -2.97014643e-03, -2.06071747e-02, -9.57106667e-04
    1540, -3.02158487e-03, -2.06012662e-02, -1.00888333e-03
    1541, -3.07302331e-03, -2.05953578e-02, -1.06066000e-03
    1542, -8.18780845e-04, -1.79813198e-02, -8.41506337e-04
    1543, -7.79437528e-04, -1.79950389e-02, -9.33012674e-04
    1544, -7.40094211e-04, -1.80087580e-02, -1.02451901e-03
    1545, -7.00750894e-04, -1.80224771e-02, -1.11602535e-03
    1546, -6.61407577e-04, -1.80361962e-02, -1.20753168e-03
    1547, -6.22064260e-04, -1.80499153e-02, -1.29903802e-03
    1548, -1.07243065e-03, -1.78928717e-02, -8.66481453e-04
    1549, -1.05067717e-03, -1.79004571e-02, -9.82962906e-04
    1550, -1.02892368e-03, -1.79080426e-02, -1.09944436e-03
    1551, -1.00717020e-03, -1.79156281e-02, -1.21592581e-03
    1552, -9.85416716e-04, -1.79232136e-02, -1.33240726e-03
    1553, -9.63663232e-04, -1.79307991e-02, -1.44888872e-03
    1554, -1.33024411e-03, -1.78029716e-02, -8.75000000e-04
    1555, -1.33024411e-03, -1.78029716e-02, -1.00000000e-03
    1556, -1.33024411e-03, -1.78029716e-02, -1.12500000e-03
    1557, -1.33024411e-03, -1.78029716e-02, -1.25000000e-03
    1558, -1.33024411e-03, -1.78029716e-02, -1.37500000e-03
    1559, -1.33024411e-03, -1.78029716e-02, -1.50000000e-03
    1560, -1.58805757e-03, -1.77130716e-02, -8.66481453e-04
    1561, -1.60981105e-03, -1.77054861e-02, -9.82962906e-04
    1562, -1.63156454e-03, -1.76979006e-02, -1.09944436e-03
    1563, -1.65331802e-03, -1.76903151e-02, -1.21592581e-03
    1564, -1.67507150e-03, -1.76827296e-02, -1.33240726e-03
    1565, -1.69682499e-03, -1.76751442e-02, -1.44888872e-03
    1566, -1.84170737e-03, -1.76246234e-02, -8.41506337e-04
    1567, -1.88105069e-03, -1.76109043e-02, -9.33012674e-04
    1568, -1.92039401e-03, -1.75971852e-02, -1.02451901e-03
    1569, -1.95973733e-03, -1.75834661e-02, -1.11602535e-03
    1570, -1.99908064e-03, -1.75697470e-02, -1.20753168e-03
    1571, -2.03842396e-03, -1.75560279e-02, -1.29903802e-03
    1572, -2.08731363e-03, -1.75389800e-02, -8.01776667e-04
    1573, -2.13620322e-03, -1.75219321e-02, -8.53553333e-04
    1574, -2.18509281e-03, -1.75048842e-02, -9.05330000e-04
    1575, -2.23398241e-03, -1.74878363e-02, -9.57106667e-04
    1576, -2.28287200e-03, -1.74707884e-02, -1.00888333e-03
    1577, -2.33176160e-03, -1.74537405e-02, -1.06066000e-03
    1578,  3.22376871e-04, -1.52665003e-02, -8.41506337e-04
    1579,  3.60165212e-04, -1.52840545e-02, -9.33012674e-04
    1580,  3.97953554e-04, -1.53016088e-02, -1.02451901e-03
    1581,  4.35741895e-04, -1.53191630e-02, -1.11602535e-03
    1582,  4.73530236e-04, -1.53367173e-02, -1.20753168e-03
    1583,  5.11318578e-04, -1.53542715e-02, -1.29903802e-03
    1584,  7.87521274e-05, -1.51533266e-02, -8.66481453e-04
    1585,  9.96458437e-05, -1.51630326e-02, -9.82962906e-04
    1586,  1.20539559e-04, -1.51727386e-02, -1.09944436e-03
    1587,  1.41433274e-04, -1.51824446e-02, -1.21592581e-03
    1588,  1.62326990e-04, -1.51921506e-02, -1.33240726e-03
    1589,  1.83220706e-04, -1.52018565e-02, -1.44888872e-03
    1590, -1.68871705e-04, -1.50382951e-02, -8.75000000e-04
    1591, -1.68871705e-04, -1.50382951e-02, -1.00000000e-03
    1592, -1.68871705e-04, -1.50382951e-02, -1.12500000e-03
    1593, -1.68871705e-04, -1.50382951e-02, -1.25000000e-03
    1594, -1.68871705e-04, -1.50382951e-02, -1.37500000e-03
    1595, -1.68871705e-04, -1.50382951e-02, -1.50000000e-03
    1596, -4.16495538e-04, -1.49232637e-02, -8.66481453e-04
    1597, -4.37389254e-04, -1.49135577e-02, -9.82962906e-04
    1598, -4.58282970e-04, -1.49038517e-02, -1.09944436e-03
    1599, -4.79176685e-04, -1.48941457e-02, -1.21592581e-03
    1600, -5.00070401e-04, -1.48844397e-02, -1.33240726e-03
    1601, -5.20964117e-04, -1.48747337e-02, -1.44888872e-03
    1602, -6.60120281e-04, -1.48100900e-02, -8.41506337e-04
    1603, -6.97908623e-04, -1.47925357e-02, -9.33012674e-04
    1604, -7.35696964e-04, -1.47749815e-02, -1.02451901e-03
    1605, -7.73485306e-04, -1.47574272e-02, -1.11602535e-03
    1606, -8.11273647e-04, -1.47398730e-02, -1.20753168e-03
    1607, -8.49061988e-04, -1.47223188e-02, -1.29903802e-03
    1608, -8.96019376e-04, -1.47005051e-02, -8.01776667e-04
    1609, -9.42976695e-04, -1.46786915e-02, -8.53553333e-04
    1610, -9.89934014e-04, -1.46568779e-02, -9.05330000e-04
    1611, -1.03689133e-03, -1.46350643e-02, -9.57106667e-04
    1612, -1.08384865e-03, -1.46132507e-02, -1.00888333e-03
    1613, -1.13080597e-03, -1.45914371e-02, -1.06066000e-03
    1614,  1.55463488e-03, -1.24970824e-02, -8.41506337e-04
    1615,  1.59338488e-03, -1.25123973e-02, -9.33012674e-04
    1616,  1.63213488e-03, -1.25277123e-02, -1.02451901e-03
    1617,  1.67088489e-03, -1.25430272e-02, -1.11602535e-03
    1618,  1.70963489e-03, -1.25583422e-02, -1.20753168e-03
    1619,  1.74838489e-03, -1.25736571e-02, -1.29903802e-03
    1620,  1.30481023e-03, -1.23983456e-02, -8.66481453e-04
    1621,  1.32623566e-03, -1.24068135e-02, -9.82962906e-04
    1622,  1.34766109e-03, -1.24152813e-02, -1.09944436e-03
    1623,  1.36908652e-03, -1.24237492e-02, -1.21592581e-03
    1624,  1.39051195e-03, -1.24322170e-02, -1.33240726e-03
    1625,  1.41193739e-03, -1.24406849e-02, -1.44888872e-03
    1626,  1.05088472e-03, -1.22979881e-02, -8.75000000e-04
    1627,  1.05088472e-03, -1.22979881e-02, -1.00000000e-03
    1628,  1.05088472e-03, -1.22979881e-02, -1.12500000e-03
    1629,  1.05088472e-03, -1.22979881e-02, -1.25000000e-03
    1630,  1.05088472e-03, -1.22979881e-02, -1.37500000e-03
    1631,  1.05088472e-03, -1.22979881e-02, -1.50000000e-03
    1632,  7.96959203e-04, -1.21976306e-02, -8.66481453e-04
    1633,  7.75533771e-04, -1.21891627e-02, -9.82962906e-04
    1634,  7.54108339e-04, -1.21806949e-02, -1.09944436e-03
    1635,  7.32682908e-04, -1.21722270e-02, -1.21592581e-03
    1636,  7.11257477e-04, -1.21637592e-02, -1.33240726e-03
    1637,  6.89832045e-04, -1.21552913e-02, -1.44888872e-03
    1638,  5.47134550e-04, -1.20988938e-02, -8.41506337e-04
    1639,  5.08384549e-04, -1.20835789e-02, -9.33012674e-04
    1640,  4.69634547e-04, -1.20682640e-02, -1.02451901e-03
    1641,  4.30884545e-04, -1.20529490e-02, -1.11602535e-03
    1642,  3.92134543e-04, -1.20376341e-02, -1.20753168e-03
    1643,  3.53384541e-04, -1.20223191e-02, -1.29903802e-03
    1644,  3.05232153e-04, -1.20032881e-02, -8.01776667e-04
    1645,  2.57079837e-04, -1.19842572e-02, -8.53553333e-04
    1646,  2.08927520e-04, -1.19652262e-02, -9.05330000e-04
    1647,  1.60775203e-04, -1.19461953e-02, -9.57106667e-04
    1648,  1.12622889e-04, -1.19271643e-02, -1.00888333e-03
    1649,  6.44705692e-05, -1.19081333e-02, -1.06066000e-03
    1650,  2.43402775e-03, -9.52372154e-03, -8.41506337e-04
    1651,  2.47501180e-03, -9.53123270e-03, -9.33012674e-04
    1652,  2.51599585e-03, -9.53874387e-03, -1.02451901e-03
    1653,  2.55697990e-03, -9.54625503e-03, -1.11602535e-03
    1654,  2.59796395e-03, -9.55376620e-03, -1.20753168e-03
    1655,  2.63894800e-03, -9.56127736e-03, -1.29903802e-03
    1656,  2.16980000e-03, -9.47529640e-03, -8.66481453e-04
    1657,  2.19246067e-03, -9.47944943e-03, -9.82962906e-04
    1658,  2.21512134e-03, -9.48360246e-03, -1.09944436e-03
    1659,  2.23778201e-03, -9.48775549e-03, -1.21592581e-03
    1660,  2.26044267e-03, -9.49190852e-03, -1.33240726e-03
    1661,  2.28310334e-03, -9.49606155e-03, -1.44888872e-03
    1662,  1.90123496e-03, -9.42607636e-03, -8.75000000e-04
    1663,  1.90123496e-03, -9.42607636e-03, -1.00000000e-03
    1664,  1.90123496e-03, -9.42607636e-03, -1.12500000e-03
    1665,  1.90123496e-03, -9.42607636e-03, -1.25000000e-03
    1666,  1.90123496e-03, -9.42607636e-03, -1.37500000e-03
    1667,  1.90123496e-03, -9.42607636e-03, -1.50000000e-03
    1668,  1.63266992e-03, -9.37685632e-03, -8.66481453e-04
    1669,  1.61000926e-03, -9.37270329e-03, -9.82962906e-04
    1670,  1.58734859e-03, -9.36855026e-03, -1.09944436e-03
    1671,  1.56468792e-03, -9.36439723e-03, -1.21592581e-03
    1672,  1.54202725e-03, -9.36024420e-03, -1.33240726e-03
    1673,  1.51936658e-03, -9.35609117e-03, -1.44888872e-03
    1674,  1.36844217e-03, -9.32843118e-03, -8.41506337e-04
    1675,  1.32745812e-03, -9.32092002e-03, -9.33012674e-04
    1676,  1.28647408e-03, -9.31340885e-03, -1.02451901e-03
    1677,  1.24549003e-03, -9.30589769e-03, -1.11602535e-03
    1678,  1.20450598e-03, -9.29838652e-03, -1.20753168e-03
    1679,  1.16352193e-03, -9.29087536e-03, -1.29903802e-03
    1680,  1.11259342e-03, -9.28154167e-03, -8.01776667e-04
    1681,  1.06166498e-03, -9.27220799e-03, -8.53553333e-04
    1682,  1.01073655e-03, -9.26287431e-03, -9.05330000e-04
    1683,  9.59808115e-04, -9.25354063e-03, -9.57106667e-04
    1684,  9.08879684e-04, -9.24420696e-03, -1.00888333e-03
    1685,  8.57951247e-04, -9.23487328e-03, -1.06066000e-03
    1686,  2.59800481e-03, -6.39569691e-03, -8.41506337e-04
    1687,  2.63953933e-03, -6.39238121e-03, -9.33012674e-04
    1688,  2.68107385e-03, -6.38906550e-03, -1.02451901e-03
    1689,  2.72260836e-03, -6.38574980e-03, -1.11602535e-03
    1690,  2.76414288e-03, -6.38243410e-03, -1.20753168e-03
    1691,  2.80567740e-03, -6.37911840e-03, -1.29903802e-03
    1692,  2.33022815e-03, -6.41707353e-03, -8.66481453e-04
    1693,  2.35319318e-03, -6.41524023e-03, -9.82962906e-04
    1694,  2.37615821e-03, -6.41340693e-03, -1.09944436e-03
    1695,  2.39912324e-03, -6.41157363e-03, -1.21592581e-03
    1696,  2.42208827e-03, -6.40974033e-03, -1.33240726e-03
    1697,  2.44505330e-03, -6.40790703e-03, -1.44888872e-03
    1698,  2.05805594e-03, -6.43880105e-03, -8.75000000e-04
    1699,  2.05805594e-03, -6.43880105e-03, -1.00000000e-03
    1700,  2.05805594e-03, -6.43880105e-03, -1.12500000e-03
    1701,  2.05805594e-03, -6.43880105e-03, -1.25000000e-03
    1702,  2.05805594e-03, -6.43880105e-03, -1.37500000e-03
    1703,  2.05805594e-03, -6.43880105e-03, -1.50000000e-03
    1704,  1.78588373e-03, -6.46052856e-03, -8.66481453e-04
    1705,  1.76291870e-03, -6.46236186e-03, -9.82962906e-04
    1706,  1.73995367e-03, -6.46419516e-03, -1.09944436e-03
    1707,  1.71698864e-03, -6.46602846e-03, -1.21592581e-03
    1708,  1.69402362e-03, -6.46786176e-03, -1.33240726e-03
    1709,  1.67105858e-03, -6.46969506e-03, -1.44888872e-03
    1710,  1.51810707e-03, -6.48190519e-03, -8.41506337e-04
    1711,  1.47657255e-03, -6.48522089e-03, -9.33012674e-04
    1712,  1.43503804e-03, -6.48853659e-03, -1.02451901e-03
    1713,  1.39350352e-03, -6.49185229e-03, -1.11602535e-03
    1714,  1.35196900e-03, -6.49516799e-03, -1.20753168e-03
    1715,  1.31043448e-03, -6.49848370e-03, -1.29903802e-03
    1716,  1.25882194e-03, -6.50260393e-03, -8.01776667e-04
    1717,  1.20720947e-03, -6.50672415e-03, -8.53553333e-04
    1718,  1.15559700e-03, -6.51084438e-03, -9.05330000e-04
    1719,  1.10398454e-03, -6.51496460e-03, -9.57106667e-04
    1720,  1.05237207e-03, -6.51908483e-03, -1.00888333e-03
    1721,  1.00075960e-03, -6.52320505e-03, -1.06066000e-03
    1722,  1.97306983e-03, -3.34039107e-03, -8.41506337e-04
    1723,  2.01272917e-03, -3.32761427e-03, -9.33012674e-04
    1724,  2.05238851e-03, -3.31483748e-03, -1.02451901e-03
    1725,  2.09204785e-03, -3.30206068e-03, -1.11602535e-03
    1726,  2.13170719e-03, -3.28928388e-03, -1.20753168e-03
    1727,  2.17136653e-03, -3.27650708e-03, -1.29903802e-03
    1728,  1.71738258e-03, -3.42276421e-03, -8.66481453e-04
    1729,  1.73931080e-03, -3.41569973e-03, -9.82962906e-04
    1730,  1.76123902e-03, -3.40863526e-03, -1.09944436e-03
    1731,  1.78316724e-03, -3.40157078e-03, -1.21592581e-03
    1732,  1.80509545e-03, -3.39450631e-03, -1.33240726e-03
    1733,  1.82702367e-03, -3.38744183e-03, -1.44888872e-03
    1734,  1.45749824e-03, -3.50648949e-03, -8.75000000e-04
    1735,  1.45749824e-03, -3.50648949e-03, -1.00000000e-03
    1736,  1.45749824e-03, -3.50648949e-03, -1.12500000e-03
    1737,  1.45749824e-03, -3.50648949e-03, -1.25000000e-03
    1738,  1.45749824e-03, -3.50648949e-03, -1.37500000e-03
    1739,  1.45749824e-03, -3.50648949e-03, -1.50000000e-03
    1740,  1.19761390e-03, -3.59021478e-03, -8.66481453e-04
    1741,  1.17568568e-03, -3.59727925e-03, -9.82962906e-04
    1742,  1.15375746e-03, -3.60434373e-03, -1.09944436e-03
    1743,  1.13182924e-03, -3.61140820e-03, -1.21592581e-03
    1744,  1.10990102e-03, -3.61847268e-03, -1.33240726e-03
    1745,  1.08797280e-03, -3.62553715e-03, -1.44888872e-03
    1746,  9.41926650e-04, -3.67258791e-03, -8.41506337e-04
    1747,  9.02267308e-04, -3.68536471e-03, -9.33012674e-04
    1748,  8.62607966e-04, -3.69814151e-03, -1.02451901e-03
    1749,  8.22948624e-04, -3.71091831e-03, -1.11602535e-03
    1750,  7.83289283e-04, -3.72369511e-03, -1.20753168e-03
    1751,  7.43629941e-04, -3.73647190e-03, -1.29903802e-03
    1752,  6.94347569e-04, -3.75234889e-03, -8.01776667e-04
    1753,  6.45065270e-04, -3.76822586e-03, -8.53553333e-04
    1754,  5.95782970e-04, -3.78410282e-03, -9.05330000e-04
    1755,  5.46500670e-04, -3.79997979e-03, -9.57106667e-04
    1756,  4.97218374e-04, -3.81585675e-03, -1.00888333e-03
    1757,  4.47936072e-04, -3.83173372e-03, -1.06066000e-03
    1758,  8.28926580e-04, -4.99629685e-04, -8.41506337e-04
    1759,  8.66790852e-04, -4.82239833e-04, -9.33012674e-04
    1760,  9.04655125e-04, -4.64849982e-04, -1.02451901e-03
    1761,  9.42519397e-04, -4.47460130e-04, -1.11602535e-03
    1762,  9.80383669e-04, -4.30070279e-04, -1.20753168e-03
    1763,  1.01824794e-03, -4.12680427e-04, -1.29903802e-03
    1764,  5.84812304e-04, -6.11743579e-04, -8.66481453e-04
    1765,  6.05748003e-04, -6.02128480e-04, -9.82962906e-04
    1766,  6.26683702e-04, -5.92513382e-04, -1.09944436e-03
    1767,  6.47619401e-04, -5.82898284e-04, -1.21592581e-03
    1768,  6.68555099e-04, -5.73283186e-04, -1.33240726e-03
    1769,  6.89490799e-04, -5.63668088e-04, -1.44888872e-03
    1770,  3.36690902e-04, -7.25697818e-04, -8.75000000e-04
    1771,  3.36690902e-04, -7.25697818e-04, -1.00000000e-03
    1772,  3.36690902e-04, -7.25697818e-04, -1.12500000e-03
    1773,  3.36690902e-04, -7.25697818e-04, -1.25000000e-03
    1774,  3.36690902e-04, -7.25697818e-04, -1.37500000e-03
    1775,  3.36690902e-04, -7.25697818e-04, -1.50000000e-03
    1776,  8.85695002e-05, -8.39652056e-04, -8.66481453e-04
    1777,  6.76338006e-05, -8.49267155e-04, -9.82962906e-04
    1778,  4.66981020e-05, -8.58882253e-04, -1.09944436e-03
    1779,  2.57624033e-05, -8.68497351e-04, -1.21592581e-03
    1780,  4.82670458e-06, -8.78112449e-04, -1.33240726e-03
    1781, -1.61089950e-05, -8.87727547e-04, -1.44888872e-03
    1782, -1.55544776e-04, -9.51765950e-04, -8.41506337e-04
    1783, -1.93409049e-04, -9.69155802e-04, -9.33012674e-04
    1784, -2.31273321e-04, -9.86545653e-04, -1.02451901e-03
    1785, -2.69137593e-04, -1.00393550e-03, -1.11602535e-03
    1786, -3.07001866e-04, -1.02132536e-03, -1.20753168e-03
    1787, -3.44866138e-04, -1.03871521e-03, -1.29903802e-03
    1788, -3.91917881e-04, -1.06032457e-03, -8.01776667e-04
    1789, -4.38969554e-04, -1.08193390e-03, -8.53553333e-04
    1790, -4.86021228e-04, -1.10354323e-03, -9.05330000e-04
    1791, -5.33072902e-04, -1.12515257e-03, -9.57106667e-04
    1792, -5.80124572e-04, -1.14676190e-03, -1.00888333e-03
    1793, -6.27176249e-04, -1.16837123e-03, -1.06066000e-03
    1794, -7.62663746e-04, -2.97070164e-02, -5.41666654e-04
    1795, -8.45596652e-04, -2.97456887e-02, -5.83333308e-04
    1796, -9.28529557e-04, -2.97843609e-02, -6.24999962e-04
    1797, -1.01146247e-03, -2.98230331e-02, -6.66666616e-04
    1798, -1.09439536e-03, -2.98617054e-02, -7.08333270e-04
    1799, -1.17732827e-03, -2.99003776e-02, -7.49999924e-04
    1800, -7.85298888e-04, -2.97175713e-02, -2.73038090e-04
    1801, -8.90866936e-04, -2.97667985e-02, -2.96076181e-04
    1802, -9.96434985e-04, -2.98160257e-02, -3.19114271e-04
    1803, -1.10200303e-03, -2.98652529e-02, -3.42152361e-04
    1804, -1.20757108e-03, -2.99144801e-02, -3.65190451e-04
    1805, -1.31313913e-03, -2.99637073e-02, -3.88228542e-04
    1806, -7.93019314e-04, -2.97211714e-02, -1.85037171e-20
    1807, -9.06307787e-04, -2.97739987e-02, -3.70074342e-20
    1808, -1.01959626e-03, -2.98268260e-02, -5.55111512e-20
    1809, -1.13288473e-03, -2.98796533e-02, -7.40148683e-20
    1810, -1.24617321e-03, -2.99324806e-02, -9.71445147e-20
    1811, -1.35946168e-03, -2.99853078e-02, -1.11022303e-19
    1812, -7.85298888e-04, -2.97175713e-02,  2.73038090e-04
    1813, -8.90866936e-04, -2.97667985e-02,  2.96076181e-04
    1814, -9.96434985e-04, -2.98160257e-02,  3.19114271e-04
    1815, -1.10200303e-03, -2.98652529e-02,  3.42152361e-04
    1816, -1.20757108e-03, -2.99144801e-02,  3.65190451e-04
    1817, -1.31313913e-03, -2.99637073e-02,  3.88228542e-04
    1818, -7.62663746e-04, -2.97070164e-02,  5.41666654e-04
    1819, -8.45596652e-04, -2.97456887e-02,  5.83333308e-04
    1820, -9.28529557e-04, -2.97843609e-02,  6.24999962e-04
    1821, -1.01146247e-03, -2.98230331e-02,  6.66666616e-04
    1822, -1.09439536e-03, -2.98617054e-02,  7.08333270e-04
    1823, -1.17732827e-03, -2.99003776e-02,  7.49999924e-04
    1824, -1.98280372e-03, -2.68945019e-02, -5.41666654e-04
    1825, -2.06853610e-03, -2.69264920e-02, -5.83333308e-04
    1826, -2.15426848e-03, -2.69584821e-02, -6.24999962e-04
    1827, -2.24000086e-03, -2.69904723e-02, -6.66666616e-04
    1828, -2.32573323e-03, -2.70224624e-02, -7.08333270e-04
    1829, -2.41146561e-03, -2.70544525e-02, -7.49999924e-04
    1830, -2.00620293e-03, -2.69032330e-02, -2.73038090e-04
    1831, -2.11533452e-03, -2.69439543e-02, -2.96076181e-04
    1832, -2.22446611e-03, -2.69846756e-02, -3.19114271e-04
    1833, -2.33359770e-03, -2.70253970e-02, -3.42152361e-04
    1834, -2.44272928e-03, -2.70661183e-02, -3.65190451e-04
    1835, -2.55186088e-03, -2.71068396e-02, -3.88228542e-04
    1836, -2.01418397e-03, -2.69062111e-02, -1.85037171e-20
    1837, -2.13129659e-03, -2.69499104e-02, -3.70074342e-20
    1838, -2.24840922e-03, -2.69936098e-02, -5.55111512e-20
    1839, -2.36552184e-03, -2.70373091e-02, -7.40148683e-20
    1840, -2.48263446e-03, -2.70810085e-02, -9.71445147e-20
    1841, -2.59974709e-03, -2.71247078e-02, -1.11022303e-19
    1842, -2.00620293e-03, -2.69032330e-02,  2.73038090e-04
    1843, -2.11533452e-03, -2.69439543e-02,  2.96076181e-04
    1844, -2.22446611e-03, -2.69846756e-02,  3.19114271e-04
    1845, -2.33359770e-03, -2.70253970e-02,  3.42152361e-04
    1846, -2.44272928e-03, -2.70661183e-02,  3.65190451e-04
    1847, -2.55186088e-03, -2.71068396e-02,  3.88228542e-04
    1848, -1.98280372e-03, -2.68945019e-02,  5.41666654e-04
    1849, -2.06853610e-03, -2.69264920e-02,  5.83333308e-04
    1850, -2.15426848e-03, -2.69584821e-02,  6.24999962e-04
    1851, -2.24000086e-03, -2.69904723e-02,  6.66666616e-04
    1852, -2.32573323e-03, -2.70224624e-02,  7.08333270e-04
    1853, -2.41146561e-03, -2.70544525e-02,  7.49999924e-04
    1854, -2.79915256e-03, -2.38315512e-02, -5.41666654e-04
    1855, -2.88965443e-03, -2.38450724e-02, -5.83333308e-04
    1856, -2.98015630e-03, -2.38585935e-02, -6.24999962e-04
    1857, -3.07065818e-03, -2.38721146e-02, -6.66666616e-04
    1858, -3.16116004e-03, -2.38856357e-02, -7.08333270e-04
    1859, -3.25166191e-03, -2.38991569e-02, -7.49999924e-04
    1860, -2.82385352e-03, -2.38352416e-02, -2.73038090e-04
    1861, -2.93905636e-03, -2.38524531e-02, -2.96076181e-04
    1862, -3.05425919e-03, -2.38696646e-02, -3.19114271e-04
    1863, -3.16946203e-03, -2.38868761e-02, -3.42152361e-04
    1864, -3.28466486e-03, -2.39040876e-02, -3.65190451e-04
    1865, -3.39986770e-03, -2.39212991e-02, -3.88228542e-04
    1866, -2.83227856e-03, -2.38365003e-02, -1.85037171e-20
    1867, -2.95590644e-03, -2.38549705e-02, -3.70074342e-20
    1868, -3.07953431e-03, -2.38734407e-02, -5.55111512e-20
    1869, -3.20316219e-03, -2.38919109e-02, -7.40148683e-20
    1870, -3.32679006e-03, -2.39103811e-02, -7.86407976e-20
    1871, -3.45041793e-03, -2.39288513e-02, -1.11022303e-19
    1872, -2.82385352e-03, -2.38352416e-02,  2.73038090e-04
    1873, -2.93905636e-03, -2.38524531e-02,  2.96076181e-04
    1874, -3.05425919e-03, -2.38696646e-02,  3.19114271e-04
    1875, -3.16946203e-03, -2.38868761e-02,  3.42152361e-04
    1876, -3.28466486e-03, -2.39040876e-02,  3.65190451e-04
    1877, -3.39986770e-03, -2.39212991e-02,  3.88228542e-04
    1878, -2.79915256e-03, -2.38315512e-02,  5.41666654e-04
    1879, -2.88965443e-03, -2.38450724e-02,  5.83333308e-04
    1880, -2.98015630e-03, -2.38585935e-02,  6.24999962e-04
    1881, -3.07065818e-03, -2.38721146e-02,  6.66666616e-04
    1882, -3.16116004e-03, -2.38856357e-02,  7.08333270e-04
    1883, -3.25166191e-03, -2.38991569e-02,  7.49999924e-04
    1884, -2.85530125e-03, -2.06203663e-02, -5.41666654e-04
    1885, -2.94620983e-03, -2.06099242e-02, -5.83333308e-04
    1886, -3.03711841e-03, -2.05994820e-02, -6.24999962e-04
    1887, -3.12802699e-03, -2.05890398e-02, -6.66666616e-04
    1888, -3.21893557e-03, -2.05785976e-02, -7.08333270e-04
    1889, -3.30984415e-03, -2.05681554e-02, -7.49999924e-04
    1890, -2.88011322e-03, -2.06175163e-02, -2.73038090e-04
    1891, -2.99583377e-03, -2.06042241e-02, -2.96076181e-04
    1892, -3.11155432e-03, -2.05909319e-02, -3.19114271e-04
    1893, -3.22727486e-03, -2.05776397e-02, -3.42152361e-04
    1894, -3.34299541e-03, -2.05643475e-02, -3.65190451e-04
    1895, -3.45871596e-03, -2.05510553e-02, -3.88228542e-04
    1896, -2.88857612e-03, -2.06165442e-02, -1.85037171e-20
    1897, -3.01275957e-03, -2.06022799e-02, -3.70074342e-20
    1898, -3.13694302e-03, -2.05880157e-02, -5.55111512e-20
    1899, -3.26112646e-03, -2.05737514e-02, -7.40148683e-20
    1900, -3.38530991e-03, -2.05594871e-02, -9.71445147e-20
    1901, -3.50949336e-03, -2.05452228e-02, -1.11022303e-19
    1902, -2.88011322e-03, -2.06175163e-02,  2.73038090e-04
    1903, -2.99583377e-03, -2.06042241e-02,  2.96076181e-04
    1904, -3.11155432e-03, -2.05909319e-02,  3.19114271e-04
    1905, -3.22727486e-03, -2.05776397e-02,  3.42152361e-04
    1906, -3.34299541e-03, -2.05643475e-02,  3.65190451e-04
    1907, -3.45871596e-03, -2.05510553e-02,  3.88228542e-04
    1908, -2.85530125e-03, -2.06203663e-02,  5.41666654e-04
    1909, -2.94620983e-03, -2.06099242e-02,  5.83333308e-04
    1910, -3.03711841e-03, -2.05994820e-02,  6.24999962e-04
    1911, -3.12802699e-03, -2.05890398e-02,  6.66666616e-04
    1912, -3.21893557e-03, -2.05785976e-02,  7.08333270e-04
    1913, -3.30984415e-03, -2.05681554e-02,  7.49999924e-04
    1914, -2.12482797e-03, -1.75258987e-02, -5.41666654e-04
    1915, -2.21123190e-03, -1.74957695e-02, -5.83333308e-04
    1916, -2.29763583e-03, -1.74656403e-02, -6.24999962e-04
    1917, -2.38403977e-03, -1.74355110e-02, -6.66666616e-04
    1918, -2.47044370e-03, -1.74053818e-02, -7.08333270e-04
    1919, -2.55684763e-03, -1.73752526e-02, -7.49999924e-04
    1920, -2.14841047e-03, -1.75176754e-02, -2.73038090e-04
    1921, -2.25839690e-03, -1.74793229e-02, -2.96076181e-04
    1922, -2.36838334e-03, -1.74409705e-02, -3.19114271e-04
    1923, -2.47836977e-03, -1.74026180e-02, -3.42152361e-04
    1924, -2.58835620e-03, -1.73642655e-02, -3.65190451e-04
    1925, -2.69834264e-03, -1.73259130e-02, -3.88228542e-04
    1926, -2.15645402e-03, -1.75148706e-02, -1.85037171e-20
    1927, -2.27448401e-03, -1.74737133e-02, -3.70074342e-20
    1928, -2.39251399e-03, -1.74325561e-02, -5.55111512e-20
    1929, -2.51054398e-03, -1.73913988e-02, -7.40148683e-20
    1930, -2.62857397e-03, -1.73502415e-02, -9.71445147e-20
    1931, -2.74660395e-03, -1.73090842e-02, -1.11022303e-19
    1932, -2.14841047e-03, -1.75176754e-02,  2.73038090e-04
    1933, -2.25839690e-03, -1.74793229e-02,  2.96076181e-04
    1934, -2.36838334e-03, -1.74409705e-02,  3.19114271e-04
    1935, -2.47836977e-03, -1.74026180e-02,  3.42152361e-04
    1936, -2.58835620e-03, -1.73642655e-02,  3.65190451e-04
    1937, -2.69834264e-03, -1.73259130e-02,  3.88228542e-04
    1938, -2.12482797e-03, -1.75258987e-02,  5.41666654e-04
    1939, -2.21123190e-03, -1.74957695e-02,  5.83333308e-04
    1940, -2.29763583e-03, -1.74656403e-02,  6.24999962e-04
    1941, -2.38403977e-03, -1.74355110e-02,  6.66666616e-04
    1942, -2.47044370e-03, -1.74053818e-02,  7.08333270e-04
    1943, -2.55684763e-03, -1.73752526e-02,  7.49999924e-04
    1944, -9.32051027e-04, -1.46837669e-02, -5.41666654e-04
    1945, -1.01504000e-03, -1.46452152e-02, -5.83333308e-04
    1946, -1.09802897e-03, -1.46066634e-02, -6.24999962e-04
    1947, -1.18101794e-03, -1.45681116e-02, -6.66666616e-04
    1948, -1.26400690e-03, -1.45295598e-02, -7.08333270e-04
    1949, -1.34699588e-03, -1.44910080e-02, -7.49999924e-04
    1950, -9.54701471e-04, -1.46732449e-02, -2.73038090e-04
    1951, -1.06034089e-03, -1.46241710e-02, -2.96076181e-04
    1952, -1.16598030e-03, -1.45750972e-02, -3.19114271e-04
    1953, -1.27161971e-03, -1.45260233e-02, -3.42152361e-04
    1954, -1.37725912e-03, -1.44769495e-02, -3.65190451e-04
    1955, -1.48289854e-03, -1.44278756e-02, -3.88228542e-04
    1956, -9.62427116e-04, -1.46696560e-02, -1.85037171e-20
    1957, -1.07579217e-03, -1.46169933e-02, -3.70074342e-20
    1958, -1.18915723e-03, -1.45643305e-02, -5.55111512e-20
    1959, -1.30252229e-03, -1.45116678e-02, -7.40148683e-20
    1960, -1.41588735e-03, -1.44590051e-02, -9.71445147e-20
    1961, -1.52925241e-03, -1.44063423e-02, -1.11022303e-19
    1962, -9.54701471e-04, -1.46732449e-02,  2.73038090e-04
    1963, -1.06034089e-03, -1.46241710e-02,  2.96076181e-04
    1964, -1.16598030e-03, -1.45750972e-02,  3.19114271e-04
    1965, -1.27161971e-03, -1.45260233e-02,  3.42152361e-04
    1966, -1.37725912e-03, -1.44769495e-02,  3.65190451e-04
    1967, -1.48289854e-03, -1.44278756e-02,  3.88228542e-04
    1968, -9.32051027e-04, -1.46837669e-02,  5.41666654e-04
    1969, -1.01504000e-03, -1.46452152e-02,  5.83333308e-04
    1970, -1.09802897e-03, -1.46066634e-02,  6.24999962e-04
    1971, -1.18101794e-03, -1.45681116e-02,  6.66666616e-04
    1972, -1.26400690e-03, -1.45295598e-02,  7.08333270e-04
    1973, -1.34699588e-03, -1.44910080e-02,  7.49999924e-04
    1974,  2.68283547e-04, -1.19886852e-02, -5.41666654e-04
    1975,  1.83182624e-04, -1.19550512e-02, -5.83333308e-04
    1976,  9.80817017e-05, -1.19214173e-02, -6.24999962e-04
    1977,  1.29807756e-05, -1.18877833e-02, -6.66666616e-04
    1978, -7.21201411e-05, -1.18541494e-02, -7.08333270e-04
    1979, -1.57221067e-04, -1.18205154e-02, -7.49999924e-04
    1980,  2.45056681e-04, -1.19795053e-02, -2.73038090e-04
    1981,  1.36728892e-04, -1.19366916e-02, -2.96076181e-04
    1982,  2.84011018e-05, -1.18938778e-02, -3.19114271e-04
    1983, -7.99266848e-05, -1.18510640e-02, -3.42152361e-04
    1984, -1.88254471e-04, -1.18082503e-02, -3.65190451e-04
    1985, -2.96582267e-04, -1.17654365e-02, -3.88228542e-04
    1986,  2.37134430e-04, -1.19763743e-02, -1.85037171e-20
    1987,  1.20884389e-04, -1.19304294e-02, -3.70074342e-20
    1988,  4.63434821e-06, -1.18844846e-02, -5.55111512e-20
    1989, -1.11615693e-04, -1.18385398e-02, -7.40148683e-20
    1990, -2.27865733e-04, -1.17925949e-02, -9.71445147e-20
    1991, -3.44115774e-04, -1.17466501e-02, -1.11022303e-19
    1992,  2.45056681e-04, -1.19795053e-02,  2.73038090e-04
    1993,  1.36728892e-04, -1.19366916e-02,  2.96076181e-04
    1994,  2.84011018e-05, -1.18938778e-02,  3.19114271e-04
    1995, -7.99266848e-05, -1.18510640e-02,  3.42152361e-04
    1996, -1.88254471e-04, -1.18082503e-02,  3.65190451e-04
    1997, -2.96582267e-04, -1.17654365e-02,  3.88228542e-04
    1998,  2.68283547e-04, -1.19886852e-02,  5.41666654e-04
    1999,  1.83182624e-04, -1.19550512e-02,  5.83333308e-04
    2000,  9.80817017e-05, -1.19214173e-02,  6.24999962e-04
    2001,  1.29807756e-05, -1.18877833e-02,  6.66666616e-04
    2002, -7.21201411e-05, -1.18541494e-02,  7.08333270e-04
    2003, -1.57221067e-04, -1.18205154e-02,  7.49999924e-04
    2004,  1.07351462e-03, -9.27437968e-03, -5.41666654e-04
    2005,  9.83507388e-04, -9.25788401e-03, -5.83333308e-04
    2006,  8.93500156e-04, -9.24138835e-03, -6.24999962e-04
    2007,  8.03492921e-04, -9.22489268e-03, -6.66666616e-04
    2008,  7.13485695e-04, -9.20839701e-03, -7.08333270e-04
    2009,  6.23478460e-04, -9.19190135e-03, -7.49999924e-04
    2010,  1.04894866e-03, -9.26987746e-03, -2.73038090e-04
    2011,  9.34375467e-04, -9.24887958e-03, -2.96076181e-04
    2012,  8.19802272e-04, -9.22788170e-03, -3.19114271e-04
    2013,  7.05229082e-04, -9.20688382e-03, -3.42152361e-04
    2014,  5.90655892e-04, -9.18588594e-03, -3.65190451e-04
    2015,  4.76082692e-04, -9.16488806e-03, -3.88228542e-04
    2016,  1.04056967e-03, -9.26834184e-03, -1.85037171e-20
    2017,  9.17617483e-04, -9.24580834e-03, -3.70074342e-20
    2018,  7.94665298e-04, -9.22327484e-03, -5.55111512e-20
    2019,  6.71713113e-04, -9.20074133e-03, -7.40148683e-20
    2020,  5.48760928e-04, -9.17820783e-03, -7.86407976e-20
    2021,  4.25808743e-04, -9.15567433e-03, -1.11022303e-19
    2022,  1.04894866e-03, -9.26987746e-03,  2.73038090e-04
    2023,  9.34375467e-04, -9.24887958e-03,  2.96076181e-04
    2024,  8.19802272e-04, -9.22788170e-03,  3.19114271e-04
    2025,  7.05229082e-04, -9.20688382e-03,  3.42152361e-04
    2026,  5.90655892e-04, -9.18588594e-03,  3.65190451e-04
    2027,  4.76082692e-04, -9.16488806e-03,  3.88228542e-04
    2028,  1.07351462e-03, -9.27437968e-03,  5.41666654e-04
    2029,  9.83507388e-04, -9.25788401e-03,  5.83333308e-04
    2030,  8.93500156e-04, -9.24138835e-03,  6.24999962e-04
    2031,  8.03492921e-04, -9.22489268e-03,  6.66666616e-04
    2032,  7.13485695e-04, -9.20839701e-03,  7.08333270e-04
    2033,  6.23478460e-04, -9.19190135e-03,  7.49999924e-04
    2034,  1.21921826e-03, -6.50576549e-03, -5.41666654e-04
    2035,  1.12800212e-03, -6.51304728e-03, -5.83333308e-04
    2036,  1.03678598e-03, -6.52032907e-03, -6.24999962e-04
    2037,  9.45569831e-04, -6.52761086e-03, -6.66666616e-04
    2038,  8.54353694e-04, -6.53489264e-03, -7.08333270e-04
    2039,  7.63137547e-04, -6.54217443e-03, -7.49999924e-04
    2040,  1.19432235e-03, -6.50775293e-03, -2.73038090e-04
    2041,  1.07821030e-03, -6.51702216e-03, -2.96076181e-04
    2042,  9.62098238e-04, -6.52629139e-03, -3.19114271e-04
    2043,  8.45986184e-04, -6.53556062e-03, -3.42152361e-04
    2044,  7.29874130e-04, -6.54482985e-03, -3.65190451e-04
    2045,  6.13762067e-04, -6.55409908e-03, -3.88228542e-04
    2046,  1.18583082e-03, -6.50843081e-03, -1.85037171e-20
    2047,  1.06122723e-03, -6.51837792e-03, -3.70074342e-20
    2048,  9.36623642e-04, -6.52832503e-03, -5.55111512e-20
    2049,  8.12020053e-04, -6.53827214e-03, -7.40148683e-20
    2050,  6.87416464e-04, -6.54821925e-03, -9.71445147e-20
    2051,  5.62812875e-04, -6.55816636e-03, -1.11022303e-19
    2052,  1.19432235e-03, -6.50775293e-03,  2.73038090e-04
    2053,  1.07821030e-03, -6.51702216e-03,  2.96076181e-04
    2054,  9.62098238e-04, -6.52629139e-03,  3.19114271e-04
    2055,  8.45986184e-04, -6.53556062e-03,  3.42152361e-04
    2056,  7.29874130e-04, -6.54482985e-03,  3.65190451e-04
    2057,  6.13762067e-04, -6.55409908e-03,  3.88228542e-04
    2058,  1.21921826e-03, -6.50576549e-03,  5.41666654e-04
    2059,  1.12800212e-03, -6.51304728e-03,  5.83333308e-04
    2060,  1.03678598e-03, -6.52032907e-03,  6.24999962e-04
    2061,  9.45569831e-04, -6.52761086e-03,  6.66666616e-04
    2062,  8.54353694e-04, -6.53489264e-03,  7.08333270e-04
    2063,  7.63137547e-04, -6.54217443e-03,  7.49999924e-04
    2064,  6.56531896e-04, -3.76453173e-03, -5.41666654e-04
    2065,  5.69433923e-04, -3.79259153e-03, -5.83333308e-04
    2066,  4.82335951e-04, -3.82065133e-03, -6.24999962e-04
    2067,  3.95237975e-04, -3.84871113e-03, -6.66666616e-04
    2068,  3.08140009e-04, -3.87677093e-03, -7.08333270e-04
    2069,  2.21042034e-04, -3.90483073e-03, -7.49999924e-04
    2070,  6.32759968e-04, -3.77219018e-03, -2.73038090e-04
    2071,  5.21890069e-04, -3.80790843e-03, -2.96076181e-04
    2072,  4.11020168e-04, -3.84362668e-03, -3.19114271e-04
    2073,  3.00150271e-04, -3.87934493e-03, -3.42152361e-04
    2074,  1.89280374e-04, -3.91506318e-03, -3.65190451e-04
    2075,  7.84104671e-05, -3.95078143e-03, -3.88228542e-04
    2076,  6.24651807e-04, -3.77480233e-03, -1.85037171e-20
    2077,  5.05673745e-04, -3.81313274e-03, -3.70074342e-20
    2078,  3.86695684e-04, -3.85146315e-03, -5.55111512e-20
    2079,  2.67717622e-04, -3.88979355e-03, -7.40148683e-20
    2080,  1.48739561e-04, -3.92812396e-03, -7.40148683e-20
    2081,  2.97614989e-05, -3.96645436e-03, -1.11022303e-19
    2082,  6.32759968e-04, -3.77219018e-03,  2.73038090e-04
    2083,  5.21890069e-04, -3.80790843e-03,  2.96076181e-04
    2084,  4.11020168e-04, -3.84362668e-03,  3.19114271e-04
    2085,  3.00150271e-04, -3.87934493e-03,  3.42152361e-04
    2086,  1.89280374e-04, -3.91506318e-03,  3.65190451e-04
    2087,  7.84104671e-05, -3.95078143e-03,  3.88228542e-04
    2088,  6.56531896e-04, -3.76453173e-03,  5.41666654e-04
    2089,  5.69433923e-04, -3.79259153e-03,  5.83333308e-04
    2090,  4.82335951e-04, -3.82065133e-03,  6.24999962e-04
    2091,  3.95237975e-04, -3.84871113e-03,  6.66666616e-04
    2092,  3.08140009e-04, -3.87677093e-03,  7.08333270e-04
    2093,  2.21042034e-04, -3.90483073e-03,  7.49999924e-04
    2094, -4.28021933e-04, -1.07690601e-03, -5.41666654e-04
    2095, -5.11177659e-04, -1.11509678e-03, -5.83333308e-04
    2096, -5.94333384e-04, -1.15328755e-03, -6.24999962e-04
    2097, -6.77489113e-04, -1.19147832e-03, -6.66666616e-04
    2098, -7.60644832e-04, -1.22966909e-03, -7.08333270e-04
    2099, -8.43800561e-04, -1.26785986e-03, -7.49999924e-04
    2100, -4.50717890e-04, -1.08732954e-03, -2.73038090e-04
    2101, -5.56569573e-04, -1.13594384e-03, -2.96076181e-04
    2102, -6.62421257e-04, -1.18455814e-03, -3.19114271e-04
    2103, -7.68272938e-04, -1.23317243e-03, -3.42152361e-04
    2104, -8.74124618e-04, -1.28178673e-03, -3.65190451e-04
    2105, -9.79976308e-04, -1.33040103e-03, -3.88228542e-04
    2106, -4.58459059e-04, -1.09088481e-03, -1.85037171e-20
    2107, -5.72051910e-04, -1.14305438e-03, -3.70074342e-20
    2108, -6.85644761e-04, -1.19522395e-03, -5.55111512e-20
    2109, -7.99237613e-04, -1.24739352e-03, -7.40148683e-20
    2110, -9.12830464e-04, -1.29956309e-03, -9.71445147e-20
    2111, -1.02642332e-03, -1.35173266e-03, -1.11022303e-19
    2112, -4.50717890e-04, -1.08732954e-03,  2.73038090e-04
    2113, -5.56569573e-04, -1.13594384e-03,  2.96076181e-04
    2114, -6.62421257e-04, -1.18455814e-03,  3.19114271e-04
    2115, -7.68272938e-04, -1.23317243e-03,  3.42152361e-04
    2116, -8.74124618e-04, -1.28178673e-03,  3.65190451e-04
    2117, -9.79976308e-04, -1.33040103e-03,  3.88228542e-04
    2118, -4.28021933e-04, -1.07690601e-03,  5.41666654e-04
    2119, -5.11177659e-04, -1.11509678e-03,  5.83333308e-04
    2120, -5.94333384e-04, -1.15328755e-03,  6.24999962e-04
    2121, -6.77489113e-04, -1.19147832e-03,  6.66666616e-04
    2122, -7.60644832e-04, -1.22966909e-03,  7.08333270e-04
    2123, -8.43800561e-04, -1.26785986e-03,  7.49999924e-04
    2124, -9.93327836e-04, -2.98145768e-02,  1.09601600e-03
    2125, -7.02388732e-04, -2.96789097e-02,  1.34233962e-03
    2126, -3.63583127e-04, -2.95209221e-02,  1.49718509e-03
    2127,  6.10414293e-18, -2.93513805e-02,  1.55000000e-03
    2128,  3.63583127e-04, -2.91818389e-02,  1.49718509e-03
    2129,  7.02388732e-04, -2.90238512e-02,  1.34233962e-03
    2130,  9.93327836e-04, -2.88881841e-02,  1.09601600e-03
    2131, -2.22125408e-03, -2.69834771e-02,  1.09601600e-03
    2132, -1.92049407e-03, -2.68712517e-02,  1.34233962e-03
    2133, -1.57025179e-03, -2.67405625e-02,  1.49718509e-03
    2134, -1.19439560e-03, -2.66003157e-02,  1.55000000e-03
    2135, -8.18539403e-04, -2.64600689e-02,  1.49718509e-03
    2136, -4.68297121e-04, -2.63293797e-02,  1.34233962e-03
    2137, -1.67537114e-04, -2.62171542e-02,  1.09601600e-03
    2138, -3.05086847e-03, -2.38691580e-02,  1.09601600e-03
    2139, -2.73337648e-03, -2.38217242e-02,  1.34233962e-03
    2140, -2.36364939e-03, -2.37664864e-02,  1.49718509e-03
    2141, -1.96688344e-03, -2.37072089e-02,  1.55000000e-03
    2142, -1.57011748e-03, -2.36479314e-02,  1.49718509e-03
    2143, -1.20039040e-03, -2.35926936e-02,  1.34233962e-03
    2144, -8.82898410e-04, -2.35452598e-02,  1.09601600e-03
    2145, -3.10814835e-03, -2.05913232e-02,  1.09601600e-03
    2146, -2.78922958e-03, -2.06279556e-02,  1.34233962e-03
    2147, -2.41784098e-03, -2.06706150e-02,  1.49718509e-03
    2148, -2.01929199e-03, -2.07163942e-02,  1.55000000e-03
    2149, -1.62074301e-03, -2.07621734e-02,  1.49718509e-03
    2150, -1.24935441e-03, -2.08048328e-02,  1.34233962e-03
    2151, -9.30435633e-04, -2.08414653e-02,  1.09601600e-03
    2152, -2.36514614e-03, -1.74420993e-02,  1.09601600e-03
    2153, -2.06203023e-03, -1.75477964e-02,  1.34233962e-03
    2154, -1.70904445e-03, -1.76708832e-02,  1.49718509e-03
    2155, -1.33024411e-03, -1.78029716e-02,  1.55000000e-03
    2156, -9.51443774e-04, -1.79350600e-02,  1.49718509e-03
    2157, -5.98457986e-04, -1.80581468e-02,  1.34233962e-03
    2158, -2.95342076e-04, -1.81638440e-02,  1.09601600e-03
    2159, -1.16287105e-03, -1.45765415e-02,  1.09601600e-03
    2160, -8.71735266e-04, -1.47117861e-02,  1.34233962e-03
    2161, -5.32700622e-04, -1.48692816e-02,  1.49718509e-03
    2162, -1.68871705e-04, -1.50382951e-02,  1.55000000e-03
    2163,  1.94957211e-04, -1.52073086e-02,  1.49718509e-03
    2164,  5.33991855e-04, -1.53648042e-02,  1.34233962e-03
    2165,  8.25127640e-04, -1.55000487e-02,  1.09601600e-03
    2166,  3.15894777e-05, -1.18951379e-02,  1.09601600e-03
    2167,  3.30134261e-04, -1.20131301e-02,  1.34233962e-03
    2168,  6.77796862e-04, -1.21505347e-02,  1.49718509e-03
    2169,  1.05088472e-03, -1.22979881e-02,  1.55000000e-03
    2170,  1.42397257e-03, -1.24454415e-02,  1.49718509e-03
    2171,  1.77163517e-03, -1.25828462e-02,  1.34233962e-03
    2172,  2.07017995e-03, -1.27008383e-02,  1.09601600e-03
    2173,  8.23174467e-04, -9.22849972e-03,  1.09601600e-03
    2174,  1.13893120e-03, -9.28636860e-03,  1.34233962e-03
    2175,  1.50663754e-03, -9.35375831e-03,  1.49718509e-03
    2176,  1.90123496e-03, -9.42607636e-03,  1.55000000e-03
    2177,  2.29583239e-03, -9.49839441e-03,  1.49718509e-03
    2178,  2.66353872e-03, -9.56578412e-03,  1.34233962e-03
    2179,  2.97929546e-03, -9.62365300e-03,  1.09601600e-03
    2180,  9.65515725e-04, -6.52601857e-03,  1.09601600e-03
    2181,  1.28551347e-03, -6.50047314e-03,  1.34233962e-03
    2182,  1.65815857e-03, -6.47072487e-03,  1.49718509e-03
    2183,  2.05805594e-03, -6.43880105e-03,  1.55000000e-03
    2184,  2.45795331e-03, -6.40687722e-03,  1.49718509e-03
    2185,  2.83059841e-03, -6.37712895e-03,  1.34233962e-03
    2186,  3.15059616e-03, -6.35158352e-03,  1.09601600e-03
    2187,  4.14283365e-04, -3.84257540e-03,  1.09601600e-03
    2188,  7.19834050e-04, -3.74413808e-03,  1.34233962e-03
    2189,  1.07565519e-03, -3.62950544e-03,  1.49718509e-03
    2190,  1.45749824e-03, -3.50648949e-03,  1.55000000e-03
    2191,  1.83934128e-03, -3.38347355e-03,  1.49718509e-03
    2192,  2.19516243e-03, -3.26884091e-03,  1.34233962e-03
    2193,  2.50071311e-03, -3.17040359e-03,  1.09601600e-03
    2194, -6.59305760e-04, -1.18312729e-03,  1.09601600e-03
    2195, -3.67584975e-04, -1.04914924e-03,  1.34233962e-03
    2196, -2.78690830e-05, -8.93128580e-04,  1.49718509e-03
    2197,  3.36690902e-04, -7.25697818e-04,  1.55000000e-03
    2198,  7.01250887e-04, -5.58267055e-04,  1.49718509e-03
    2199,  1.04096678e-03, -4.02246391e-04,  1.34233962e-03
    2200,  1.33268756e-03, -2.68268347e-04,  1.09601600e-03
    2201,  1.21657285e-03, -2.87840832e-02,  7.75000217e-04
    2202,  1.35691051e-03, -2.87186427e-02,  4.01169594e-04
    2203,  1.40477707e-03, -2.86963221e-02,  0.00000000e+00
    2204,  1.35691051e-03, -2.87186427e-02, -4.01169594e-04
    2205,  1.21657285e-03, -2.87840832e-02, -7.75000217e-04
    2206,  9.93327836e-04, -2.88881841e-02, -1.09601600e-03
    2207,  6.32437308e-05, -2.61310408e-02,  7.75000217e-04
    2208,  2.08318606e-04, -2.60769076e-02,  4.01169594e-04
    2209,  2.57800948e-04, -2.60584438e-02,  0.00000000e+00
    2210,  2.08318606e-04, -2.60769076e-02, -4.01169594e-04
    2211,  6.32437308e-05, -2.61310408e-02, -7.75000217e-04
    2212, -1.67537114e-04, -2.62171542e-02, -1.09601600e-03
    2213, -6.39278685e-04, -2.35088626e-02,  7.75000217e-04
    2214, -4.86132954e-04, -2.34859824e-02,  4.01169594e-04
    2215, -4.33897793e-04, -2.34781784e-02,  0.00000000e+00
    2216, -4.86132954e-04, -2.34859824e-02, -4.01169594e-04
    2217, -6.39278685e-04, -2.35088626e-02, -7.75000217e-04
    2218, -8.82898410e-04, -2.35452598e-02, -1.09601600e-03
    2219, -6.85721104e-04, -2.08695743e-02,  7.75000217e-04
    2220, -5.31887150e-04, -2.08872444e-02,  4.01169594e-04
    2221, -4.79417249e-04, -2.08932713e-02,  0.00000000e+00
    2222, -5.31887150e-04, -2.08872444e-02, -4.01169594e-04
    2223, -6.85721104e-04, -2.08695743e-02, -7.75000217e-04
    2224, -9.30435633e-04, -2.08414653e-02, -1.09601600e-03
    2225, -6.27534872e-05, -1.82449480e-02,  7.75000217e-04
    2226,  8.34577832e-05, -1.82959322e-02,  4.01169594e-04
    2227,  1.33327728e-04, -1.83133219e-02,  0.00000000e+00
    2228,  8.34577832e-05, -1.82959322e-02, -4.01169594e-04
    2229, -6.27534872e-05, -1.82449480e-02, -7.75000217e-04
    2230, -2.95342076e-04, -1.81638440e-02, -1.09601600e-03
    2231,  1.04852357e-03, -1.56038253e-02,  7.75000217e-04
    2232,  1.18895610e-03, -1.56690620e-02,  4.01169594e-04
    2233,  1.23685502e-03, -1.56913130e-02,  0.00000000e+00
    2234,  1.18895610e-03, -1.56690620e-02, -4.01169594e-04
    2235,  1.04852357e-03, -1.56038253e-02, -7.75000217e-04
    2236,  8.25127640e-04, -1.55000487e-02, -1.09601600e-03
    2237,  2.29926100e-03, -1.27913767e-02,  7.75000217e-04
    2238,  2.44326734e-03, -1.28482915e-02,  4.01169594e-04
    2239,  2.49238522e-03, -1.28677041e-02,  0.00000000e+00
    2240,  2.44326734e-03, -1.28482915e-02, -4.01169594e-04
    2241,  2.29926100e-03, -1.27913767e-02, -7.75000217e-04
    2242,  2.07017995e-03, -1.27008383e-02, -1.09601600e-03
    2243,  3.22158368e-03, -9.66805727e-03,  7.75000217e-04
    2244,  3.37389239e-03, -9.69597096e-03,  4.01169594e-04
    2245,  3.42584206e-03, -9.70549180e-03,  0.00000000e+00
    2246,  3.37389239e-03, -9.69597096e-03, -4.01169594e-04
    2247,  3.22158368e-03, -9.66805727e-03, -7.75000217e-04
    2248,  2.97929546e-03, -9.62365300e-03, -1.09601600e-03
    2249,  3.39613861e-03, -6.33198185e-03,  7.75000217e-04
    2250,  3.55049302e-03, -6.31965974e-03,  4.01169594e-04
    2251,  3.60314044e-03, -6.31545689e-03,  0.00000000e+00
    2252,  3.55049302e-03, -6.31965974e-03, -4.01169594e-04
    2253,  3.39613861e-03, -6.33198185e-03, -7.75000217e-04
    2254,  3.15059616e-03, -6.35158352e-03, -1.09601600e-03
    2255,  2.73516997e-03, -3.09487011e-03,  7.75000217e-04
    2256,  2.88255568e-03, -3.04738780e-03,  4.01169594e-04
    2257,  2.93282620e-03, -3.03119246e-03,  0.00000000e+00
    2258,  2.88255568e-03, -3.04738780e-03, -4.01169594e-04
    2259,  2.73516997e-03, -3.09487011e-03, -7.75000217e-04
    2260,  2.50071311e-03, -3.17040359e-03, -1.09601600e-03
    2261,  1.55653238e-03, -1.65463568e-04,  7.75000217e-04
    2262,  1.69724709e-03, -1.00837795e-04,  4.01169594e-04
    2263,  1.74524226e-03, -7.87951453e-05,  0.00000000e+00
    2264,  1.69724709e-03, -1.00837795e-04, -4.01169594e-04
    2265,  1.55653238e-03, -1.65463568e-04, -7.75000217e-04
    2266,  1.33268756e-03, -2.68268347e-04, -1.09601600e-03
    2267,  7.02388732e-04, -2.90238512e-02, -1.34233962e-03
    2268,  3.63583127e-04, -2.91818389e-02, -1.49718509e-03
    2269,  6.10414293e-18, -2.93513805e-02, -1.55000000e-03
    2270, -3.63583127e-04, -2.95209221e-02, -1.49718509e-03
    2271, -7.02388732e-04, -2.96789097e-02, -1.34233962e-03
    2272, -9.93327836e-04, -2.98145768e-02, -1.09601600e-03
    2273, -4.68297121e-04, -2.63293797e-02, -1.34233962e-03
    2274, -8.18539403e-04, -2.64600689e-02, -1.49718509e-03
    2275, -1.19439560e-03, -2.66003157e-02, -1.55000000e-03
    2276, -1.57025179e-03, -2.67405625e-02, -1.49718509e-03
    2277, -1.92049407e-03, -2.68712517e-02, -1.34233962e-03
    2278, -2.22125408e-03, -2.69834771e-02, -1.09601600e-03
    2279, -1.20039040e-03, -2.35926936e-02, -1.34233962e-03
    2280, -1.57011748e-03, -2.36479314e-02, -1.49718509e-03
    2281, -1.96688344e-03, -2.37072089e-02, -1.55000000e-03
    2282, -2.36364939e-03, -2.37664864e-02, -1.49718509e-03
    2283, -2.73337648e-03, -2.38217242e-02, -1.34233962e-03
    2284, -3.05086847e-03, -2.38691580e-02, -1.09601600e-03
    2285, -1.24935441e-03, -2.08048328e-02, -1.34233962e-03
    2286, -1.62074301e-03, -2.07621734e-02, -1.49718509e-03
    2287, -2.01929199e-03, -2.07163942e-02, -1.55000000e-03
    2288, -2.41784098e-03, -2.06706150e-02, -1.49718509e-03
    2289, -2.78922958e-03, -2.06279556e-02, -1.34233962e-03
    2290, -3.10814835e-03, -2.05913232e-02, -1.09601600e-03
    2291, -5.98457986e-04, -1.80581468e-02, -1.34233962e-03
    2292, -9.51443774e-04, -1.79350600e-02, -1.49718509e-03
    2293, -1.33024411e-03, -1.78029716e-02, -1.55000000e-03
    2294, -1.70904445e-03, -1.76708832e-02, -1.49718509e-03
    2295, -2.06203023e-03, -1.75477964e-02, -1.34233962e-03
    2296, -2.36514614e-03, -1.74420993e-02, -1.09601600e-03
    2297,  5.33991855e-04, -1.53648042e-02, -1.34233962e-03
    2298,  1.94957211e-04, -1.52073086e-02, -1.49718509e-03
    2299, -1.68871705e-04, -1.50382951e-02, -1.55000000e-03
    2300, -5.32700622e-04, -1.48692816e-02, -1.49718509e-03
    2301, -8.71735266e-04, -1.47117861e-02, -1.34233962e-03
    2302, -1.16287105e-03, -1.45765415e-02, -1.09601600e-03
    2303,  1.77163517e-03, -1.25828462e-02, -1.34233962e-03
    2304,  1.42397257e-03, -1.24454415e-02, -1.49718509e-03
    2305,  1.05088472e-03, -1.22979881e-02, -1.55000000e-03
    2306,  6.77796862e-04, -1.21505347e-02, -1.49718509e-03
    2307,  3.30134261e-04, -1.20131301e-02, -1.34233962e-03
    2308,  3.15894777e-05, -1.18951379e-02, -1.09601600e-03
    2309,  2.66353872e-03, -9.56578412e-03, -1.34233962e-03
    2310,  2.29583239e-03, -9.49839441e-03, -1.49718509e-03
    2311,  1.90123496e-03, -9.42607636e-03, -1.55000000e-03
    2312,  1.50663754e-03, -9.35375831e-03, -1.49718509e-03
    2313,  1.13893120e-03, -9.28636860e-03, -1.34233962e-03
    2314,  8.23174467e-04, -9.22849972e-03, -1.09601600e-03
    2315,  2.83059841e-03, -6.37712895e-03, -1.34233962e-03
    2316,  2.45795331e-03, -6.40687722e-03, -1.49718509e-03
    2317,  2.05805594e-03, -6.43880105e-03, -1.55000000e-03
    2318,  1.65815857e-03, -6.47072487e-03, -1.49718509e-03
    2319,  1.28551347e-03, -6.50047314e-03, -1.34233962e-03
    2320,  9.65515725e-04, -6.52601857e-03, -1.09601600e-03
    2321,  2.19516243e-03, -3.26884091e-03, -1.34233962e-03
    2322,  1.83934128e-03, -3.38347355e-03, -1.49718509e-03
    2323,  1.45749824e-03, -3.50648949e-03, -1.55000000e-03
    2324,  1.07565519e-03, -3.62950544e-03, -1.49718509e-03
    2325,  7.19834050e-04, -3.74413808e-03, -1.34233962e-03
    2326,  4.14283365e-04, -3.84257540e-03, -1.09601600e-03
    2327,  1.04096678e-03, -4.02246391e-04, -1.34233962e-03
    2328,  7.01250887e-04, -5.58267055e-04, -1.49718509e-03
    2329,  3.36690902e-04, -7.25697818e-04, -1.55000000e-03
    2330, -2.78690830e-05, -8.93128580e-04, -1.49718509e-03
    2331, -3.67584975e-04, -1.04914924e-03, -1.34233962e-03
    2332, -6.59305760e-04, -1.18312729e-03, -1.09601600e-03
    2333, -1.21657285e-03, -2.99186777e-02, -7.75000217e-04
    2334, -1.35691051e-03, -2.99841182e-02, -4.01169594e-04
    2335, -1.40477707e-03, -3.00064388e-02,  0.00000000e+00
    2336, -1.35691051e-03, -2.99841182e-02,  4.01169594e-04
    2337, -1.21657285e-03, -2.99186777e-02,  7.75000217e-04
    2338, -2.45203492e-03, -2.70695906e-02, -7.75000217e-04
    2339, -2.59710980e-03, -2.71237237e-02, -4.01169594e-04
    2340, -2.64659214e-03, -2.71421875e-02,  0.00000000e+00
    2341, -2.59710980e-03, -2.71237237e-02,  4.01169594e-04
    2342, -2.45203492e-03, -2.70695906e-02,  7.75000217e-04
    2343, -3.29448819e-03, -2.39055552e-02, -7.75000217e-04
    2344, -3.44763392e-03, -2.39284354e-02, -4.01169594e-04
    2345, -3.49986908e-03, -2.39362394e-02,  0.00000000e+00
    2346, -3.44763392e-03, -2.39284354e-02,  4.01169594e-04
    2347, -3.29448819e-03, -2.39055552e-02,  7.75000217e-04
    2348, -3.35286288e-03, -2.05632141e-02, -7.75000217e-04
    2349, -3.50669684e-03, -2.05455440e-02, -4.01169594e-04
    2350, -3.55916674e-03, -2.05395171e-02,  0.00000000e+00
    2351, -3.50669684e-03, -2.05455440e-02,  4.01169594e-04
    2352, -3.35286288e-03, -2.05632141e-02,  7.75000217e-04
    2353, -2.59773473e-03, -1.73609952e-02, -7.75000217e-04
    2354, -2.74394600e-03, -1.73100110e-02, -4.01169594e-04
    2355, -2.79381595e-03, -1.72926213e-02,  0.00000000e+00
    2356, -2.74394600e-03, -1.73100110e-02,  4.01169594e-04
    2357, -2.59773473e-03, -1.73609952e-02,  7.75000217e-04
    2358, -1.38626698e-03, -1.44727649e-02, -7.75000217e-04
    2359, -1.52669951e-03, -1.44075283e-02, -4.01169594e-04
    2360, -1.57459843e-03, -1.43852772e-02,  0.00000000e+00
    2361, -1.52669951e-03, -1.44075283e-02,  4.01169594e-04
    2362, -1.38626698e-03, -1.44727649e-02,  7.75000217e-04
    2363, -1.97491569e-04, -1.18045995e-02, -7.75000217e-04
    2364, -3.41497907e-04, -1.17476847e-02, -4.01169594e-04
    2365, -3.90615791e-04, -1.17282722e-02,  0.00000000e+00
    2366, -3.41497907e-04, -1.17476847e-02,  4.01169594e-04
    2367, -1.97491569e-04, -1.18045995e-02,  7.75000217e-04
    2368,  5.80886249e-04, -9.18409545e-03, -7.75000217e-04
    2369,  4.28577538e-04, -9.15618177e-03, -4.01169594e-04
    2370,  3.76627869e-04, -9.14666093e-03,  0.00000000e+00
    2371,  4.28577538e-04, -9.15618177e-03,  4.01169594e-04
    2372,  5.80886249e-04, -9.18409545e-03,  7.75000217e-04
    2373,  7.19973269e-04, -6.54562024e-03, -7.75000217e-04
    2374,  5.65618858e-04, -6.55794236e-03, -4.01169594e-04
    2375,  5.12971440e-04, -6.56214520e-03,  0.00000000e+00
    2376,  5.65618858e-04, -6.55794236e-03,  4.01169594e-04
    2377,  7.19973269e-04, -6.54562024e-03,  7.75000217e-04
    2378,  1.79826510e-04, -3.91810887e-03, -7.75000217e-04
    2379,  3.24407992e-05, -3.96559119e-03, -4.01169594e-04
    2380, -1.78297257e-05, -3.98178653e-03,  0.00000000e+00
    2381,  3.24407992e-05, -3.96559119e-03,  4.01169594e-04
    2382,  1.79826510e-04, -3.91810887e-03,  7.75000217e-04
    2383, -8.83150579e-04, -1.28593207e-03, -7.75000217e-04
    2384, -1.02386529e-03, -1.35055784e-03, -4.01169594e-04
    2385, -1.07186046e-03, -1.37260049e-03,  0.00000000e+00
    2386, -1.02386529e-03, -1.35055784e-03,  4.01169594e-04
    2387, -8.83150579e-04, -1.28593207e-03,  7.75000217e-04
    2388, -1.08945628e-03, -2.98594023e-02,  1.20208200e-03
    2389, -1.18558472e-03, -2.99042277e-02,  1.30814800e-03
    2390, -1.28171316e-03, -2.99490531e-02,  1.41421400e-03
    2391, -7.70361808e-04, -2.97106061e-02,  1.47224342e-03
    2392, -8.38334885e-04, -2.97423024e-02,  1.60214722e-03
    2393, -9.06307959e-04, -2.97739988e-02,  1.73205102e-03
    2394, -3.98768582e-04, -2.95373293e-02,  1.64207397e-03
    2395, -4.33954037e-04, -2.95537365e-02,  1.78696284e-03
    2396, -4.69139492e-04, -2.95701438e-02,  1.93185171e-03
    2397,  6.15445312e-18, -2.93513805e-02,  1.70000000e-03
    2398,  6.24668847e-18, -2.93513805e-02,  1.85000000e-03
    2399,  6.30538369e-18, -2.93513805e-02,  2.00000000e-03
    2400,  3.98768582e-04, -2.91654316e-02,  1.64207397e-03
    2401,  4.33954037e-04, -2.91490244e-02,  1.78696284e-03
    2402,  4.69139492e-04, -2.91326171e-02,  1.93185171e-03
    2403,  7.70361808e-04, -2.89921548e-02,  1.47224342e-03
    2404,  8.38334885e-04, -2.89604585e-02,  1.60214722e-03
    2405,  9.06307959e-04, -2.89287621e-02,  1.73205102e-03
    2406,  1.08945628e-03, -2.88433587e-02,  1.20208200e-03
    2407,  1.18558472e-03, -2.87985332e-02,  1.30814800e-03
    2408,  1.28171316e-03, -2.87537078e-02,  1.41421400e-03
    2409, -2.32062742e-03, -2.70205572e-02,  1.20208200e-03
    2410, -2.42000076e-03, -2.70576373e-02,  1.30814800e-03
    2411, -2.51937410e-03, -2.70947175e-02,  1.41421400e-03
    2412, -1.99076164e-03, -2.68974713e-02,  1.47224342e-03
    2413, -2.06102920e-03, -2.69236909e-02,  1.60214722e-03
    2414, -2.13129677e-03, -2.69499105e-02,  1.73205102e-03
    2415, -1.60662496e-03, -2.67541347e-02,  1.64207397e-03
    2416, -1.64299813e-03, -2.67677070e-02,  1.78696284e-03
    2417, -1.67937130e-03, -2.67812793e-02,  1.93185171e-03
    2418, -1.19439560e-03, -2.66003157e-02,  1.70000000e-03
    2419, -1.19439560e-03, -2.66003157e-02,  1.85000000e-03
    2420, -1.19439560e-03, -2.66003157e-02,  2.00000000e-03
    2421, -7.82166233e-04, -2.64464966e-02,  1.64207397e-03
    2422, -7.45793062e-04, -2.64329244e-02,  1.78696284e-03
    2423, -7.09419892e-04, -2.64193521e-02,  1.93185171e-03
    2424, -3.98029553e-04, -2.63031601e-02,  1.47224342e-03
    2425, -3.27761986e-04, -2.62769405e-02,  1.60214722e-03
    2426, -2.57494422e-04, -2.62507209e-02,  1.73205102e-03
    2427, -6.81637730e-05, -2.61800741e-02,  1.20208200e-03
    2428,  3.12095680e-05, -2.61429940e-02,  1.30814800e-03
    2429,  1.30582909e-04, -2.61059139e-02,  1.41421400e-03
    2430, -3.15577018e-03, -2.38848305e-02,  1.20208200e-03
    2431, -3.26067189e-03, -2.39005030e-02,  1.30814800e-03
    2432, -3.36557361e-03, -2.39161755e-02,  1.41421400e-03
    2433, -2.80755319e-03, -2.38328063e-02,  1.47224342e-03
    2434, -2.88172991e-03, -2.38438884e-02,  1.60214722e-03
    2435, -2.95590662e-03, -2.38549706e-02,  1.73205102e-03
    2436, -2.40204609e-03, -2.37722229e-02,  1.64207397e-03
    2437, -2.44044278e-03, -2.37779594e-02,  1.78696284e-03
    2438, -2.47883948e-03, -2.37836960e-02,  1.93185171e-03
    2439, -1.96688344e-03, -2.37072089e-02,  1.70000000e-03
    2440, -1.96688344e-03, -2.37072089e-02,  1.85000000e-03
    2441, -1.96688344e-03, -2.37072089e-02,  2.00000000e-03
    2442, -1.53172079e-03, -2.36421949e-02,  1.64207397e-03
    2443, -1.49332409e-03, -2.36364584e-02,  1.78696284e-03
    2444, -1.45492740e-03, -2.36307218e-02,  1.93185171e-03
    2445, -1.12621368e-03, -2.35816115e-02,  1.47224342e-03
    2446, -1.05203697e-03, -2.35705294e-02,  1.60214722e-03
    2447, -9.77860254e-04, -2.35594472e-02,  1.73205102e-03
    2448, -7.77996697e-04, -2.35295873e-02,  1.20208200e-03
    2449, -6.73094983e-04, -2.35139148e-02,  1.30814800e-03
    2450, -5.68193270e-04, -2.34982423e-02,  1.41421400e-03
    2451, -3.21352148e-03, -2.05792195e-02,  1.20208200e-03
    2452, -3.31889462e-03, -2.05671159e-02,  1.30814800e-03
    2453, -3.42426775e-03, -2.05550122e-02,  1.41421400e-03
    2454, -2.86373964e-03, -2.06193971e-02,  1.47224342e-03
    2455, -2.93824970e-03, -2.06108385e-02,  1.60214722e-03
    2456, -3.01275976e-03, -2.06022799e-02,  1.73205102e-03
    2457, -2.45641022e-03, -2.06661848e-02,  1.64207397e-03
    2458, -2.49497947e-03, -2.06617546e-02,  1.78696284e-03
    2459, -2.53354872e-03, -2.06573243e-02,  1.93185171e-03
    2460, -2.01929199e-03, -2.07163942e-02,  1.70000000e-03
    2461, -2.01929199e-03, -2.07163942e-02,  1.85000000e-03
    2462, -2.01929199e-03, -2.07163942e-02,  2.00000000e-03
    2463, -1.58217376e-03, -2.07666036e-02,  1.64207397e-03
    2464, -1.54360452e-03, -2.07710339e-02,  1.78696284e-03
    2465, -1.50503527e-03, -2.07754641e-02,  1.93185171e-03
    2466, -1.17484435e-03, -2.08133914e-02,  1.47224342e-03
    2467, -1.10033428e-03, -2.08219499e-02,  1.60214722e-03
    2468, -1.02582423e-03, -2.08305085e-02,  1.73205102e-03
    2469, -8.25062501e-04, -2.08535689e-02,  1.20208200e-03
    2470, -7.19689369e-04, -2.08656726e-02,  1.30814800e-03
    2471, -6.14316237e-04, -2.08777762e-02,  1.41421400e-03
    2472, -2.46529789e-03, -1.74071762e-02,  1.20208200e-03
    2473, -2.56544964e-03, -1.73722531e-02,  1.30814800e-03
    2474, -2.66560139e-03, -1.73373300e-02,  1.41421400e-03
    2475, -2.13284822e-03, -1.75231020e-02,  1.47224342e-03
    2476, -2.20366620e-03, -1.74984076e-02,  1.60214722e-03
    2477, -2.27448418e-03, -1.74737133e-02,  1.73205102e-03
    2478, -1.74570253e-03, -1.76581005e-02,  1.64207397e-03
    2479, -1.78236062e-03, -1.76453177e-02,  1.78696284e-03
    2480, -1.81901871e-03, -1.76325350e-02,  1.93185171e-03
    2481, -1.33024411e-03, -1.78029716e-02,  1.70000000e-03
    2482, -1.33024411e-03, -1.78029716e-02,  1.85000000e-03
    2483, -1.33024411e-03, -1.78029716e-02,  2.00000000e-03
    2484, -9.14785687e-04, -1.79478428e-02,  1.64207397e-03
    2485, -8.78127599e-04, -1.79606255e-02,  1.78696284e-03
    2486, -8.41469511e-04, -1.79734083e-02,  1.93185171e-03
    2487, -5.27640001e-04, -1.80828412e-02,  1.47224342e-03
    2488, -4.56822017e-04, -1.81075356e-02,  1.60214722e-03
    2489, -3.86004035e-04, -1.81322300e-02,  1.73205102e-03
    2490, -1.95190328e-04, -1.81987671e-02,  1.20208200e-03
    2491, -9.50385789e-05, -1.82336902e-02,  1.30814800e-03
    2492,  5.11316986e-06, -1.82686133e-02,  1.41421400e-03
    2493, -1.25906448e-03, -1.45318557e-02,  1.20208200e-03
    2494, -1.35525790e-03, -1.44871699e-02,  1.30814800e-03
    2495, -1.45145133e-03, -1.44424841e-02,  1.41421400e-03
    2496, -9.39754294e-04, -1.46801885e-02,  1.47224342e-03
    2497, -1.00777332e-03, -1.46485908e-02,  1.60214722e-03
    2498, -1.07579235e-03, -1.46169932e-02,  1.73205102e-03
    2499, -5.67909863e-04, -1.48529255e-02,  1.64207397e-03
    2500, -6.03119104e-04, -1.48365694e-02,  1.78696284e-03
    2501, -6.38328345e-04, -1.48202132e-02,  1.93185171e-03
    2502, -1.68871705e-04, -1.50382951e-02,  1.70000000e-03
    2503, -1.68871705e-04, -1.50382951e-02,  1.85000000e-03
    2504, -1.68871705e-04, -1.50382951e-02,  2.00000000e-03
    2505,  2.30166452e-04, -1.52236648e-02,  1.64207397e-03
    2506,  2.65375693e-04, -1.52400209e-02,  1.78696284e-03
    2507,  3.00584934e-04, -1.52563771e-02,  1.93185171e-03
    2508,  6.02010883e-04, -1.53964018e-02,  1.47224342e-03
    2509,  6.70029911e-04, -1.54279994e-02,  1.60214722e-03
    2510,  7.38048936e-04, -1.54595971e-02,  1.73205102e-03
    2511,  9.21321066e-04, -1.55447345e-02,  1.20208200e-03
    2512,  1.01751449e-03, -1.55894203e-02,  1.30814800e-03
    2513,  1.11370792e-03, -1.56341061e-02,  1.41421400e-03
    2514, -6.70519370e-05, -1.18561524e-02,  1.20208200e-03
    2515, -1.65693352e-04, -1.18171670e-02,  1.30814800e-03
    2516, -2.64334766e-04, -1.17781815e-02,  1.41421400e-03
    2517,  2.60384244e-04, -1.19855632e-02,  1.47224342e-03
    2518,  1.90634227e-04, -1.19579963e-02,  1.60214722e-03
    2519,  1.20884212e-04, -1.19304294e-02,  1.73205102e-03
    2520,  6.41691595e-04, -1.21362651e-02,  1.64207397e-03
    2521,  6.05586328e-04, -1.21219954e-02,  1.78696284e-03
    2522,  5.69481061e-04, -1.21077257e-02,  1.93185171e-03
    2523,  1.05088472e-03, -1.22979881e-02,  1.70000000e-03
    2524,  1.05088472e-03, -1.22979881e-02,  1.85000000e-03
    2525,  1.05088472e-03, -1.22979881e-02,  2.00000000e-03
    2526,  1.46007784e-03, -1.24597112e-02,  1.64207397e-03
    2527,  1.49618310e-03, -1.24739808e-02,  1.78696284e-03
    2528,  1.53228837e-03, -1.24882505e-02,  1.93185171e-03
    2529,  1.84138519e-03, -1.26104131e-02,  1.47224342e-03
    2530,  1.91113520e-03, -1.26379800e-02,  1.60214722e-03
    2531,  1.98088522e-03, -1.26655469e-02,  1.73205102e-03
    2532,  2.16882137e-03, -1.27398238e-02,  1.20208200e-03
    2533,  2.26746278e-03, -1.27788093e-02,  1.30814800e-03
    2534,  2.36610420e-03, -1.28177947e-02,  1.41421400e-03
    2535,  7.18846096e-04, -9.20937942e-03,  1.20208200e-03
    2536,  6.14517724e-04, -9.19025911e-03,  1.30814800e-03
    2537,  5.10189352e-04, -9.17113880e-03,  1.41421400e-03
    2538,  1.06515990e-03, -9.27284850e-03,  1.47224342e-03
    2539,  9.91388596e-04, -9.25932840e-03,  1.60214722e-03
    2540,  9.17617296e-04, -9.24580830e-03,  1.73205102e-03
    2541,  1.46845070e-03, -9.34675979e-03,  1.64207397e-03
    2542,  1.43026386e-03, -9.33976127e-03,  1.78696284e-03
    2543,  1.39207702e-03, -9.33276275e-03,  1.93185171e-03
    2544,  1.90123496e-03, -9.42607636e-03,  1.70000000e-03
    2545,  1.90123496e-03, -9.42607636e-03,  1.85000000e-03
    2546,  1.90123496e-03, -9.42607636e-03,  2.00000000e-03
    2547,  2.33401923e-03, -9.50539293e-03,  1.64207397e-03
    2548,  2.37220606e-03, -9.51239145e-03,  1.78696284e-03
    2549,  2.41039290e-03, -9.51938997e-03,  1.93185171e-03
    2550,  2.73731003e-03, -9.57930422e-03,  1.47224342e-03
    2551,  2.81108133e-03, -9.59282432e-03,  1.60214722e-03
    2552,  2.88485263e-03, -9.60634442e-03,  1.73205102e-03
    2553,  3.08362383e-03, -9.64277331e-03,  1.20208200e-03
    2554,  3.18795220e-03, -9.66189361e-03,  1.30814800e-03
    2555,  3.29228057e-03, -9.68101392e-03,  1.41421400e-03
    2556,  8.59786091e-04, -6.53445898e-03,  1.20208200e-03
    2557,  7.54056457e-04, -6.54289938e-03,  1.30814800e-03
    2558,  6.48326823e-04, -6.55133978e-03,  1.41421400e-03
    2559,  1.21075133e-03, -6.50644141e-03,  1.47224342e-03
    2560,  1.13598918e-03, -6.51240967e-03,  1.60214722e-03
    2561,  1.06122704e-03, -6.51837794e-03,  1.73205102e-03
    2562,  1.61945884e-03, -6.47381427e-03,  1.64207397e-03
    2563,  1.58075910e-03, -6.47690367e-03,  1.78696284e-03
    2564,  1.54205937e-03, -6.47999307e-03,  1.93185171e-03
    2565,  2.05805594e-03, -6.43880105e-03,  1.70000000e-03
    2566,  2.05805594e-03, -6.43880105e-03,  1.85000000e-03
    2567,  2.05805594e-03, -6.43880105e-03,  2.00000000e-03
    2568,  2.49665305e-03, -6.40378782e-03,  1.64207397e-03
    2569,  2.53535278e-03, -6.40069842e-03,  1.78696284e-03
    2570,  2.57405252e-03, -6.39760902e-03,  1.93185171e-03
    2571,  2.90536055e-03, -6.37116069e-03,  1.47224342e-03
    2572,  2.98012270e-03, -6.36519242e-03,  1.60214722e-03
    2573,  3.05488484e-03, -6.35922416e-03,  1.73205102e-03
    2574,  3.25632579e-03, -6.34314312e-03,  1.20208200e-03
    2575,  3.36205543e-03, -6.33470272e-03,  1.30814800e-03
    2576,  3.46778506e-03, -6.32626232e-03,  1.41421400e-03
    2577,  3.13327148e-04, -3.87509982e-03,  1.20208200e-03
    2578,  2.12370931e-04, -3.90762424e-03,  1.30814800e-03
    2579,  1.11414715e-04, -3.94014867e-03,  1.41421400e-03
    2580,  6.48447220e-04, -3.76713632e-03,  1.47224342e-03
    2581,  5.77060391e-04, -3.79013456e-03,  1.60214722e-03
    2582,  5.05673564e-04, -3.81313280e-03,  1.73205102e-03
    2583,  1.03870265e-03, -3.64141021e-03,  1.64207397e-03
    2584,  1.00175011e-03, -3.65331497e-03,  1.78696284e-03
    2585,  9.64797563e-04, -3.66521974e-03,  1.93185171e-03
    2586,  1.45749824e-03, -3.50648949e-03,  1.70000000e-03
    2587,  1.45749824e-03, -3.50648949e-03,  1.85000000e-03
    2588,  1.45749824e-03, -3.50648949e-03,  2.00000000e-03
    2589,  1.87629383e-03, -3.37156878e-03,  1.64207397e-03
    2590,  1.91324637e-03, -3.35966401e-03,  1.78696284e-03
    2591,  1.95019891e-03, -3.34775925e-03,  1.93185171e-03
    2592,  2.26654926e-03, -3.24584267e-03,  1.47224342e-03
    2593,  2.33793608e-03, -3.22284443e-03,  1.60214722e-03
    2594,  2.40932291e-03, -3.19984619e-03,  1.73205102e-03
    2595,  2.60166933e-03, -3.13787917e-03,  1.20208200e-03
    2596,  2.70262554e-03, -3.10535474e-03,  1.30814800e-03
    2597,  2.80358176e-03, -3.07283032e-03,  1.41421400e-03
    2598, -7.55692475e-04, -1.22739463e-03,  1.20208200e-03
    2599, -8.52079190e-04, -1.27166197e-03,  1.30814800e-03
    2600, -9.48465905e-04, -1.31592931e-03,  1.41421400e-03
    2601, -4.35740678e-04, -1.08045098e-03,  1.47224342e-03
    2602, -5.03896382e-04, -1.11175272e-03,  1.60214722e-03
    2603, -5.72052083e-04, -1.14305446e-03,  1.73205102e-03
    2604, -6.31490725e-05, -9.09331553e-04,  1.64207397e-03
    2605, -9.84290620e-05, -9.25534526e-04,  1.78696284e-03
    2606, -1.33709052e-04, -9.41737499e-04,  1.93185171e-03
    2607,  3.36690902e-04, -7.25697818e-04,  1.70000000e-03
    2608,  3.36690902e-04, -7.25697818e-04,  1.85000000e-03
    2609,  3.36690902e-04, -7.25697818e-04,  2.00000000e-03
    2610,  7.36530876e-04, -5.42064082e-04,  1.64207397e-03
    2611,  7.71810866e-04, -5.25861109e-04,  1.78696284e-03
    2612,  8.07090855e-04, -5.09658136e-04,  1.93185171e-03
    2613,  1.10912248e-03, -3.70944652e-04,  1.47224342e-03
    2614,  1.17727819e-03, -3.39642913e-04,  1.60214722e-03
    2615,  1.24543389e-03, -3.08341176e-04,  1.73205102e-03
    2616,  1.42907428e-03, -2.24001006e-04,  1.20208200e-03
    2617,  1.52546099e-03, -1.79733665e-04,  1.30814800e-03
    2618,  1.62184771e-03, -1.35466324e-04,  1.41421400e-03
    2619,  1.33430568e-03, -2.87291835e-02,  8.50000209e-04
    2620,  1.45203850e-03, -2.86742838e-02,  9.25000201e-04
    2621,  1.56977133e-03, -2.86193841e-02,  1.00000019e-03
    2622,  1.48822443e-03, -2.86574100e-02,  4.39992448e-04
    2623,  1.61953834e-03, -2.85961773e-02,  4.78815302e-04
    2624,  1.75085225e-03, -2.85349446e-02,  5.17638156e-04
    2625,  1.54072324e-03, -2.86329294e-02,  9.25185854e-20
    2626,  1.67666941e-03, -2.85695367e-02,  1.38777878e-19
    2627,  1.81261557e-03, -2.85061439e-02,  2.22044605e-19
    2628,  1.48822443e-03, -2.86574100e-02, -4.39992448e-04
    2629,  1.61953834e-03, -2.85961773e-02, -4.78815302e-04
    2630,  1.75085225e-03, -2.85349446e-02, -5.17638156e-04
    2631,  1.33430568e-03, -2.87291835e-02, -8.50000209e-04
    2632,  1.45203850e-03, -2.86742838e-02, -9.25000201e-04
    2633,  1.56977133e-03, -2.86193841e-02, -1.00000019e-03
    2634,  1.08945628e-03, -2.88433587e-02, -1.20208200e-03
    2635,  1.18558472e-03, -2.87985332e-02, -1.30814800e-03
    2636,  1.28171316e-03, -2.87537078e-02, -1.41421400e-03
    2637,  1.84950730e-04, -2.60856271e-02,  8.50000209e-04
    2638,  3.06657730e-04, -2.60402134e-02,  9.25000201e-04
    2639,  4.28364729e-04, -2.59947997e-02,  1.00000019e-03
    2640,  3.44065142e-04, -2.60262552e-02,  4.39992448e-04
    2641,  4.79811668e-04, -2.59756029e-02,  4.78815302e-04
    2642,  6.15558195e-04, -2.59249505e-02,  5.17638156e-04
    2643,  3.98336097e-04, -2.60060046e-02,  9.25185854e-20
    2644,  5.38871246e-04, -2.59535654e-02,  1.38777878e-19
    2645,  6.79406396e-04, -2.59011262e-02,  2.22044605e-19
    2646,  3.44065142e-04, -2.60262552e-02, -4.39992448e-04
    2647,  4.79811668e-04, -2.59756029e-02, -4.78815302e-04
    2648,  6.15558195e-04, -2.59249505e-02, -5.17638156e-04
    2649,  1.84950730e-04, -2.60856271e-02, -8.50000209e-04
    2650,  3.06657730e-04, -2.60402134e-02, -9.25000201e-04
    2651,  4.28364729e-04, -2.59947997e-02, -1.00000019e-03
    2652, -6.81637730e-05, -2.61800741e-02, -1.20208200e-03
    2653,  3.12095680e-05, -2.61429940e-02, -1.30814800e-03
    2654,  1.30582909e-04, -2.61059139e-02, -1.41421400e-03
    2655, -5.10800839e-04, -2.34896678e-02,  8.50000209e-04
    2656, -3.82322994e-04, -2.34704730e-02,  9.25000201e-04
    2657, -2.53845148e-04, -2.34512782e-02,  1.00000019e-03
    2658, -3.42834520e-04, -2.34645734e-02,  4.39992448e-04
    2659, -1.99536095e-04, -2.34431643e-02,  4.78815302e-04
    2660, -5.62376707e-05, -2.34217553e-02,  5.17638156e-04
    2661, -2.85544344e-04, -2.34560141e-02,  9.25185854e-20
    2662, -1.37190894e-04, -2.34338499e-02,  1.38777878e-19
    2663,  1.11625553e-05, -2.34116856e-02,  2.22044605e-19
    2664, -3.42834520e-04, -2.34645734e-02, -4.39992448e-04
    2665, -1.99536095e-04, -2.34431643e-02, -4.78815302e-04
    2666, -5.62376707e-05, -2.34217553e-02, -5.17638156e-04
    2667, -5.10800839e-04, -2.34896678e-02, -8.50000209e-04
    2668, -3.82322994e-04, -2.34704730e-02, -9.25000201e-04
    2669, -2.53845148e-04, -2.34512782e-02, -1.00000019e-03
    2670, -7.77996697e-04, -2.35295873e-02, -1.20208200e-03
    2671, -6.73094983e-04, -2.35139148e-02, -1.30814800e-03
    2672, -5.68193270e-04, -2.34982423e-02, -1.41421400e-03
    2673, -5.56665890e-04, -2.08843982e-02,  8.50000209e-04
    2674, -4.27610677e-04, -2.08992221e-02,  9.25000201e-04
    2675, -2.98555463e-04, -2.09140459e-02,  1.00000019e-03
    2676, -3.87944745e-04, -2.09037783e-02,  4.39992448e-04
    2677, -2.44002351e-04, -2.09203122e-02,  4.78815302e-04
    2678, -1.00059956e-04, -2.09368460e-02,  5.17638156e-04
    2679, -3.30397112e-04, -2.09103885e-02,  9.25185854e-20
    2680, -1.81376976e-04, -2.09275056e-02,  1.38777878e-19
    2681, -3.23568394e-05, -2.09446227e-02,  2.22044605e-19
    2682, -3.87944745e-04, -2.09037783e-02, -4.39992448e-04
    2683, -2.44002351e-04, -2.09203122e-02, -4.78815302e-04
    2684, -1.00059956e-04, -2.09368460e-02, -5.17638156e-04
    2685, -5.56665890e-04, -2.08843982e-02, -8.50000209e-04
    2686, -4.27610677e-04, -2.08992221e-02, -9.25000201e-04
    2687, -2.98555463e-04, -2.09140459e-02, -1.00000019e-03
    2688, -8.25062501e-04, -2.08535689e-02, -1.20208200e-03
    2689, -7.19689369e-04, -2.08656726e-02, -1.30814800e-03
    2690, -6.14316237e-04, -2.08777762e-02, -1.41421400e-03
    2691,  5.99068633e-05, -1.82877199e-02,  8.50000209e-04
    2692,  1.82567214e-04, -1.83304918e-02,  9.25000201e-04
    2693,  3.05227564e-04, -1.83732637e-02,  1.00000019e-03
    2694,  2.20267644e-04, -1.83436381e-02,  4.39992448e-04
    2695,  3.57077496e-04, -1.83913439e-02,  4.78815302e-04
    2696,  4.93887347e-04, -1.84390498e-02,  5.17638156e-04
    2697,  2.74963713e-04, -1.83627107e-02,  9.25185854e-20
    2698,  4.16599697e-04, -1.84120994e-02,  1.38777878e-19
    2699,  5.58235681e-04, -1.84614882e-02,  2.22044605e-19
    2700,  2.20267644e-04, -1.83436381e-02, -4.39992448e-04
    2701,  3.57077496e-04, -1.83913439e-02, -4.78815302e-04
    2702,  4.93887347e-04, -1.84390498e-02, -5.17638156e-04
    2703,  5.99068633e-05, -1.82877199e-02, -8.50000209e-04
    2704,  1.82567214e-04, -1.83304918e-02, -9.25000201e-04
    2705,  3.05227564e-04, -1.83732637e-02, -1.00000019e-03
    2706, -1.95190328e-04, -1.81987671e-02, -1.20208200e-03
    2707, -9.50385789e-05, -1.82336902e-02, -1.30814800e-03
    2708,  5.11316986e-06, -1.82686133e-02, -1.41421400e-03
    2709,  1.16633599e-03, -1.56585540e-02,  8.50000209e-04
    2710,  1.28414840e-03, -1.57132827e-02,  9.25000201e-04
    2711,  1.40196082e-03, -1.57680115e-02,  1.00000019e-03
    2712,  1.32035879e-03, -1.57301040e-02,  4.39992448e-04
    2713,  1.45176147e-03, -1.57911459e-02,  4.78815302e-04
    2714,  1.58316415e-03, -1.58521879e-02,  5.17638156e-04
    2715,  1.37289309e-03, -1.57545083e-02,  9.25185854e-20
    2716,  1.50893116e-03, -1.58177036e-02,  1.38777878e-19
    2717,  1.64496923e-03, -1.58808989e-02,  2.22044605e-19
    2718,  1.32035879e-03, -1.57301040e-02, -4.39992448e-04
    2719,  1.45176147e-03, -1.57911459e-02, -4.78815302e-04
    2720,  1.58316415e-03, -1.58521879e-02, -5.17638156e-04
    2721,  1.16633599e-03, -1.56585540e-02, -8.50000209e-04
    2722,  1.28414840e-03, -1.57132827e-02, -9.25000201e-04
    2723,  1.40196082e-03, -1.57680115e-02, -1.00000019e-03
    2724,  9.21321066e-04, -1.55447345e-02, -1.20208200e-03
    2725,  1.01751449e-03, -1.55894203e-02, -1.30814800e-03
    2726,  1.11370792e-03, -1.56341061e-02, -1.41421400e-03
    2727,  2.42007158e-03, -1.28391240e-02,  8.50000209e-04
    2728,  2.54088215e-03, -1.28868712e-02,  9.25000201e-04
    2729,  2.66169273e-03, -1.29346185e-02,  1.00000019e-03
    2730,  2.57801404e-03, -1.29015467e-02,  4.39992448e-04
    2731,  2.71276074e-03, -1.29548018e-02,  4.78815302e-04
    2732,  2.84750744e-03, -1.30080570e-02,  5.17638156e-04
    2733,  2.63188527e-03, -1.29228379e-02,  9.25185854e-20
    2734,  2.77138532e-03, -1.29779717e-02,  1.38777878e-19
    2735,  2.91088537e-03, -1.30331055e-02,  2.22044605e-19
    2736,  2.57801404e-03, -1.29015467e-02, -4.39992448e-04
    2737,  2.71276074e-03, -1.29548018e-02, -4.78815302e-04
    2738,  2.84750744e-03, -1.30080570e-02, -5.17638156e-04
    2739,  2.42007158e-03, -1.28391240e-02, -8.50000209e-04
    2740,  2.54088215e-03, -1.28868712e-02, -9.25000201e-04
    2741,  2.66169273e-03, -1.29346185e-02, -1.00000019e-03
    2742,  2.16882137e-03, -1.27398238e-02, -1.20208200e-03
    2743,  2.26746278e-03, -1.27788093e-02, -1.30814800e-03
    2744,  2.36610420e-03, -1.28177947e-02, -1.41421400e-03
    2745,  3.34935932e-03, -9.69147477e-03,  8.50000209e-04
    2746,  3.47713497e-03, -9.71489227e-03,  9.25000201e-04
    2747,  3.60491062e-03, -9.73830977e-03,  1.00000019e-03
    2748,  3.51640762e-03, -9.72208979e-03,  4.39992448e-04
    2749,  3.65892285e-03, -9.74820862e-03,  4.78815302e-04
    2750,  3.80143807e-03, -9.77432745e-03,  5.17638156e-04
    2751,  3.57338468e-03, -9.73253200e-03,  9.25185854e-20
    2752,  3.72092730e-03, -9.75957220e-03,  1.38777878e-19
    2753,  3.86846992e-03, -9.78661241e-03,  2.22044605e-19
    2754,  3.51640762e-03, -9.72208979e-03, -4.39992448e-04
    2755,  3.65892285e-03, -9.74820862e-03, -4.78815302e-04
    2756,  3.80143807e-03, -9.77432745e-03, -5.17638156e-04
    2757,  3.34935932e-03, -9.69147477e-03, -8.50000209e-04
    2758,  3.47713497e-03, -9.71489227e-03, -9.25000201e-04
    2759,  3.60491062e-03, -9.73830977e-03, -1.00000019e-03
    2760,  3.08362383e-03, -9.64277331e-03, -1.20208200e-03
    2761,  3.18795220e-03, -9.66189361e-03, -1.30814800e-03
    2762,  3.29228057e-03, -9.68101392e-03, -1.41421400e-03
    2763,  3.52563045e-03, -6.32164452e-03,  8.50000209e-04
    2764,  3.65512229e-03, -6.31130718e-03,  9.25000201e-04
    2765,  3.78461413e-03, -6.30096984e-03,  1.00000019e-03
    2766,  3.69492242e-03, -6.30812993e-03,  4.39992448e-04
    2767,  3.83935181e-03, -6.29660013e-03,  4.78815302e-04
    2768,  3.98378119e-03, -6.28507033e-03,  5.17638156e-04
    2769,  3.75266475e-03, -6.30352036e-03,  9.25185854e-20
    2770,  3.90218906e-03, -6.29158383e-03,  1.38777878e-19
    2771,  4.05171336e-03, -6.27964730e-03,  2.22044605e-19
    2772,  3.69492242e-03, -6.30812993e-03, -4.39992448e-04
    2773,  3.83935181e-03, -6.29660013e-03, -4.78815302e-04
    2774,  3.98378119e-03, -6.28507033e-03, -5.17638156e-04
    2775,  3.52563045e-03, -6.32164452e-03, -8.50000209e-04
    2776,  3.65512229e-03, -6.31130718e-03, -9.25000201e-04
    2777,  3.78461413e-03, -6.30096984e-03, -1.00000019e-03
    2778,  3.25632579e-03, -6.34314312e-03, -1.20208200e-03
    2779,  3.36205543e-03, -6.33470272e-03, -1.30814800e-03
    2780,  3.46778506e-03, -6.32626232e-03, -1.41421400e-03
    2781,  2.85881558e-03, -3.05503599e-03,  8.50000209e-04
    2782,  2.98246120e-03, -3.01520187e-03,  9.25000201e-04
    2783,  3.10610682e-03, -2.97536774e-03,  1.00000019e-03
    2784,  3.02046446e-03, -3.00295860e-03,  4.39992448e-04
    2785,  3.15837324e-03, -2.95852941e-03,  4.78815302e-04
    2786,  3.29628201e-03, -2.91410021e-03,  5.17638156e-04
    2787,  3.07559988e-03, -2.98519597e-03,  9.25185854e-20
    2788,  3.21837355e-03, -2.93919949e-03,  1.38777878e-19
    2789,  3.36114722e-03, -2.89320300e-03,  2.22044605e-19
    2790,  3.02046446e-03, -3.00295860e-03, -4.39992448e-04
    2791,  3.15837324e-03, -2.95852941e-03, -4.78815302e-04
    2792,  3.29628201e-03, -2.91410021e-03, -5.17638156e-04
    2793,  2.85881558e-03, -3.05503599e-03, -8.50000209e-04
    2794,  2.98246120e-03, -3.01520187e-03, -9.25000201e-04
    2795,  3.10610682e-03, -2.97536774e-03, -1.00000019e-03
    2796,  2.60166933e-03, -3.13787917e-03, -1.20208200e-03
    2797,  2.70262554e-03, -3.10535474e-03, -1.30814800e-03
    2798,  2.80358176e-03, -3.07283032e-03, -1.41421400e-03
    2799,  1.67458153e-03, -1.11247364e-04,  8.50000209e-04
    2800,  1.79263067e-03, -5.70311608e-05,  9.25000201e-04
    2801,  1.91067982e-03, -2.81495739e-06,  1.00000019e-03
    2802,  1.82891382e-03, -4.03674697e-05,  4.39992448e-04
    2803,  1.96058054e-03,  2.01028511e-05,  4.78815302e-04
    2804,  2.09224726e-03,  8.05731718e-05,  5.17638156e-04
    2805,  1.88155368e-03, -1.61916609e-05,  9.25185854e-20
    2806,  2.01786510e-03,  4.64118235e-05,  1.38777878e-19
    2807,  2.15417653e-03,  1.09015308e-04,  2.22044605e-19
    2808,  1.82891382e-03, -4.03674697e-05, -4.39992448e-04
    2809,  1.96058054e-03,  2.01028511e-05, -4.78815302e-04
    2810,  2.09224726e-03,  8.05731718e-05, -5.17638156e-04
    2811,  1.67458153e-03, -1.11247364e-04, -8.50000209e-04
    2812,  1.79263067e-03, -5.70311608e-05, -9.25000201e-04
    2813,  1.91067982e-03, -2.81495739e-06, -1.00000019e-03
    2814,  1.42907428e-03, -2.24001006e-04, -1.20208200e-03
    2815,  1.52546099e-03, -1.79733665e-04, -1.30814800e-03
    2816,  1.62184771e-03, -1.35466324e-04, -1.41421400e-03
    2817,  7.70361808e-04, -2.89921548e-02, -1.47224342e-03
    2818,  8.38334885e-04, -2.89604585e-02, -1.60214722e-03
    2819,  9.06307959e-04, -2.89287621e-02, -1.73205102e-03
    2820,  3.98768582e-04, -2.91654316e-02, -1.64207397e-03
    2821,  4.33954037e-04, -2.91490244e-02, -1.78696284e-03
    2822,  4.69139492e-04, -2.91326171e-02, -1.93185171e-03
    2823,  6.18799325e-18, -2.93513805e-02, -1.70000000e-03
    2824,  6.22991841e-18, -2.93513805e-02, -1.85000000e-03
    2825,  6.30538369e-18, -2.93513805e-02, -2.00000000e-03
    2826, -3.98768582e-04, -2.95373293e-02, -1.64207397e-03
    2827, -4.33954037e-04, -2.95537365e-02, -1.78696284e-03
    2828, -4.69139492e-04, -2.95701438e-02, -1.93185171e-03
    2829, -7.70361808e-04, -2.97106061e-02, -1.47224342e-03
    2830, -8.38334885e-04, -2.97423024e-02, -1.60214722e-03
    2831, -9.06307959e-04, -2.97739988e-02, -1.73205102e-03
    2832, -1.08945628e-03, -2.98594023e-02, -1.20208200e-03
    2833, -1.18558472e-03, -2.99042277e-02, -1.30814800e-03
    2834, -1.28171316e-03, -2.99490531e-02, -1.41421400e-03
    2835, -3.98029553e-04, -2.63031601e-02, -1.47224342e-03
    2836, -3.27761986e-04, -2.62769405e-02, -1.60214722e-03
    2837, -2.57494422e-04, -2.62507209e-02, -1.73205102e-03
    2838, -7.82166233e-04, -2.64464966e-02, -1.64207397e-03
    2839, -7.45793062e-04, -2.64329244e-02, -1.78696284e-03
    2840, -7.09419892e-04, -2.64193521e-02, -1.93185171e-03
    2841, -1.19439560e-03, -2.66003157e-02, -1.70000000e-03
    2842, -1.19439560e-03, -2.66003157e-02, -1.85000000e-03
    2843, -1.19439560e-03, -2.66003157e-02, -2.00000000e-03
    2844, -1.60662496e-03, -2.67541347e-02, -1.64207397e-03
    2845, -1.64299813e-03, -2.67677070e-02, -1.78696284e-03
    2846, -1.67937130e-03, -2.67812793e-02, -1.93185171e-03
    2847, -1.99076164e-03, -2.68974713e-02, -1.47224342e-03
    2848, -2.06102920e-03, -2.69236909e-02, -1.60214722e-03
    2849, -2.13129677e-03, -2.69499105e-02, -1.73205102e-03
    2850, -2.32062742e-03, -2.70205572e-02, -1.20208200e-03
    2851, -2.42000076e-03, -2.70576373e-02, -1.30814800e-03
    2852, -2.51937410e-03, -2.70947175e-02, -1.41421400e-03
    2853, -1.12621368e-03, -2.35816115e-02, -1.47224342e-03
    2854, -1.05203697e-03, -2.35705294e-02, -1.60214722e-03
    2855, -9.77860254e-04, -2.35594472e-02, -1.73205102e-03
    2856, -1.53172079e-03, -2.36421949e-02, -1.64207397e-03
    2857, -1.49332409e-03, -2.36364584e-02, -1.78696284e-03
    2858, -1.45492740e-03, -2.36307218e-02, -1.93185171e-03
    2859, -1.96688344e-03, -2.37072089e-02, -1.70000000e-03
    2860, -1.96688344e-03, -2.37072089e-02, -1.85000000e-03
    2861, -1.96688344e-03, -2.37072089e-02, -2.00000000e-03
    2862, -2.40204609e-03, -2.37722229e-02, -1.64207397e-03
    2863, -2.44044278e-03, -2.37779594e-02, -1.78696284e-03
    2864, -2.47883948e-03, -2.37836960e-02, -1.93185171e-03
    2865, -2.80755319e-03, -2.38328063e-02, -1.47224342e-03
    2866, -2.88172991e-03, -2.38438884e-02, -1.60214722e-03
    2867, -2.95590662e-03, -2.38549706e-02, -1.73205102e-03
    2868, -3.15577018e-03, -2.38848305e-02, -1.20208200e-03
    2869, -3.26067189e-03, -2.39005030e-02, -1.30814800e-03
    2870, -3.36557361e-03, -2.39161755e-02, -1.41421400e-03
    2871, -1.17484435e-03, -2.08133914e-02, -1.47224342e-03
    2872, -1.10033428e-03, -2.08219499e-02, -1.60214722e-03
    2873, -1.02582423e-03, -2.08305085e-02, -1.73205102e-03
    2874, -1.58217376e-03, -2.07666036e-02, -1.64207397e-03
    2875, -1.54360452e-03, -2.07710339e-02, -1.78696284e-03
    2876, -1.50503527e-03, -2.07754641e-02, -1.93185171e-03
    2877, -2.01929199e-03, -2.07163942e-02, -1.70000000e-03
    2878, -2.01929199e-03, -2.07163942e-02, -1.85000000e-03
    2879, -2.01929199e-03, -2.07163942e-02, -2.00000000e-03
    2880, -2.45641022e-03, -2.06661848e-02, -1.64207397e-03
    2881, -2.49497947e-03, -2.06617546e-02, -1.78696284e-03
    2882, -2.53354872e-03, -2.06573243e-02, -1.93185171e-03
    2883, -2.86373964e-03, -2.06193971e-02, -1.47224342e-03
    2884, -2.93824970e-03, -2.06108385e-02, -1.60214722e-03
    2885, -3.01275976e-03, -2.06022799e-02, -1.73205102e-03
    2886, -3.21352148e-03, -2.05792195e-02, -1.20208200e-03
    2887, -3.31889462e-03, -2.05671159e-02, -1.30814800e-03
    2888, -3.42426775e-03, -2.05550122e-02, -1.41421400e-03
    2889, -5.27640001e-04, -1.80828412e-02, -1.47224342e-03
    2890, -4.56822017e-04, -1.81075356e-02, -1.60214722e-03
    2891, -3.86004035e-04, -1.81322300e-02, -1.73205102e-03
    2892, -9.14785687e-04, -1.79478428e-02, -1.64207397e-03
    2893, -8.78127599e-04, -1.79606255e-02, -1.78696284e-03
    2894, -8.41469511e-04, -1.79734083e-02, -1.93185171e-03
    2895, -1.33024411e-03, -1.78029716e-02, -1.70000000e-03
    2896, -1.33024411e-03, -1.78029716e-02, -1.85000000e-03
    2897, -1.33024411e-03, -1.78029716e-02, -2.00000000e-03
    2898, -1.74570253e-03, -1.76581005e-02, -1.64207397e-03
    2899, -1.78236062e-03, -1.76453177e-02, -1.78696284e-03
    2900, -1.81901871e-03, -1.76325350e-02, -1.93185171e-03
    2901, -2.13284822e-03, -1.75231020e-02, -1.47224342e-03
    2902, -2.20366620e-03, -1.74984076e-02, -1.60214722e-03
    2903, -2.27448418e-03, -1.74737133e-02, -1.73205102e-03
    2904, -2.46529789e-03, -1.74071762e-02, -1.20208200e-03
    2905, -2.56544964e-03, -1.73722531e-02, -1.30814800e-03
    2906, -2.66560139e-03, -1.73373300e-02, -1.41421400e-03
    2907,  6.02010883e-04, -1.53964018e-02, -1.47224342e-03
    2908,  6.70029911e-04, -1.54279994e-02, -1.60214722e-03
    2909,  7.38048936e-04, -1.54595971e-02, -1.73205102e-03
    2910,  2.30166452e-04, -1.52236648e-02, -1.64207397e-03
    2911,  2.65375693e-04, -1.52400209e-02, -1.78696284e-03
    2912,  3.00584934e-04, -1.52563771e-02, -1.93185171e-03
    2913, -1.68871705e-04, -1.50382951e-02, -1.70000000e-03
    2914, -1.68871705e-04, -1.50382951e-02, -1.85000000e-03
    2915, -1.68871705e-04, -1.50382951e-02, -2.00000000e-03
    2916, -5.67909863e-04, -1.48529255e-02, -1.64207397e-03
    2917, -6.03119104e-04, -1.48365694e-02, -1.78696284e-03
    2918, -6.38328345e-04, -1.48202132e-02, -1.93185171e-03
    2919, -9.39754294e-04, -1.46801885e-02, -1.47224342e-03
    2920, -1.00777332e-03, -1.46485908e-02, -1.60214722e-03
    2921, -1.07579235e-03, -1.46169932e-02, -1.73205102e-03
    2922, -1.25906448e-03, -1.45318557e-02, -1.20208200e-03
    2923, -1.35525790e-03, -1.44871699e-02, -1.30814800e-03
    2924, -1.45145133e-03, -1.44424841e-02, -1.41421400e-03
    2925,  1.84138519e-03, -1.26104131e-02, -1.47224342e-03
    2926,  1.91113520e-03, -1.26379800e-02, -1.60214722e-03
    2927,  1.98088522e-03, -1.26655469e-02, -1.73205102e-03
    2928,  1.46007784e-03, -1.24597112e-02, -1.64207397e-03
    2929,  1.49618310e-03, -1.24739808e-02, -1.78696284e-03
    2930,  1.53228837e-03, -1.24882505e-02, -1.93185171e-03
    2931,  1.05088472e-03, -1.22979881e-02, -1.70000000e-03
    2932,  1.05088472e-03, -1.22979881e-02, -1.85000000e-03
    2933,  1.05088472e-03, -1.22979881e-02, -2.00000000e-03
    2934,  6.41691595e-04, -1.21362651e-02, -1.64207397e-03
    2935,  6.05586328e-04, -1.21219954e-02, -1.78696284e-03
    2936,  5.69481061e-04, -1.21077257e-02, -1.93185171e-03
    2937,  2.60384244e-04, -1.19855632e-02, -1.47224342e-03
    2938,  1.90634227e-04, -1.19579963e-02, -1.60214722e-03
    2939,  1.20884212e-04, -1.19304294e-02, -1.73205102e-03
    2940, -6.70519370e-05, -1.18561524e-02, -1.20208200e-03
    2941, -1.65693352e-04, -1.18171670e-02, -1.30814800e-03
    2942, -2.64334766e-04, -1.17781815e-02, -1.41421400e-03
    2943,  2.73731003e-03, -9.57930422e-03, -1.47224342e-03
    2944,  2.81108133e-03, -9.59282432e-03, -1.60214722e-03
    2945,  2.88485263e-03, -9.60634442e-03, -1.73205102e-03
    2946,  2.33401923e-03, -9.50539293e-03, -1.64207397e-03
    2947,  2.37220606e-03, -9.51239145e-03, -1.78696284e-03
    2948,  2.41039290e-03, -9.51938997e-03, -1.93185171e-03
    2949,  1.90123496e-03, -9.42607636e-03, -1.70000000e-03
    2950,  1.90123496e-03, -9.42607636e-03, -1.85000000e-03
    2951,  1.90123496e-03, -9.42607636e-03, -2.00000000e-03
    2952,  1.46845070e-03, -9.34675979e-03, -1.64207397e-03
    2953,  1.43026386e-03, -9.33976127e-03, -1.78696284e-03
    2954,  1.39207702e-03, -9.33276275e-03, -1.93185171e-03
    2955,  1.06515990e-03, -9.27284850e-03, -1.47224342e-03
    2956,  9.91388596e-04, -9.25932840e-03, -1.60214722e-03
    2957,  9.17617296e-04, -9.24580830e-03, -1.73205102e-03
    2958,  7.18846096e-04, -9.20937942e-03, -1.20208200e-03
    2959,  6.14517724e-04, -9.19025911e-03, -1.30814800e-03
    2960,  5.10189352e-04, -9.17113880e-03, -1.41421400e-03
    2961,  2.90536055e-03, -6.37116069e-03, -1.47224342e-03
    2962,  2.98012270e-03, -6.36519242e-03, -1.60214722e-03
    2963,  3.05488484e-03, -6.35922416e-03, -1.73205102e-03
    2964,  2.49665305e-03, -6.40378782e-03, -1.64207397e-03
    2965,  2.53535278e-03, -6.40069842e-03, -1.78696284e-03
    2966,  2.57405252e-03, -6.39760902e-03, -1.93185171e-03
    2967,  2.05805594e-03, -6.43880105e-03, -1.70000000e-03
    2968,  2.05805594e-03, -6.43880105e-03, -1.85000000e-03
    2969,  2.05805594e-03, -6.43880105e-03, -2.00000000e-03
    2970,  1.61945884e-03, -6.47381427e-03, -1.64207397e-03
    2971,  1.58075910e-03, -6.47690367e-03, -1.78696284e-03
    2972,  1.54205937e-03, -6.47999307e-03, -1.93185171e-03
    2973,  1.21075133e-03, -6.50644141e-03, -1.47224342e-03
    2974,  1.13598918e-03, -6.51240967e-03, -1.60214722e-03
    2975,  1.06122704e-03, -6.51837794e-03, -1.73205102e-03
    2976,  8.59786091e-04, -6.53445898e-03, -1.20208200e-03
    2977,  7.54056457e-04, -6.54289938e-03, -1.30814800e-03
    2978,  6.48326823e-04, -6.55133978e-03, -1.41421400e-03
    2979,  2.26654926e-03, -3.24584267e-03, -1.47224342e-03
    2980,  2.33793608e-03, -3.22284443e-03, -1.60214722e-03
    2981,  2.40932291e-03, -3.19984619e-03, -1.73205102e-03
    2982,  1.87629383e-03, -3.37156878e-03, -1.64207397e-03
    2983,  1.91324637e-03, -3.35966401e-03, -1.78696284e-03
    2984,  1.95019891e-03, -3.34775925e-03, -1.93185171e-03
    2985,  1.45749824e-03, -3.50648949e-03, -1.70000000e-03
    2986,  1.45749824e-03, -3.50648949e-03, -1.85000000e-03
    2987,  1.45749824e-03, -3.50648949e-03, -2.00000000e-03
    2988,  1.03870265e-03, -3.64141021e-03, -1.64207397e-03
    2989,  1.00175011e-03, -3.65331497e-03, -1.78696284e-03
    2990,  9.64797563e-04, -3.66521974e-03, -1.93185171e-03
    2991,  6.48447220e-04, -3.76713632e-03, -1.47224342e-03
    2992,  5.77060391e-04, -3.79013456e-03, -1.60214722e-03
    2993,  5.05673564e-04, -3.81313280e-03, -1.73205102e-03
    2994,  3.13327148e-04, -3.87509982e-03, -1.20208200e-03
    2995,  2.12370931e-04, -3.90762424e-03, -1.30814800e-03
    2996,  1.11414715e-04, -3.94014867e-03, -1.41421400e-03
    2997,  1.10912248e-03, -3.70944652e-04, -1.47224342e-03
    2998,  1.17727819e-03, -3.39642913e-04, -1.60214722e-03
    2999,  1.24543389e-03, -3.08341176e-04, -1.73205102e-03
    3000,  7.36530876e-04, -5.42064082e-04, -1.64207397e-03
    3001,  7.71810866e-04, -5.25861109e-04, -1.78696284e-03
    3002,  8.07090855e-04, -5.09658136e-04, -1.93185171e-03
    3003,  3.36690902e-04, -7.25697818e-04, -1.70000000e-03
    3004,  3.36690902e-04, -7.25697818e-04, -1.85000000e-03
    3005,  3.36690902e-04, -7.25697818e-04, -2.00000000e-03
    3006, -6.31490725e-05, -9.09331553e-04, -1.64207397e-03
    3007, -9.84290620e-05, -9.25534526e-04, -1.78696284e-03
    3008, -1.33709052e-04, -9.41737499e-04, -1.93185171e-03
    3009, -4.35740678e-04, -1.08045098e-03, -1.47224342e-03
    3010, -5.03896382e-04, -1.11175272e-03, -1.60214722e-03
    3011, -5.72052083e-04, -1.14305446e-03, -1.73205102e-03
    3012, -7.55692475e-04, -1.22739463e-03, -1.20208200e-03
    3013, -8.52079190e-04, -1.27166197e-03, -1.30814800e-03
    3014, -9.48465905e-04, -1.31592931e-03, -1.41421400e-03
    3015, -1.33430568e-03, -2.99735774e-02, -8.50000209e-04
    3016, -1.45203850e-03, -3.00284771e-02, -9.25000201e-04
    3017, -1.56977133e-03, -3.00833768e-02, -1.00000019e-03
    3018, -1.48822443e-03, -3.00453509e-02, -4.39992448e-04
    3019, -1.61953834e-03, -3.01065836e-02, -4.78815302e-04
    3020, -1.75085225e-03, -3.01678163e-02, -5.17638156e-04
    3021, -1.54072324e-03, -3.00698315e-02, -9.25185854e-20
    3022, -1.67666941e-03, -3.01332242e-02, -1.38777878e-19
    3023, -1.81261557e-03, -3.01966170e-02, -2.22044605e-19
    3024, -1.48822443e-03, -3.00453509e-02,  4.39992448e-04
    3025, -1.61953834e-03, -3.01065836e-02,  4.78815302e-04
    3026, -1.75085225e-03, -3.01678163e-02,  5.17638156e-04
    3027, -1.33430568e-03, -2.99735774e-02,  8.50000209e-04
    3028, -1.45203850e-03, -3.00284771e-02,  9.25000201e-04
    3029, -1.56977133e-03, -3.00833768e-02,  1.00000019e-03
    3030, -2.57374192e-03, -2.71150042e-02, -8.50000209e-04
    3031, -2.69544892e-03, -2.71604179e-02, -9.25000201e-04
    3032, -2.81715592e-03, -2.72058316e-02, -1.00000019e-03
    3033, -2.73285633e-03, -2.71743761e-02, -4.39992448e-04
    3034, -2.86860286e-03, -2.72250285e-02, -4.78815302e-04
    3035, -3.00434939e-03, -2.72756809e-02, -5.17638156e-04
    3036, -2.78712729e-03, -2.71946267e-02, -9.25185854e-20
    3037, -2.92766244e-03, -2.72470660e-02, -1.38777878e-19
    3038, -3.06819759e-03, -2.72995052e-02, -2.22044605e-19
    3039, -2.73285633e-03, -2.71743761e-02,  4.39992448e-04
    3040, -2.86860286e-03, -2.72250285e-02,  4.78815302e-04
    3041, -3.00434939e-03, -2.72756809e-02,  5.17638156e-04
    3042, -2.57374192e-03, -2.71150042e-02,  8.50000209e-04
    3043, -2.69544892e-03, -2.71604179e-02,  9.25000201e-04
    3044, -2.81715592e-03, -2.72058316e-02,  1.00000019e-03
    3045, -3.42296604e-03, -2.39247500e-02, -8.50000209e-04
    3046, -3.55144388e-03, -2.39439448e-02, -9.25000201e-04
    3047, -3.67992173e-03, -2.39631396e-02, -1.00000019e-03
    3048, -3.59093236e-03, -2.39498444e-02, -4.39992448e-04
    3049, -3.73423078e-03, -2.39712534e-02, -4.78815302e-04
    3050, -3.87752921e-03, -2.39926625e-02, -5.17638156e-04
    3051, -3.64822253e-03, -2.39584037e-02, -9.25185854e-20
    3052, -3.79657598e-03, -2.39805679e-02, -1.38777878e-19
    3053, -3.94492943e-03, -2.40027322e-02, -2.22044605e-19
    3054, -3.59093236e-03, -2.39498444e-02,  4.39992448e-04
    3055, -3.73423078e-03, -2.39712534e-02,  4.78815302e-04
    3056, -3.87752921e-03, -2.39926625e-02,  5.17638156e-04
    3057, -3.42296604e-03, -2.39247500e-02,  8.50000209e-04
    3058, -3.55144388e-03, -2.39439448e-02,  9.25000201e-04
    3059, -3.67992173e-03, -2.39631396e-02,  1.00000019e-03
    3060, -3.48191810e-03, -2.05483902e-02, -8.50000209e-04
    3061, -3.61097331e-03, -2.05335664e-02, -9.25000201e-04
    3062, -3.74002852e-03, -2.05187425e-02, -1.00000019e-03
    3063, -3.65063924e-03, -2.05290102e-02, -4.39992448e-04
    3064, -3.79458164e-03, -2.05124763e-02, -4.78815302e-04
    3065, -3.93852403e-03, -2.04959424e-02, -5.17638156e-04
    3066, -3.70818687e-03, -2.05224000e-02, -9.25185854e-20
    3067, -3.85720701e-03, -2.05052828e-02, -1.38777878e-19
    3068, -4.00622715e-03, -2.04881657e-02, -2.22044605e-19
    3069, -3.65063924e-03, -2.05290102e-02,  4.39992448e-04
    3070, -3.79458164e-03, -2.05124763e-02,  4.78815302e-04
    3071, -3.93852403e-03, -2.04959424e-02,  5.17638156e-04
    3072, -3.48191810e-03, -2.05483902e-02,  8.50000209e-04
    3073, -3.61097331e-03, -2.05335664e-02,  9.25000201e-04
    3074, -3.74002852e-03, -2.05187425e-02,  1.00000019e-03
    3075, -2.72039508e-03, -1.73182233e-02, -8.50000209e-04
    3076, -2.84305543e-03, -1.72754514e-02, -9.25000201e-04
    3077, -2.96571578e-03, -1.72326795e-02, -1.00000019e-03
    3078, -2.88075586e-03, -1.72623052e-02, -4.39992448e-04
    3079, -3.01756572e-03, -1.72145993e-02, -4.78815302e-04
    3080, -3.15437557e-03, -1.71668935e-02, -5.17638156e-04
    3081, -2.93545193e-03, -1.72432326e-02, -9.25185854e-20
    3082, -3.07708792e-03, -1.71938438e-02, -1.38777878e-19
    3083, -3.21872390e-03, -1.71444551e-02, -2.22044605e-19
    3084, -2.88075586e-03, -1.72623052e-02,  4.39992448e-04
    3085, -3.01756572e-03, -1.72145993e-02,  4.78815302e-04
    3086, -3.15437557e-03, -1.71668935e-02,  5.17638156e-04
    3087, -2.72039508e-03, -1.73182233e-02,  8.50000209e-04
    3088, -2.84305543e-03, -1.72754514e-02,  9.25000201e-04
    3089, -2.96571578e-03, -1.72326795e-02,  1.00000019e-03
    3090, -1.50407940e-03, -1.44180362e-02, -8.50000209e-04
    3091, -1.62189181e-03, -1.43633075e-02, -9.25000201e-04
    3092, -1.73970423e-03, -1.43085788e-02, -1.00000019e-03
    3093, -1.65810220e-03, -1.43464863e-02, -4.39992448e-04
    3094, -1.78950488e-03, -1.42854444e-02, -4.78815302e-04
    3095, -1.92090756e-03, -1.42244024e-02, -5.17638156e-04
    3096, -1.71063650e-03, -1.43220820e-02, -9.25185854e-20
    3097, -1.84667457e-03, -1.42588867e-02, -1.38777878e-19
    3098, -1.98271264e-03, -1.41956914e-02, -2.22044605e-19
    3099, -1.65810220e-03, -1.43464863e-02,  4.39992448e-04
    3100, -1.78950488e-03, -1.42854444e-02,  4.78815302e-04
    3101, -1.92090756e-03, -1.42244024e-02,  5.17638156e-04
    3102, -1.50407940e-03, -1.44180362e-02,  8.50000209e-04
    3103, -1.62189181e-03, -1.43633075e-02,  9.25000201e-04
    3104, -1.73970423e-03, -1.43085788e-02,  1.00000019e-03
    3105, -3.18302146e-04, -1.17568523e-02, -8.50000209e-04
    3106, -4.39112722e-04, -1.17091050e-02, -9.25000201e-04
    3107, -5.59923299e-04, -1.16613577e-02, -1.00000019e-03
    3108, -4.76244613e-04, -1.16944296e-02, -4.39992448e-04
    3109, -6.10991309e-04, -1.16411744e-02, -4.78815302e-04
    3110, -7.45738006e-04, -1.15879192e-02, -5.17638156e-04
    3111, -5.30115840e-04, -1.16731384e-02, -9.25185854e-20
    3112, -6.69615889e-04, -1.16180046e-02, -1.38777878e-19
    3113, -8.09115938e-04, -1.15628708e-02, -2.22044605e-19
    3114, -4.76244613e-04, -1.16944296e-02,  4.39992448e-04
    3115, -6.10991309e-04, -1.16411744e-02,  4.78815302e-04
    3116, -7.45738006e-04, -1.15879192e-02,  5.17638156e-04
    3117, -3.18302146e-04, -1.17568523e-02,  8.50000209e-04
    3118, -4.39112722e-04, -1.17091050e-02,  9.25000201e-04
    3119, -5.59923299e-04, -1.16613577e-02,  1.00000019e-03
    3120,  4.53110601e-04, -9.16067795e-03, -8.50000209e-04
    3121,  3.25334952e-04, -9.13726045e-03, -9.25000201e-04
    3122,  1.97559304e-04, -9.11384295e-03, -1.00000019e-03
    3123,  2.86062303e-04, -9.13006293e-03, -4.39992448e-04
    3124,  1.43547078e-04, -9.10394410e-03, -4.78815302e-04
    3125,  1.03185280e-06, -9.07782527e-03, -5.17638156e-04
    3126,  2.29085247e-04, -9.11962072e-03, -9.25185854e-20
    3127,  8.15426255e-05, -9.09258052e-03, -1.38777878e-19
    3128, -6.59999964e-05, -9.06554032e-03, -2.22044605e-19
    3129,  2.86062303e-04, -9.13006293e-03,  4.39992448e-04
    3130,  1.43547078e-04, -9.10394410e-03,  4.78815302e-04
    3131,  1.03185280e-06, -9.07782527e-03,  5.17638156e-04
    3132,  4.53110601e-04, -9.16067795e-03,  8.50000209e-04
    3133,  3.25334952e-04, -9.13726045e-03,  9.25000201e-04
    3134,  1.97559304e-04, -9.11384295e-03,  1.00000019e-03
    3135,  5.90481431e-04, -6.55595758e-03, -8.50000209e-04
    3136,  4.60989594e-04, -6.56629492e-03, -9.25000201e-04
    3137,  3.31497756e-04, -6.57663225e-03, -1.00000019e-03
    3138,  4.21189463e-04, -6.56947216e-03, -4.39992448e-04
    3139,  2.76760077e-04, -6.58100196e-03, -4.78815302e-04
    3140,  1.32330692e-04, -6.59253177e-03, -5.17638156e-04
    3141,  3.63447133e-04, -6.57408173e-03, -9.25185854e-20
    3142,  2.13922827e-04, -6.58601826e-03, -1.38777878e-19
    3143,  6.43985199e-05, -6.59795480e-03, -2.22044605e-19
    3144,  4.21189463e-04, -6.56947216e-03,  4.39992448e-04
    3145,  2.76760077e-04, -6.58100196e-03,  4.78815302e-04
    3146,  1.32330692e-04, -6.59253177e-03,  5.17638156e-04
    3147,  5.90481431e-04, -6.55595758e-03,  8.50000209e-04
    3148,  4.60989594e-04, -6.56629492e-03,  9.25000201e-04
    3149,  3.31497756e-04, -6.57663225e-03,  1.00000019e-03
    3150,  5.61808916e-05, -3.95794300e-03, -8.50000209e-04
    3151, -6.74647269e-05, -3.99777712e-03, -9.25000201e-04
    3152, -1.91110345e-04, -4.03761124e-03, -1.00000019e-03
    3153, -1.05467985e-04, -4.01002039e-03, -4.39992448e-04
    3154, -2.43376761e-04, -4.05444958e-03, -4.78815302e-04
    3155, -3.81285536e-04, -4.09887877e-03, -5.17638156e-04
    3156, -1.60603400e-04, -4.02778301e-03, -9.25185854e-20
    3157, -3.03377073e-04, -4.07377950e-03, -1.38777878e-19
    3158, -4.46150747e-04, -4.11977599e-03, -2.22044605e-19
    3159, -1.05467985e-04, -4.01002039e-03,  4.39992448e-04
    3160, -2.43376761e-04, -4.05444958e-03,  4.78815302e-04
    3161, -3.81285536e-04, -4.09887877e-03,  5.17638156e-04
    3162,  5.61808916e-05, -3.95794300e-03,  8.50000209e-04
    3163, -6.74647269e-05, -3.99777712e-03,  9.25000201e-04
    3164, -1.91110345e-04, -4.03761124e-03,  1.00000019e-03
    3165, -1.00119972e-03, -1.34014827e-03, -8.50000209e-04
    3166, -1.11924887e-03, -1.39436447e-03, -9.25000201e-04
    3167, -1.23729801e-03, -1.44858068e-03, -1.00000019e-03
    3168, -1.15553201e-03, -1.41102817e-03, -4.39992448e-04
    3169, -1.28719873e-03, -1.47149849e-03, -4.78815302e-04
    3170, -1.41886545e-03, -1.53196881e-03, -5.17638156e-04
    3171, -1.20817188e-03, -1.43520397e-03, -9.25185854e-20
    3172, -1.34448330e-03, -1.49780746e-03, -1.38777878e-19
    3173, -1.48079472e-03, -1.56041094e-03, -2.22044605e-19
    3174, -1.15553201e-03, -1.41102817e-03,  4.39992448e-04
    3175, -1.28719873e-03, -1.47149849e-03,  4.78815302e-04
    3176, -1.41886545e-03, -1.53196881e-03,  5.17638156e-04
    3177, -1.00119972e-03, -1.34014827e-03,  8.50000209e-04
    3178, -1.11924887e-03, -1.39436447e-03,  9.25000201e-04
    3179, -1.23729801e-03, -1.44858068e-03,  1.00000019e-03
    3180, -1.35647963e-03, -2.99839173e-02,  1.49670967e-03
    3181, -1.43124609e-03, -3.00187815e-02,  1.57920533e-03
    3182, -1.50601256e-03, -3.00536456e-02,  1.66170100e-03
    3183, -9.59175865e-04, -2.97986515e-02,  1.83308726e-03
    3184, -1.01204377e-03, -2.98233042e-02,  1.93412349e-03
    3185, -1.06491168e-03, -2.98479569e-02,  2.03515973e-03
    3186, -4.96505942e-04, -2.95829050e-02,  2.04454304e-03
    3187, -5.23872391e-04, -2.95956662e-02,  2.15723437e-03
    3188, -5.51238842e-04, -2.96084273e-02,  2.26992570e-03
    3189,  6.23830344e-18, -2.93513805e-02,  2.11666667e-03
    3190,  6.17960822e-18, -2.93513805e-02,  2.23333333e-03
    3191,  6.10414293e-18, -2.93513805e-02,  2.35000000e-03
    3192,  4.96505942e-04, -2.91198559e-02,  2.04454304e-03
    3193,  5.23872391e-04, -2.91070947e-02,  2.15723437e-03
    3194,  5.51238842e-04, -2.90943336e-02,  2.26992570e-03
    3195,  9.59175865e-04, -2.89041094e-02,  1.83308726e-03
    3196,  1.01204377e-03, -2.88794567e-02,  1.93412349e-03
    3197,  1.06491168e-03, -2.88548040e-02,  2.03515973e-03
    3198,  1.35647963e-03, -2.87188436e-02,  1.49670967e-03
    3199,  1.43124609e-03, -2.86839794e-02,  1.57920533e-03
    3200,  1.50601256e-03, -2.86491153e-02,  1.66170100e-03
    3201, -2.59666438e-03, -2.71235575e-02,  1.49670967e-03
    3202, -2.67395464e-03, -2.71523976e-02,  1.57920533e-03
    3203, -2.75124492e-03, -2.71812376e-02,  1.66170100e-03
    3204, -2.18594928e-03, -2.69703035e-02,  1.83308726e-03
    3205, -2.24060179e-03, -2.69906965e-02,  1.93412349e-03
    3206, -2.29525429e-03, -2.70110895e-02,  2.03515973e-03
    3207, -1.70766153e-03, -2.67918355e-02,  2.04454304e-03
    3208, -1.73595176e-03, -2.68023917e-02,  2.15723437e-03
    3209, -1.76424198e-03, -2.68129479e-02,  2.26992570e-03
    3210, -1.19439560e-03, -2.66003157e-02,  2.11666667e-03
    3211, -1.19439560e-03, -2.66003157e-02,  2.23333333e-03
    3212, -1.19439560e-03, -2.66003157e-02,  2.35000000e-03
    3213, -6.81129663e-04, -2.64087959e-02,  2.04454304e-03
    3214, -6.52839435e-04, -2.63982397e-02,  2.15723437e-03
    3215, -6.24549207e-04, -2.63876835e-02,  2.26992570e-03
    3216, -2.02841914e-04, -2.62303279e-02,  1.83308726e-03
    3217, -1.48189406e-04, -2.62099348e-02,  1.93412349e-03
    3218, -9.35368976e-05, -2.61895418e-02,  2.03515973e-03
    3219,  2.07873184e-04, -2.60770738e-02,  1.49670967e-03
    3220,  2.85163450e-04, -2.60482338e-02,  1.57920533e-03
    3221,  3.62453726e-04, -2.60193937e-02,  1.66170100e-03
    3222, -3.44716372e-03, -2.39283652e-02,  1.49670967e-03
    3223, -3.52875383e-03, -2.39405549e-02,  1.57920533e-03
    3224, -3.61034394e-03, -2.39527445e-02,  1.66170100e-03
    3225, -3.01359958e-03, -2.38635900e-02,  1.83308726e-03
    3226, -3.07129253e-03, -2.38722094e-02,  1.93412349e-03
    3227, -3.12898549e-03, -2.38808288e-02,  2.03515973e-03
    3228, -2.50870356e-03, -2.37881577e-02,  2.04454304e-03
    3229, -2.53856764e-03, -2.37926194e-02,  2.15723437e-03
    3230, -2.56843172e-03, -2.37970812e-02,  2.26992570e-03
    3231, -1.96688344e-03, -2.37072089e-02,  2.11666667e-03
    3232, -1.96688344e-03, -2.37072089e-02,  2.23333333e-03
    3233, -1.96688344e-03, -2.37072089e-02,  2.35000000e-03
    3234, -1.42506332e-03, -2.36262601e-02,  2.04454304e-03
    3235, -1.39519924e-03, -2.36217983e-02,  2.15723437e-03
    3236, -1.36533516e-03, -2.36173366e-02,  2.26992570e-03
    3237, -9.20167298e-04, -2.35508278e-02,  1.83308726e-03
    3238, -8.62474343e-04, -2.35422084e-02,  1.93412349e-03
    3239, -8.04781388e-04, -2.35335890e-02,  2.03515973e-03
    3240, -4.86603155e-04, -2.34860526e-02,  1.49670967e-03
    3241, -4.05013050e-04, -2.34738629e-02,  1.57920533e-03
    3242, -3.23422936e-04, -2.34616732e-02,  1.66170100e-03
    3243, -3.50622452e-03, -2.05455983e-02,  1.49670967e-03
    3244, -3.58818129e-03, -2.05361844e-02,  1.57920533e-03
    3245, -3.67013806e-03, -2.05267704e-02,  1.66170100e-03
    3246, -3.07071198e-03, -2.05956233e-02,  1.83308726e-03
    3247, -3.12866420e-03, -2.05889666e-02,  1.93412349e-03
    3248, -3.18661643e-03, -2.05823099e-02,  2.03515973e-03
    3249, -2.56354700e-03, -2.06538786e-02,  2.04454304e-03
    3250, -2.59354529e-03, -2.06504328e-02,  2.15723437e-03
    3251, -2.62354358e-03, -2.06469871e-02,  2.26992570e-03
    3252, -2.01929199e-03, -2.07163942e-02,  2.11666667e-03
    3253, -2.01929199e-03, -2.07163942e-02,  2.23333333e-03
    3254, -2.01929199e-03, -2.07163942e-02,  2.35000000e-03
    3255, -1.47503698e-03, -2.07789098e-02,  2.04454304e-03
    3256, -1.44503870e-03, -2.07823556e-02,  2.15723437e-03
    3257, -1.41504041e-03, -2.07858013e-02,  2.26992570e-03
    3258, -9.67872005e-04, -2.08371652e-02,  1.83308726e-03
    3259, -9.09919783e-04, -2.08438218e-02,  1.93412349e-03
    3260, -8.51967561e-04, -2.08504785e-02,  2.03515973e-03
    3261, -5.32359464e-04, -2.08871901e-02,  1.49670967e-03
    3262, -4.50402701e-04, -2.08966041e-02,  1.57920533e-03
    3263, -3.68445927e-04, -2.09060180e-02,  1.66170100e-03
    3264, -2.74349709e-03, -1.73101676e-02,  1.49670967e-03
    3265, -2.82139279e-03, -1.72830052e-02,  1.57920533e-03
    3266, -2.89928849e-03, -1.72558428e-02,  1.66170100e-03
    3267, -2.32956479e-03, -1.74545066e-02,  1.83308726e-03
    3268, -2.38464541e-03, -1.74352998e-02,  1.93412349e-03
    3269, -2.43972602e-03, -1.74160931e-02,  2.03515973e-03
    3270, -1.84753054e-03, -1.76225928e-02,  2.04454304e-03
    3271, -1.87604237e-03, -1.76126507e-02,  2.15723437e-03
    3272, -1.90455420e-03, -1.76027086e-02,  2.26992570e-03
    3273, -1.33024411e-03, -1.78029716e-02,  2.11666667e-03
    3274, -1.33024411e-03, -1.78029716e-02,  2.23333333e-03
    3275, -1.33024411e-03, -1.78029716e-02,  2.35000000e-03
    3276, -8.12957681e-04, -1.79833504e-02,  2.04454304e-03
    3277, -7.84445851e-04, -1.79932925e-02,  2.15723437e-03
    3278, -7.55934020e-04, -1.80032347e-02,  2.26992570e-03
    3279, -3.30923425e-04, -1.81514367e-02,  1.83308726e-03
    3280, -2.75842814e-04, -1.81706434e-02,  1.93412349e-03
    3281, -2.20762204e-04, -1.81898501e-02,  2.03515973e-03
    3282,  8.30088727e-05, -1.82957757e-02,  1.49670967e-03
    3283,  1.60904566e-04, -1.83229380e-02,  1.57920533e-03
    3284,  2.38800269e-04, -1.83501004e-02,  1.66170100e-03
    3285, -1.52626834e-03, -1.44077286e-02,  1.49670967e-03
    3286, -1.60108534e-03, -1.43729730e-02,  1.57920533e-03
    3287, -1.67590236e-03, -1.43382174e-02,  1.66170100e-03
    3288, -1.12869599e-03, -1.45924173e-02,  1.83308726e-03
    3289, -1.18159964e-03, -1.45678413e-02,  1.93412349e-03
    3290, -1.23450328e-03, -1.45432654e-02,  2.03515973e-03
    3291, -6.65713295e-04, -1.48074918e-02,  2.04454304e-03
    3292, -6.93098245e-04, -1.47947703e-02,  2.15723437e-03
    3293, -7.20483196e-04, -1.47820489e-02,  2.26992570e-03
    3294, -1.68871705e-04, -1.50382951e-02,  2.11666667e-03
    3295, -1.68871705e-04, -1.50382951e-02,  2.23333333e-03
    3296, -1.68871705e-04, -1.50382951e-02,  2.35000000e-03
    3297,  3.27969885e-04, -1.52690985e-02,  2.04454304e-03
    3298,  3.55354834e-04, -1.52818199e-02,  2.15723437e-03
    3299,  3.82739785e-04, -1.52945414e-02,  2.26992570e-03
    3300,  7.90952582e-04, -1.54841730e-02,  1.83308726e-03
    3301,  8.43856228e-04, -1.55087489e-02,  1.93412349e-03
    3302,  8.96759873e-04, -1.55333248e-02,  2.03515973e-03
    3303,  1.18852493e-03, -1.56688617e-02,  1.49670967e-03
    3304,  1.26334193e-03, -1.57036173e-02,  1.57920533e-03
    3305,  1.33815895e-03, -1.57383729e-02,  1.66170100e-03
    3306, -3.41055766e-04, -1.17478595e-02,  1.49670967e-03
    3307, -4.17776757e-04, -1.17175375e-02,  1.57920533e-03
    3308, -4.94497757e-04, -1.16872155e-02,  1.66170100e-03
    3309,  6.66342429e-05, -1.19089885e-02,  1.83308726e-03
    3310,  1.23842734e-05, -1.18875476e-02,  1.93412349e-03
    3311, -4.18656960e-05, -1.18661067e-02,  2.03515973e-03
    3312,  5.41399202e-04, -1.20966271e-02,  2.04454304e-03
    3313,  5.13317344e-04, -1.20855285e-02,  2.15723437e-03
    3314,  4.85235485e-04, -1.20744298e-02,  2.26992570e-03
    3315,  1.05088472e-03, -1.22979881e-02,  2.11666667e-03
    3316,  1.05088472e-03, -1.22979881e-02,  2.23333333e-03
    3317,  1.05088472e-03, -1.22979881e-02,  2.35000000e-03
    3318,  1.56037023e-03, -1.24993491e-02,  2.04454304e-03
    3319,  1.58845209e-03, -1.25104478e-02,  2.15723437e-03
    3320,  1.61653395e-03, -1.25215464e-02,  2.26992570e-03
    3321,  2.03513519e-03, -1.26869878e-02,  1.83308726e-03
    3322,  2.08938516e-03, -1.27084287e-02,  1.93412349e-03
    3323,  2.14363513e-03, -1.27298696e-02,  2.03515973e-03
    3324,  2.44282520e-03, -1.28481167e-02,  1.49670967e-03
    3325,  2.51954619e-03, -1.28784387e-02,  1.57920533e-03
    3326,  2.59626719e-03, -1.29087607e-02,  1.66170100e-03
    3327,  4.29045169e-04, -9.15626747e-03,  1.49670967e-03
    3328,  3.47900996e-04, -9.14139614e-03,  1.57920533e-03
    3329,  2.66756813e-04, -9.12652481e-03,  1.66170100e-03
    3330,  8.60239662e-04, -9.23529268e-03,  1.83308726e-03
    3331,  8.02862029e-04, -9.22477705e-03,  1.93412349e-03
    3332,  7.45484395e-04, -9.21426143e-03,  2.03515973e-03
    3333,  1.36237617e-03, -9.32731946e-03,  2.04454304e-03
    3334,  1.33267531e-03, -9.32187618e-03,  2.15723437e-03
    3335,  1.30297445e-03, -9.31643289e-03,  2.26992570e-03
    3336,  1.90123496e-03, -9.42607636e-03,  2.11666667e-03
    3337,  1.90123496e-03, -9.42607636e-03,  2.23333333e-03
    3338,  1.90123496e-03, -9.42607636e-03,  2.35000000e-03
    3339,  2.44009376e-03, -9.52483326e-03,  2.04454304e-03
    3340,  2.46979462e-03, -9.53027655e-03,  2.15723437e-03
    3341,  2.49949547e-03, -9.53571984e-03,  2.26992570e-03
    3342,  2.94223026e-03, -9.61686004e-03,  1.83308726e-03
    3343,  2.99960790e-03, -9.62737567e-03,  1.93412349e-03
    3344,  3.05698553e-03, -9.63789129e-03,  2.03515973e-03
    3345,  3.37342476e-03, -9.69588525e-03,  1.49670967e-03
    3346,  3.45456893e-03, -9.71075658e-03,  1.57920533e-03
    3347,  3.53571311e-03, -9.72562791e-03,  1.66170100e-03
    3348,  5.66092771e-04, -6.55790452e-03,  1.49670967e-03
    3349,  4.83858728e-04, -6.56446927e-03,  1.57920533e-03
    3350,  4.01624676e-04, -6.57103402e-03,  1.66170100e-03
    3351,  1.00307875e-03, -6.52301992e-03,  1.83308726e-03
    3352,  9.44930465e-04, -6.52766190e-03,  1.93412349e-03
    3353,  8.86782176e-04, -6.53230388e-03,  2.03515973e-03
    3354,  1.51195959e-03, -6.48239594e-03,  2.04454304e-03
    3355,  1.48185981e-03, -6.48479881e-03,  2.15723437e-03
    3356,  1.45176003e-03, -6.48720167e-03,  2.26992570e-03
    3357,  2.05805594e-03, -6.43880105e-03,  2.11666667e-03
    3358,  2.05805594e-03, -6.43880105e-03,  2.23333333e-03
    3359,  2.05805594e-03, -6.43880105e-03,  2.35000000e-03
    3360,  2.60415230e-03, -6.39520615e-03,  2.04454304e-03
    3361,  2.63425207e-03, -6.39280329e-03,  2.15723437e-03
    3362,  2.66435185e-03, -6.39040042e-03,  2.26992570e-03
    3363,  3.11303313e-03, -6.35458218e-03,  1.83308726e-03
    3364,  3.17118142e-03, -6.34994020e-03,  1.93412349e-03
    3365,  3.22932971e-03, -6.34529822e-03,  2.03515973e-03
    3366,  3.55001911e-03, -6.31969757e-03,  1.49670967e-03
    3367,  3.63225315e-03, -6.31313282e-03,  1.57920533e-03
    3368,  3.71448721e-03, -6.30656807e-03,  1.66170100e-03
    3369,  3.28933156e-05, -3.96544541e-03,  1.49670967e-03
    3370, -4.56280741e-05, -3.99074214e-03,  1.57920533e-03
    3371, -1.24149473e-04, -4.01603888e-03,  1.66170100e-03
    3372,  4.50150520e-04, -3.83102030e-03,  1.83308726e-03
    3373,  3.94627475e-04, -3.84890781e-03,  1.93412349e-03
    3374,  3.39104430e-04, -3.86679532e-03,  2.03515973e-03
    3375,  9.36056711e-04, -3.67447900e-03,  2.04454304e-03
    3376,  9.07315860e-04, -3.68373825e-03,  2.15723437e-03
    3377,  8.78575009e-04, -3.69299751e-03,  2.26992570e-03
    3378,  1.45749824e-03, -3.50648949e-03,  2.11666667e-03
    3379,  1.45749824e-03, -3.50648949e-03,  2.23333333e-03
    3380,  1.45749824e-03, -3.50648949e-03,  2.35000000e-03
    3381,  1.97893976e-03, -3.33849999e-03,  2.04454304e-03
    3382,  2.00768062e-03, -3.32924073e-03,  2.15723437e-03
    3383,  2.03642147e-03, -3.31998148e-03,  2.26992570e-03
    3384,  2.46484596e-03, -3.18195868e-03,  1.83308726e-03
    3385,  2.52036900e-03, -3.16407117e-03,  1.93412349e-03
    3386,  2.57589205e-03, -3.14618367e-03,  2.03515973e-03
    3387,  2.88210316e-03, -3.04753358e-03,  1.49670967e-03
    3388,  2.96062455e-03, -3.02223684e-03,  1.57920533e-03
    3389,  3.03914595e-03, -2.99694010e-03,  1.66170100e-03
    3390, -1.02343325e-03, -1.35035942e-03,  1.49670967e-03
    3391, -1.09840059e-03, -1.38478953e-03,  1.57920533e-03
    3392, -1.17336794e-03, -1.41921964e-03,  1.66170100e-03
    3393, -6.25062032e-04, -1.16740024e-03,  1.83308726e-03
    3394, -6.78071980e-04, -1.19174601e-03,  1.93412349e-03
    3395, -7.31081929e-04, -1.21609179e-03,  2.03515973e-03
    3396, -1.61149029e-04, -9.54339805e-04,  2.04454304e-03
    3397, -1.88589005e-04, -9.66942110e-04,  2.15723437e-03
    3398, -2.16028982e-04, -9.79544415e-04,  2.26992570e-03
    3399,  3.36690902e-04, -7.25697818e-04,  2.11666667e-03
    3400,  3.36690902e-04, -7.25697818e-04,  2.23333333e-03
    3401,  3.36690902e-04, -7.25697818e-04,  2.35000000e-03
    3402,  8.34530833e-04, -4.97055830e-04,  2.04454304e-03
    3403,  8.61970809e-04, -4.84453525e-04,  2.15723437e-03
    3404,  8.89410786e-04, -4.71851220e-04,  2.26992570e-03
    3405,  1.29844384e-03, -2.83995398e-04,  1.83308726e-03
    3406,  1.35145378e-03, -2.59649621e-04,  1.93412349e-03
    3407,  1.40446373e-03, -2.35303844e-04,  2.03515973e-03
    3408,  1.69681506e-03, -1.01036214e-04,  1.49670967e-03
    3409,  1.77178239e-03, -6.66061092e-05,  1.57920533e-03
    3410,  1.84674974e-03, -3.21759999e-05,  1.66170100e-03
    3411,  1.66134126e-03, -2.85766843e-02,  1.05833347e-03
    3412,  1.75291118e-03, -2.85339845e-02,  1.11666675e-03
    3413,  1.84448111e-03, -2.84912848e-02,  1.17500003e-03
    3414,  1.85298528e-03, -2.84873192e-02,  5.47833693e-04
    3415,  1.95511831e-03, -2.84396938e-02,  5.78029229e-04
    3416,  2.05725134e-03, -2.83920684e-02,  6.08224766e-04
    3417,  1.91835149e-03, -2.84568385e-02,  1.48029737e-19
    3418,  2.02408739e-03, -2.84075330e-02,  6.47630098e-20
    3419,  2.12982330e-03, -2.83582275e-02,  0.00000000e+00
    3420,  1.85298528e-03, -2.84873192e-02, -5.47833693e-04
    3421,  1.95511831e-03, -2.84396938e-02, -5.78029229e-04
    3422,  2.05725134e-03, -2.83920684e-02, -6.08224766e-04
    3423,  1.66134126e-03, -2.85766843e-02, -1.05833347e-03
    3424,  1.75291118e-03, -2.85339845e-02, -1.11666675e-03
    3425,  1.84448111e-03, -2.84912848e-02, -1.17500003e-03
    3426,  1.35647963e-03, -2.87188436e-02, -1.49670967e-03
    3427,  1.43124609e-03, -2.86839794e-02, -1.57920533e-03
    3428,  1.50601256e-03, -2.86491153e-02, -1.66170100e-03
    3429,  5.23025683e-04, -2.59594780e-02,  1.05833347e-03
    3430,  6.17686628e-04, -2.59241563e-02,  1.11666675e-03
    3431,  7.12347582e-04, -2.58888345e-02,  1.17500003e-03
    3432,  7.21138814e-04, -2.58855542e-02,  5.47833693e-04
    3433,  8.26719433e-04, -2.58461579e-02,  5.78029229e-04
    3434,  9.32300053e-04, -2.58067616e-02,  6.08224766e-04
    3435,  7.88711515e-04, -2.58603401e-02,  1.48029737e-19
    3436,  8.98016625e-04, -2.58195541e-02,  6.47630098e-20
    3437,  1.00732174e-03, -2.57787680e-02,  0.00000000e+00
    3438,  7.21138814e-04, -2.58855542e-02, -5.47833693e-04
    3439,  8.26719433e-04, -2.58461579e-02, -5.78029229e-04
    3440,  9.32300053e-04, -2.58067616e-02, -6.08224766e-04
    3441,  5.23025683e-04, -2.59594780e-02, -1.05833347e-03
    3442,  6.17686628e-04, -2.59241563e-02, -1.11666675e-03
    3443,  7.12347582e-04, -2.58888345e-02, -1.17500003e-03
    3444,  2.07873184e-04, -2.60770738e-02, -1.49670967e-03
    3445,  2.85163450e-04, -2.60482338e-02, -1.57920533e-03
    3446,  3.62453726e-04, -2.60193937e-02, -1.66170100e-03
    3447, -1.53917983e-04, -2.34363489e-02,  1.05833347e-03
    3448, -5.39908281e-05, -2.34214196e-02,  1.11666675e-03
    3449,  4.59363368e-05, -2.34064904e-02,  1.17500003e-03
    3450,  5.52166462e-05, -2.34051039e-02,  5.47833693e-04
    3451,  1.66670963e-04, -2.33884524e-02,  5.78029229e-04
    3452,  2.78125280e-04, -2.33718010e-02,  6.08224766e-04
    3453,  1.26548575e-04, -2.33944468e-02,  1.48029737e-19
    3454,  2.41934585e-04, -2.33772079e-02,  6.47630098e-20
    3455,  3.57320604e-04, -2.33599691e-02,  0.00000000e+00
    3456,  5.52166462e-05, -2.34051039e-02, -5.47833693e-04
    3457,  1.66670963e-04, -2.33884524e-02, -5.78029229e-04
    3458,  2.78125280e-04, -2.33718010e-02, -6.08224766e-04
    3459, -1.53917983e-04, -2.34363489e-02, -1.05833347e-03
    3460, -5.39908281e-05, -2.34214196e-02, -1.11666675e-03
    3461,  4.59363368e-05, -2.34064904e-02, -1.17500003e-03
    3462, -4.86603155e-04, -2.34860526e-02, -1.49670967e-03
    3463, -4.05013050e-04, -2.34738629e-02, -1.57920533e-03
    3464, -3.23422936e-04, -2.34616732e-02, -1.66170100e-03
    3465, -1.98179235e-04, -2.09255756e-02,  1.05833347e-03
    3466, -9.78030162e-05, -2.09371053e-02,  1.11666675e-03
    3467,  2.57321236e-06, -2.09486350e-02,  1.17500003e-03
    3468,  1.18952266e-05, -2.09497057e-02,  5.47833693e-04
    3469,  1.23850409e-04, -2.09625654e-02,  5.78029229e-04
    3470,  2.35805592e-04, -2.09754251e-02,  6.08224766e-04
    3471,  8.35477145e-05, -2.09579361e-02,  1.48029737e-19
    3472,  1.99452259e-04, -2.09712494e-02,  6.47630098e-20
    3473,  3.15356813e-04, -2.09845627e-02,  0.00000000e+00
    3474,  1.18952266e-05, -2.09497057e-02, -5.47833693e-04
    3475,  1.23850409e-04, -2.09625654e-02, -5.78029229e-04
    3476,  2.35805592e-04, -2.09754251e-02, -6.08224766e-04
    3477, -1.98179235e-04, -2.09255756e-02, -1.05833347e-03
    3478, -9.78030162e-05, -2.09371053e-02, -1.11666675e-03
    3479,  2.57321236e-06, -2.09486350e-02, -1.17500003e-03
    3480, -5.32359464e-04, -2.08871901e-02, -1.49670967e-03
    3481, -4.50402701e-04, -2.08966041e-02, -1.57920533e-03
    3482, -3.68445927e-04, -2.09060180e-02, -1.66170100e-03
    3483,  4.00630013e-04, -1.84065308e-02,  1.05833347e-03
    3484,  4.96032452e-04, -1.84397978e-02,  1.11666675e-03
    3485,  5.91434901e-04, -1.84730648e-02,  1.17500003e-03
    3486,  6.00294997e-04, -1.84761543e-02,  5.47833693e-04
    3487,  7.06702646e-04, -1.85132589e-02,  5.78029229e-04
    3488,  8.13110296e-04, -1.85503634e-02,  6.08224766e-04
    3489,  6.68397006e-04, -1.84999016e-02,  1.48029737e-19
    3490,  7.78558320e-04, -1.85383151e-02,  6.47630098e-20
    3491,  8.88719645e-04, -1.85767286e-02,  0.00000000e+00
    3492,  6.00294997e-04, -1.84761543e-02, -5.47833693e-04
    3493,  7.06702646e-04, -1.85132589e-02, -5.78029229e-04
    3494,  8.13110296e-04, -1.85503634e-02, -6.08224766e-04
    3495,  4.00630013e-04, -1.84065308e-02, -1.05833347e-03
    3496,  4.96032452e-04, -1.84397978e-02, -1.11666675e-03
    3497,  5.91434901e-04, -1.84730648e-02, -1.17500003e-03
    3498,  8.30088727e-05, -1.82957757e-02, -1.49670967e-03
    3499,  1.60904566e-04, -1.83229380e-02, -1.57920533e-03
    3500,  2.38800269e-04, -1.83501004e-02, -1.66170100e-03
    3501,  1.49359265e-03, -1.58105782e-02,  1.05833347e-03
    3502,  1.58522448e-03, -1.58531450e-02,  1.11666675e-03
    3503,  1.67685631e-03, -1.58957117e-02,  1.17500003e-03
    3504,  1.68536623e-03, -1.58996649e-02,  5.47833693e-04
    3505,  1.78756830e-03, -1.59471420e-02,  5.78029229e-04
    3506,  1.88977038e-03, -1.59946191e-02,  6.08224766e-04
    3507,  1.75077662e-03, -1.59300507e-02,  1.48029737e-19
    3508,  1.85658401e-03, -1.59792026e-02,  6.47630098e-20
    3509,  1.96239140e-03, -1.60283545e-02,  0.00000000e+00
    3510,  1.68536623e-03, -1.58996649e-02, -5.47833693e-04
    3511,  1.78756830e-03, -1.59471420e-02, -5.78029229e-04
    3512,  1.88977038e-03, -1.59946191e-02, -6.08224766e-04
    3513,  1.49359265e-03, -1.58105782e-02, -1.05833347e-03
    3514,  1.58522448e-03, -1.58531450e-02, -1.11666675e-03
    3515,  1.67685631e-03, -1.58957117e-02, -1.17500003e-03
    3516,  1.18852493e-03, -1.56688617e-02, -1.49670967e-03
    3517,  1.26334193e-03, -1.57036173e-02, -1.57920533e-03
    3518,  1.33815895e-03, -1.57383729e-02, -1.66170100e-03
    3519,  2.75565647e-03, -1.29717553e-02,  1.05833347e-03
    3520,  2.84962019e-03, -1.30088920e-02,  1.11666675e-03
    3521,  2.94358393e-03, -1.30460287e-02,  1.17500003e-03
    3522,  2.95231041e-03, -1.30494777e-02,  5.47833693e-04
    3523,  3.05711338e-03, -1.30908983e-02,  5.78029229e-04
    3524,  3.16191636e-03, -1.31323190e-02,  6.08224766e-04
    3525,  3.01938541e-03, -1.30759873e-02,  1.48029737e-19
    3526,  3.12788544e-03, -1.31188692e-02,  6.47630098e-20
    3527,  3.23638548e-03, -1.31617510e-02,  0.00000000e+00
    3528,  2.95231041e-03, -1.30494777e-02, -5.47833693e-04
    3529,  3.05711338e-03, -1.30908983e-02, -5.78029229e-04
    3530,  3.16191636e-03, -1.31323190e-02, -6.08224766e-04
    3531,  2.75565647e-03, -1.29717553e-02, -1.05833347e-03
    3532,  2.84962019e-03, -1.30088920e-02, -1.11666675e-03
    3533,  2.94358393e-03, -1.30460287e-02, -1.17500003e-03
    3534,  2.44282520e-03, -1.28481167e-02, -1.49670967e-03
    3535,  2.51954619e-03, -1.28784387e-02, -1.57920533e-03
    3536,  2.59626719e-03, -1.29087607e-02, -1.66170100e-03
    3537,  3.70429163e-03, -9.75652338e-03,  1.05833347e-03
    3538,  3.80367264e-03, -9.77473698e-03,  1.11666675e-03
    3539,  3.90305365e-03, -9.79295058e-03,  1.17500003e-03
    3540,  3.91228323e-03, -9.79464209e-03,  5.47833693e-04
    3541,  4.02312840e-03, -9.81495673e-03,  5.78029229e-04
    3542,  4.13397356e-03, -9.83527138e-03,  6.08224766e-04
    3543,  3.98322530e-03, -9.80764368e-03,  1.48029737e-19
    3544,  4.09798066e-03, -9.82867494e-03,  6.47630098e-20
    3545,  4.21273604e-03, -9.84970621e-03,  0.00000000e+00
    3546,  3.91228323e-03, -9.79464209e-03, -5.47833693e-04
    3547,  4.02312840e-03, -9.81495673e-03, -5.78029229e-04
    3548,  4.13397356e-03, -9.83527138e-03, -6.08224766e-04
    3549,  3.70429163e-03, -9.75652338e-03, -1.05833347e-03
    3550,  3.80367264e-03, -9.77473698e-03, -1.11666675e-03
    3551,  3.90305365e-03, -9.79295058e-03, -1.17500003e-03
    3552,  3.37342476e-03, -9.69588525e-03, -1.49670967e-03
    3553,  3.45456893e-03, -9.71075658e-03, -1.57920533e-03
    3554,  3.53571311e-03, -9.72562791e-03, -1.66170100e-03
    3555,  3.88532995e-03, -6.29292969e-03,  1.05833347e-03
    3556,  3.98604577e-03, -6.28488954e-03,  1.11666675e-03
    3557,  4.08676159e-03, -6.27684940e-03,  1.17500003e-03
    3558,  4.09611514e-03, -6.27610270e-03,  5.47833693e-04
    3559,  4.20844910e-03, -6.26713508e-03,  5.78029229e-04
    3560,  4.32078305e-03, -6.25816745e-03,  6.08224766e-04
    3561,  4.16801005e-03, -6.27036333e-03,  1.48029737e-19
    3562,  4.28430673e-03, -6.26107936e-03,  6.47630098e-20
    3563,  4.40060341e-03, -6.25179539e-03,  0.00000000e+00
    3564,  4.09611514e-03, -6.27610270e-03, -5.47833693e-04
    3565,  4.20844910e-03, -6.26713508e-03, -5.78029229e-04
    3566,  4.32078305e-03, -6.25816745e-03, -6.08224766e-04
    3567,  3.88532995e-03, -6.29292969e-03, -1.05833347e-03
    3568,  3.98604577e-03, -6.28488954e-03, -1.11666675e-03
    3569,  4.08676159e-03, -6.27684940e-03, -1.17500003e-03
    3570,  3.55001911e-03, -6.31969757e-03, -1.49670967e-03
    3571,  3.63225315e-03, -6.31313282e-03, -1.57920533e-03
    3572,  3.71448721e-03, -6.30656807e-03, -1.66170100e-03
    3573,  3.20227559e-03, -2.94438566e-03,  1.05833347e-03
    3574,  3.29844435e-03, -2.91340359e-03,  1.11666675e-03
    3575,  3.39461312e-03, -2.88242151e-03,  1.17500003e-03
    3576,  3.40354438e-03, -2.87954418e-03,  5.47833693e-04
    3577,  3.51080675e-03, -2.84498814e-03,  5.78029229e-04
    3578,  3.61806912e-03, -2.81043211e-03,  6.08224766e-04
    3579,  3.47219342e-03, -2.85742795e-03,  1.48029737e-19
    3580,  3.58323960e-03, -2.82165291e-03,  6.47630098e-20
    3581,  3.69428580e-03, -2.78587786e-03,  0.00000000e+00
    3582,  3.40354438e-03, -2.87954418e-03, -5.47833693e-04
    3583,  3.51080675e-03, -2.84498814e-03, -5.78029229e-04
    3584,  3.61806912e-03, -2.81043211e-03, -6.08224766e-04
    3585,  3.20227559e-03, -2.94438566e-03, -1.05833347e-03
    3586,  3.29844435e-03, -2.91340359e-03, -1.11666675e-03
    3587,  3.39461312e-03, -2.88242151e-03, -1.17500003e-03
    3588,  2.88210316e-03, -3.04753358e-03, -1.49670967e-03
    3589,  2.96062455e-03, -3.02223684e-03, -1.57920533e-03
    3590,  3.03914595e-03, -2.99694010e-03, -1.66170100e-03
    3591,  2.00249577e-03,  3.93531804e-05,  1.05833347e-03
    3592,  2.09431172e-03,  8.15213141e-05,  1.11666675e-03
    3593,  2.18612768e-03,  1.23689452e-04,  1.17500003e-03
    3594,  2.19465469e-03,  1.27605638e-04,  5.47833693e-04
    3595,  2.29706213e-03,  1.74638104e-04,  5.78029229e-04
    3596,  2.39946957e-03,  2.21670570e-04,  6.08224766e-04
    3597,  2.26019652e-03,  1.57706908e-04,  1.48029737e-19
    3598,  2.36621651e-03,  2.06398504e-04,  6.47630098e-20
    3599,  2.47223651e-03,  2.55090105e-04,  0.00000000e+00
    3600,  2.19465469e-03,  1.27605638e-04, -5.47833693e-04
    3601,  2.29706213e-03,  1.74638104e-04, -5.78029229e-04
    3602,  2.39946957e-03,  2.21670570e-04, -6.08224766e-04
    3603,  2.00249577e-03,  3.93531804e-05, -1.05833347e-03
    3604,  2.09431172e-03,  8.15213141e-05, -1.11666675e-03
    3605,  2.18612768e-03,  1.23689452e-04, -1.17500003e-03
    3606,  1.69681506e-03, -1.01036214e-04, -1.49670967e-03
    3607,  1.77178239e-03, -6.66061092e-05, -1.57920533e-03
    3608,  1.84674974e-03, -3.21759999e-05, -1.66170100e-03
    3609,  9.59175865e-04, -2.89041094e-02, -1.83308726e-03
    3610,  1.01204377e-03, -2.88794567e-02, -1.93412349e-03
    3611,  1.06491168e-03, -2.88548040e-02, -2.03515973e-03
    3612,  4.96505942e-04, -2.91198559e-02, -2.04454304e-03
    3613,  5.23872391e-04, -2.91070947e-02, -2.15723437e-03
    3614,  5.51238842e-04, -2.90943336e-02, -2.26992570e-03
    3615,  6.23830344e-18, -2.93513805e-02, -2.11666667e-03
    3616,  6.16283815e-18, -2.93513805e-02, -2.23333333e-03
    3617,  6.10414293e-18, -2.93513805e-02, -2.35000000e-03
    3618, -4.96505942e-04, -2.95829050e-02, -2.04454304e-03
    3619, -5.23872391e-04, -2.95956662e-02, -2.15723437e-03
    3620, -5.51238842e-04, -2.96084273e-02, -2.26992570e-03
    3621, -9.59175865e-04, -2.97986515e-02, -1.83308726e-03
    3622, -1.01204377e-03, -2.98233042e-02, -1.93412349e-03
    3623, -1.06491168e-03, -2.98479569e-02, -2.03515973e-03
    3624, -1.35647963e-03, -2.99839173e-02, -1.49670967e-03
    3625, -1.43124609e-03, -3.00187815e-02, -1.57920533e-03
    3626, -1.50601256e-03, -3.00536456e-02, -1.66170100e-03
    3627, -2.02841914e-04, -2.62303279e-02, -1.83308726e-03
    3628, -1.48189406e-04, -2.62099348e-02, -1.93412349e-03
    3629, -9.35368976e-05, -2.61895418e-02, -2.03515973e-03
    3630, -6.81129663e-04, -2.64087959e-02, -2.04454304e-03
    3631, -6.52839435e-04, -2.63982397e-02, -2.15723437e-03
    3632, -6.24549207e-04, -2.63876835e-02, -2.26992570e-03
    3633, -1.19439560e-03, -2.66003157e-02, -2.11666667e-03
    3634, -1.19439560e-03, -2.66003157e-02, -2.23333333e-03
    3635, -1.19439560e-03, -2.66003157e-02, -2.35000000e-03
    3636, -1.70766153e-03, -2.67918355e-02, -2.04454304e-03
    3637, -1.73595176e-03, -2.68023917e-02, -2.15723437e-03
    3638, -1.76424198e-03, -2.68129479e-02, -2.26992570e-03
    3639, -2.18594928e-03, -2.69703035e-02, -1.83308726e-03
    3640, -2.24060179e-03, -2.69906965e-02, -1.93412349e-03
    3641, -2.29525429e-03, -2.70110895e-02, -2.03515973e-03
    3642, -2.59666438e-03, -2.71235575e-02, -1.49670967e-03
    3643, -2.67395464e-03, -2.71523976e-02, -1.57920533e-03
    3644, -2.75124492e-03, -2.71812376e-02, -1.66170100e-03
    3645, -9.20167298e-04, -2.35508278e-02, -1.83308726e-03
    3646, -8.62474343e-04, -2.35422084e-02, -1.93412349e-03
    3647, -8.04781388e-04, -2.35335890e-02, -2.03515973e-03
    3648, -1.42506332e-03, -2.36262601e-02, -2.04454304e-03
    3649, -1.39519924e-03, -2.36217983e-02, -2.15723437e-03
    3650, -1.36533516e-03, -2.36173366e-02, -2.26992570e-03
    3651, -1.96688344e-03, -2.37072089e-02, -2.11666667e-03
    3652, -1.96688344e-03, -2.37072089e-02, -2.23333333e-03
    3653, -1.96688344e-03, -2.37072089e-02, -2.35000000e-03
    3654, -2.50870356e-03, -2.37881577e-02, -2.04454304e-03
    3655, -2.53856764e-03, -2.37926194e-02, -2.15723437e-03
    3656, -2.56843172e-03, -2.37970812e-02, -2.26992570e-03
    3657, -3.01359958e-03, -2.38635900e-02, -1.83308726e-03
    3658, -3.07129253e-03, -2.38722094e-02, -1.93412349e-03
    3659, -3.12898549e-03, -2.38808288e-02, -2.03515973e-03
    3660, -3.44716372e-03, -2.39283652e-02, -1.49670967e-03
    3661, -3.52875383e-03, -2.39405549e-02, -1.57920533e-03
    3662, -3.61034394e-03, -2.39527445e-02, -1.66170100e-03
    3663, -9.67872005e-04, -2.08371652e-02, -1.83308726e-03
    3664, -9.09919783e-04, -2.08438218e-02, -1.93412349e-03
    3665, -8.51967561e-04, -2.08504785e-02, -2.03515973e-03
    3666, -1.47503698e-03, -2.07789098e-02, -2.04454304e-03
    3667, -1.44503870e-03, -2.07823556e-02, -2.15723437e-03
    3668, -1.41504041e-03, -2.07858013e-02, -2.26992570e-03
    3669, -2.01929199e-03, -2.07163942e-02, -2.11666667e-03
    3670, -2.01929199e-03, -2.07163942e-02, -2.23333333e-03
    3671, -2.01929199e-03, -2.07163942e-02, -2.35000000e-03
    3672, -2.56354700e-03, -2.06538786e-02, -2.04454304e-03
    3673, -2.59354529e-03, -2.06504328e-02, -2.15723437e-03
    3674, -2.62354358e-03, -2.06469871e-02, -2.26992570e-03
    3675, -3.07071198e-03, -2.05956233e-02, -1.83308726e-03
    3676, -3.12866420e-03, -2.05889666e-02, -1.93412349e-03
    3677, -3.18661643e-03, -2.05823099e-02, -2.03515973e-03
    3678, -3.50622452e-03, -2.05455983e-02, -1.49670967e-03
    3679, -3.58818129e-03, -2.05361844e-02, -1.57920533e-03
    3680, -3.67013806e-03, -2.05267704e-02, -1.66170100e-03
    3681, -3.30923425e-04, -1.81514367e-02, -1.83308726e-03
    3682, -2.75842814e-04, -1.81706434e-02, -1.93412349e-03
    3683, -2.20762204e-04, -1.81898501e-02, -2.03515973e-03
    3684, -8.12957681e-04, -1.79833504e-02, -2.04454304e-03
    3685, -7.84445851e-04, -1.79932925e-02, -2.15723437e-03
    3686, -7.55934020e-04, -1.80032347e-02, -2.26992570e-03
    3687, -1.33024411e-03, -1.78029716e-02, -2.11666667e-03
    3688, -1.33024411e-03, -1.78029716e-02, -2.23333333e-03
    3689, -1.33024411e-03, -1.78029716e-02, -2.35000000e-03
    3690, -1.84753054e-03, -1.76225928e-02, -2.04454304e-03
    3691, -1.87604237e-03, -1.76126507e-02, -2.15723437e-03
    3692, -1.90455420e-03, -1.76027086e-02, -2.26992570e-03
    3693, -2.32956479e-03, -1.74545066e-02, -1.83308726e-03
    3694, -2.38464541e-03, -1.74352998e-02, -1.93412349e-03
    3695, -2.43972602e-03, -1.74160931e-02, -2.03515973e-03
    3696, -2.74349709e-03, -1.73101676e-02, -1.49670967e-03
    3697, -2.82139279e-03, -1.72830052e-02, -1.57920533e-03
    3698, -2.89928849e-03, -1.72558428e-02, -1.66170100e-03
    3699,  7.90952582e-04, -1.54841730e-02, -1.83308726e-03
    3700,  8.43856228e-04, -1.55087489e-02, -1.93412349e-03
    3701,  8.96759873e-04, -1.55333248e-02, -2.03515973e-03
    3702,  3.27969885e-04, -1.52690985e-02, -2.04454304e-03
    3703,  3.55354834e-04, -1.52818199e-02, -2.15723437e-03
    3704,  3.82739785e-04, -1.52945414e-02, -2.26992570e-03
    3705, -1.68871705e-04, -1.50382951e-02, -2.11666667e-03
    3706, -1.68871705e-04, -1.50382951e-02, -2.23333333e-03
    3707, -1.68871705e-04, -1.50382951e-02, -2.35000000e-03
    3708, -6.65713295e-04, -1.48074918e-02, -2.04454304e-03
    3709, -6.93098245e-04, -1.47947703e-02, -2.15723437e-03
    3710, -7.20483196e-04, -1.47820489e-02, -2.26992570e-03
    3711, -1.12869599e-03, -1.45924173e-02, -1.83308726e-03
    3712, -1.18159964e-03, -1.45678413e-02, -1.93412349e-03
    3713, -1.23450328e-03, -1.45432654e-02, -2.03515973e-03
    3714, -1.52626834e-03, -1.44077286e-02, -1.49670967e-03
    3715, -1.60108534e-03, -1.43729730e-02, -1.57920533e-03
    3716, -1.67590236e-03, -1.43382174e-02, -1.66170100e-03
    3717,  2.03513519e-03, -1.26869878e-02, -1.83308726e-03
    3718,  2.08938516e-03, -1.27084287e-02, -1.93412349e-03
    3719,  2.14363513e-03, -1.27298696e-02, -2.03515973e-03
    3720,  1.56037023e-03, -1.24993491e-02, -2.04454304e-03
    3721,  1.58845209e-03, -1.25104478e-02, -2.15723437e-03
    3722,  1.61653395e-03, -1.25215464e-02, -2.26992570e-03
    3723,  1.05088472e-03, -1.22979881e-02, -2.11666667e-03
    3724,  1.05088472e-03, -1.22979881e-02, -2.23333333e-03
    3725,  1.05088472e-03, -1.22979881e-02, -2.35000000e-03
    3726,  5.41399202e-04, -1.20966271e-02, -2.04454304e-03
    3727,  5.13317344e-04, -1.20855285e-02, -2.15723437e-03
    3728,  4.85235485e-04, -1.20744298e-02, -2.26992570e-03
    3729,  6.66342429e-05, -1.19089885e-02, -1.83308726e-03
    3730,  1.23842734e-05, -1.18875476e-02, -1.93412349e-03
    3731, -4.18656960e-05, -1.18661067e-02, -2.03515973e-03
    3732, -3.41055766e-04, -1.17478595e-02, -1.49670967e-03
    3733, -4.17776757e-04, -1.17175375e-02, -1.57920533e-03
    3734, -4.94497757e-04, -1.16872155e-02, -1.66170100e-03
    3735,  2.94223026e-03, -9.61686004e-03, -1.83308726e-03
    3736,  2.99960790e-03, -9.62737567e-03, -1.93412349e-03
    3737,  3.05698553e-03, -9.63789129e-03, -2.03515973e-03
    3738,  2.44009376e-03, -9.52483326e-03, -2.04454304e-03
    3739,  2.46979462e-03, -9.53027655e-03, -2.15723437e-03
    3740,  2.49949547e-03, -9.53571984e-03, -2.26992570e-03
    3741,  1.90123496e-03, -9.42607636e-03, -2.11666667e-03
    3742,  1.90123496e-03, -9.42607636e-03, -2.23333333e-03
    3743,  1.90123496e-03, -9.42607636e-03, -2.35000000e-03
    3744,  1.36237617e-03, -9.32731946e-03, -2.04454304e-03
    3745,  1.33267531e-03, -9.32187618e-03, -2.15723437e-03
    3746,  1.30297445e-03, -9.31643289e-03, -2.26992570e-03
    3747,  8.60239662e-04, -9.23529268e-03, -1.83308726e-03
    3748,  8.02862029e-04, -9.22477705e-03, -1.93412349e-03
    3749,  7.45484395e-04, -9.21426143e-03, -2.03515973e-03
    3750,  4.29045169e-04, -9.15626747e-03, -1.49670967e-03
    3751,  3.47900996e-04, -9.14139614e-03, -1.57920533e-03
    3752,  2.66756813e-04, -9.12652481e-03, -1.66170100e-03
    3753,  3.11303313e-03, -6.35458218e-03, -1.83308726e-03
    3754,  3.17118142e-03, -6.34994020e-03, -1.93412349e-03
    3755,  3.22932971e-03, -6.34529822e-03, -2.03515973e-03
    3756,  2.60415230e-03, -6.39520615e-03, -2.04454304e-03
    3757,  2.63425207e-03, -6.39280329e-03, -2.15723437e-03
    3758,  2.66435185e-03, -6.39040042e-03, -2.26992570e-03
    3759,  2.05805594e-03, -6.43880105e-03, -2.11666667e-03
    3760,  2.05805594e-03, -6.43880105e-03, -2.23333333e-03
    3761,  2.05805594e-03, -6.43880105e-03, -2.35000000e-03
    3762,  1.51195959e-03, -6.48239594e-03, -2.04454304e-03
    3763,  1.48185981e-03, -6.48479881e-03, -2.15723437e-03
    3764,  1.45176003e-03, -6.48720167e-03, -2.26992570e-03
    3765,  1.00307875e-03, -6.52301992e-03, -1.83308726e-03
    3766,  9.44930465e-04, -6.52766190e-03, -1.93412349e-03
    3767,  8.86782176e-04, -6.53230388e-03, -2.03515973e-03
    3768,  5.66092771e-04, -6.55790452e-03, -1.49670967e-03
    3769,  4.83858728e-04, -6.56446927e-03, -1.57920533e-03
    3770,  4.01624676e-04, -6.57103402e-03, -1.66170100e-03
    3771,  2.46484596e-03, -3.18195868e-03, -1.83308726e-03
    3772,  2.52036900e-03, -3.16407117e-03, -1.93412349e-03
    3773,  2.57589205e-03, -3.14618367e-03, -2.03515973e-03
    3774,  1.97893976e-03, -3.33849999e-03, -2.04454304e-03
    3775,  2.00768062e-03, -3.32924073e-03, -2.15723437e-03
    3776,  2.03642147e-03, -3.31998148e-03, -2.26992570e-03
    3777,  1.45749824e-03, -3.50648949e-03, -2.11666667e-03
    3778,  1.45749824e-03, -3.50648949e-03, -2.23333333e-03
    3779,  1.45749824e-03, -3.50648949e-03, -2.35000000e-03
    3780,  9.36056711e-04, -3.67447900e-03, -2.04454304e-03
    3781,  9.07315860e-04, -3.68373825e-03, -2.15723437e-03
    3782,  8.78575009e-04, -3.69299751e-03, -2.26992570e-03
    3783,  4.50150520e-04, -3.83102030e-03, -1.83308726e-03
    3784,  3.94627475e-04, -3.84890781e-03, -1.93412349e-03
    3785,  3.39104430e-04, -3.86679532e-03, -2.03515973e-03
    3786,  3.28933156e-05, -3.96544541e-03, -1.49670967e-03
    3787, -4.56280741e-05, -3.99074214e-03, -1.57920533e-03
    3788, -1.24149473e-04, -4.01603888e-03, -1.66170100e-03
    3789,  1.29844384e-03, -2.83995398e-04, -1.83308726e-03
    3790,  1.35145378e-03, -2.59649621e-04, -1.93412349e-03
    3791,  1.40446373e-03, -2.35303844e-04, -2.03515973e-03
    3792,  8.34530833e-04, -4.97055830e-04, -2.04454304e-03
    3793,  8.61970809e-04, -4.84453525e-04, -2.15723437e-03
    3794,  8.89410786e-04, -4.71851220e-04, -2.26992570e-03
    3795,  3.36690902e-04, -7.25697818e-04, -2.11666667e-03
    3796,  3.36690902e-04, -7.25697818e-04, -2.23333333e-03
    3797,  3.36690902e-04, -7.25697818e-04, -2.35000000e-03
    3798, -1.61149029e-04, -9.54339805e-04, -2.04454304e-03
    3799, -1.88589005e-04, -9.66942110e-04, -2.15723437e-03
    3800, -2.16028982e-04, -9.79544415e-04, -2.26992570e-03
    3801, -6.25062032e-04, -1.16740024e-03, -1.83308726e-03
    3802, -6.78071980e-04, -1.19174601e-03, -1.93412349e-03
    3803, -7.31081929e-04, -1.21609179e-03, -2.03515973e-03
    3804, -1.02343325e-03, -1.35035942e-03, -1.49670967e-03
    3805, -1.09840059e-03, -1.38478953e-03, -1.57920533e-03
    3806, -1.17336794e-03, -1.41921964e-03, -1.66170100e-03
    3807, -1.66134126e-03, -3.01260766e-02, -1.05833347e-03
    3808, -1.75291118e-03, -3.01687764e-02, -1.11666675e-03
    3809, -1.84448111e-03, -3.02114761e-02, -1.17500003e-03
    3810, -1.85298528e-03, -3.02154417e-02, -5.47833693e-04
    3811, -1.95511831e-03, -3.02630671e-02, -5.78029229e-04
    3812, -2.05725134e-03, -3.03106925e-02, -6.08224766e-04
    3813, -1.91835149e-03, -3.02459224e-02, -1.48029737e-19
    3814, -2.02408739e-03, -3.02952279e-02, -6.47630098e-20
    3815, -2.12982330e-03, -3.03445334e-02,  0.00000000e+00
    3816, -1.85298528e-03, -3.02154417e-02,  5.47833693e-04
    3817, -1.95511831e-03, -3.02630671e-02,  5.78029229e-04
    3818, -2.05725134e-03, -3.03106925e-02,  6.08224766e-04
    3819, -1.66134126e-03, -3.01260766e-02,  1.05833347e-03
    3820, -1.75291118e-03, -3.01687764e-02,  1.11666675e-03
    3821, -1.84448111e-03, -3.02114761e-02,  1.17500003e-03
    3822, -2.91181687e-03, -2.72411534e-02, -1.05833347e-03
    3823, -3.00647782e-03, -2.72764751e-02, -1.11666675e-03
    3824, -3.10113877e-03, -2.73117968e-02, -1.17500003e-03
    3825, -3.10993000e-03, -2.73150772e-02, -5.47833693e-04
    3826, -3.21551062e-03, -2.73544735e-02, -5.78029229e-04
    3827, -3.32109124e-03, -2.73938698e-02, -6.08224766e-04
    3828, -3.17750271e-03, -2.73402912e-02, -1.48029737e-19
    3829, -3.28680782e-03, -2.73810773e-02, -6.47630098e-20
    3830, -3.39611293e-03, -2.74218633e-02,  0.00000000e+00
    3831, -3.10993000e-03, -2.73150772e-02,  5.47833693e-04
    3832, -3.21551062e-03, -2.73544735e-02,  5.78029229e-04
    3833, -3.32109124e-03, -2.73938698e-02,  6.08224766e-04
    3834, -2.91181687e-03, -2.72411534e-02,  1.05833347e-03
    3835, -3.00647782e-03, -2.72764751e-02,  1.11666675e-03
    3836, -3.10113877e-03, -2.73117968e-02,  1.17500003e-03
    3837, -3.77984889e-03, -2.39780689e-02, -1.05833347e-03
    3838, -3.87977605e-03, -2.39929981e-02, -1.11666675e-03
    3839, -3.97970321e-03, -2.40079274e-02, -1.17500003e-03
    3840, -3.98898352e-03, -2.40093139e-02, -5.47833693e-04
    3841, -4.10043784e-03, -2.40259654e-02, -5.78029229e-04
    3842, -4.21189216e-03, -2.40426168e-02, -6.08224766e-04
    3843, -4.06031545e-03, -2.40199710e-02, -1.48029737e-19
    3844, -4.17570146e-03, -2.40372099e-02, -6.47630098e-20
    3845, -4.29108748e-03, -2.40544487e-02,  0.00000000e+00
    3846, -3.98898352e-03, -2.40093139e-02,  5.47833693e-04
    3847, -4.10043784e-03, -2.40259654e-02,  5.78029229e-04
    3848, -4.21189216e-03, -2.40426168e-02,  6.08224766e-04
    3849, -3.77984889e-03, -2.39780689e-02,  1.05833347e-03
    3850, -3.87977605e-03, -2.39929981e-02,  1.11666675e-03
    3851, -3.97970321e-03, -2.40079274e-02,  1.17500003e-03
    3852, -3.84040475e-03, -2.05072128e-02, -1.05833347e-03
    3853, -3.94078097e-03, -2.04956831e-02, -1.11666675e-03
    3854, -4.04115720e-03, -2.04841535e-02, -1.17500003e-03
    3855, -4.05047921e-03, -2.04830827e-02, -5.47833693e-04
    3856, -4.16243440e-03, -2.04702230e-02, -5.78029229e-04
    3857, -4.27438958e-03, -2.04573633e-02, -6.08224766e-04
    3858, -4.12213170e-03, -2.04748524e-02, -1.48029737e-19
    3859, -4.23803624e-03, -2.04615390e-02, -6.47630098e-20
    3860, -4.35394080e-03, -2.04482257e-02,  0.00000000e+00
    3861, -4.05047921e-03, -2.04830827e-02,  5.47833693e-04
    3862, -4.16243440e-03, -2.04702230e-02,  5.78029229e-04
    3863, -4.27438958e-03, -2.04573633e-02,  6.08224766e-04
    3864, -3.84040475e-03, -2.05072128e-02,  1.05833347e-03
    3865, -3.94078097e-03, -2.04956831e-02,  1.11666675e-03
    3866, -4.04115720e-03, -2.04841535e-02,  1.17500003e-03
    3867, -3.06111823e-03, -1.71994125e-02, -1.05833347e-03
    3868, -3.15652067e-03, -1.71661455e-02, -1.11666675e-03
    3869, -3.25192312e-03, -1.71328784e-02, -1.17500003e-03
    3870, -3.26078322e-03, -1.71297889e-02, -5.47833693e-04
    3871, -3.36719087e-03, -1.70926844e-02, -5.78029229e-04
    3872, -3.47359852e-03, -1.70555798e-02, -6.08224766e-04
    3873, -3.32888523e-03, -1.71060416e-02, -1.48029737e-19
    3874, -3.43904654e-03, -1.70676281e-02, -6.47630098e-20
    3875, -3.54920786e-03, -1.70292147e-02,  0.00000000e+00
    3876, -3.26078322e-03, -1.71297889e-02,  5.47833693e-04
    3877, -3.36719087e-03, -1.70926844e-02,  5.78029229e-04
    3878, -3.47359852e-03, -1.70555798e-02,  6.08224766e-04
    3879, -3.06111823e-03, -1.71994125e-02,  1.05833347e-03
    3880, -3.15652067e-03, -1.71661455e-02,  1.11666675e-03
    3881, -3.25192312e-03, -1.71328784e-02,  1.17500003e-03
    3882, -1.83133606e-03, -1.42660121e-02, -1.05833347e-03
    3883, -1.92296789e-03, -1.42234453e-02, -1.11666675e-03
    3884, -2.01459972e-03, -1.41808785e-02, -1.17500003e-03
    3885, -2.02310964e-03, -1.41769253e-02, -5.47833693e-04
    3886, -2.12531171e-03, -1.41294483e-02, -5.78029229e-04
    3887, -2.22751379e-03, -1.40819712e-02, -6.08224766e-04
    3888, -2.08852004e-03, -1.41465395e-02, -1.48029737e-19
    3889, -2.19432742e-03, -1.40973876e-02, -6.47630098e-20
    3890, -2.30013481e-03, -1.40482357e-02,  0.00000000e+00
    3891, -2.02310964e-03, -1.41769253e-02,  5.47833693e-04
    3892, -2.12531171e-03, -1.41294483e-02,  5.78029229e-04
    3893, -2.22751379e-03, -1.40819712e-02,  6.08224766e-04
    3894, -1.83133606e-03, -1.42660121e-02,  1.05833347e-03
    3895, -1.92296789e-03, -1.42234453e-02,  1.11666675e-03
    3896, -2.01459972e-03, -1.41808785e-02,  1.17500003e-03
    3897, -6.53887035e-04, -1.16242210e-02, -1.05833347e-03
    3898, -7.47850762e-04, -1.15870842e-02, -1.11666675e-03
    3899, -8.41814498e-04, -1.15499475e-02, -1.17500003e-03
    3900, -8.50540979e-04, -1.15464986e-02, -5.47833693e-04
    3901, -9.55343953e-04, -1.15050779e-02, -5.78029229e-04
    3902, -1.06014693e-03, -1.14636572e-02, -6.08224766e-04
    3903, -9.17615979e-04, -1.15199889e-02, -1.48029737e-19
    3904, -1.02611601e-03, -1.14771071e-02, -6.47630098e-20
    3905, -1.13461605e-03, -1.14342252e-02,  0.00000000e+00
    3906, -8.50540979e-04, -1.15464986e-02,  5.47833693e-04
    3907, -9.55343953e-04, -1.15050779e-02,  5.78029229e-04
    3908, -1.06014693e-03, -1.14636572e-02,  6.08224766e-04
    3909, -6.53887035e-04, -1.16242210e-02,  1.05833347e-03
    3910, -7.47850762e-04, -1.15870842e-02,  1.11666675e-03
    3911, -8.41814498e-04, -1.15499475e-02,  1.17500003e-03
    3912,  9.81782922e-05, -9.09562935e-03, -1.05833347e-03
    3913, -1.20270971e-06, -9.07741574e-03, -1.11666675e-03
    3914, -1.00583721e-04, -9.05920214e-03, -1.17500003e-03
    3915, -1.09813309e-04, -9.05751063e-03, -5.47833693e-04
    3916, -2.20658471e-04, -9.03719599e-03, -5.78029229e-04
    3917, -3.31503633e-04, -9.01688134e-03, -6.08224766e-04
    3918, -1.80755372e-04, -9.04450905e-03, -1.48029737e-19
    3919, -2.95510738e-04, -9.02347778e-03, -6.47630098e-20
    3920, -4.10266114e-04, -9.00244651e-03,  0.00000000e+00
    3921, -1.09813309e-04, -9.05751063e-03,  5.47833693e-04
    3922, -2.20658471e-04, -9.03719599e-03,  5.78029229e-04
    3923, -3.31503633e-04, -9.01688134e-03,  6.08224766e-04
    3924,  9.81782922e-05, -9.09562935e-03,  1.05833347e-03
    3925, -1.20270971e-06, -9.07741574e-03,  1.11666675e-03
    3926, -1.00583721e-04, -9.05920214e-03,  1.17500003e-03
    3927,  2.30781931e-04, -6.58467240e-03, -1.05833347e-03
    3928,  1.30066116e-04, -6.59271255e-03, -1.11666675e-03
    3929,  2.93502916e-05, -6.60075270e-03, -1.17500003e-03
    3930,  1.99967387e-05, -6.60149939e-03, -5.47833693e-04
    3931, -9.23372145e-05, -6.61046702e-03, -5.78029229e-04
    3932, -2.04671168e-04, -6.61943464e-03, -6.08224766e-04
    3933, -5.18981664e-05, -6.60723876e-03, -1.48029737e-19
    3934, -1.68194843e-04, -6.61652273e-03, -6.47630098e-20
    3935, -2.84491529e-04, -6.62580670e-03,  0.00000000e+00
    3936,  1.99967387e-05, -6.60149939e-03,  5.47833693e-04
    3937, -9.23372145e-05, -6.61046702e-03,  5.78029229e-04
    3938, -2.04671168e-04, -6.61943464e-03,  6.08224766e-04
    3939,  2.30781931e-04, -6.58467240e-03,  1.05833347e-03
    3940,  1.30066116e-04, -6.59271255e-03,  1.11666675e-03
    3941,  2.93502916e-05, -6.60075270e-03,  1.17500003e-03
    3942, -2.87279113e-04, -4.06859332e-03, -1.05833347e-03
    3943, -3.83447872e-04, -4.09957540e-03, -1.11666675e-03
    3944, -4.79616640e-04, -4.13055748e-03, -1.17500003e-03
    3945, -4.88547904e-04, -4.13343481e-03, -5.47833693e-04
    3946, -5.95810272e-04, -4.16799084e-03, -5.78029229e-04
    3947, -7.03072640e-04, -4.20254688e-03, -6.08224766e-04
    3948, -5.57196941e-04, -4.15555103e-03, -1.48029737e-19
    3949, -6.68243126e-04, -4.19132608e-03, -6.47630098e-20
    3950, -7.79289320e-04, -4.22710112e-03,  0.00000000e+00
    3951, -4.88547904e-04, -4.13343481e-03,  5.47833693e-04
    3952, -5.95810272e-04, -4.16799084e-03,  5.78029229e-04
    3953, -7.03072640e-04, -4.20254688e-03,  6.08224766e-04
    3954, -2.87279113e-04, -4.06859332e-03,  1.05833347e-03
    3955, -3.83447872e-04, -4.09957540e-03,  1.11666675e-03
    3956, -4.79616640e-04, -4.13055748e-03,  1.17500003e-03
    3957, -1.32911397e-03, -1.49074882e-03, -1.05833347e-03
    3958, -1.42092992e-03, -1.53291695e-03, -1.11666675e-03
    3959, -1.51274587e-03, -1.57508509e-03, -1.17500003e-03
    3960, -1.52127289e-03, -1.57900127e-03, -5.47833693e-04
    3961, -1.62368033e-03, -1.62603374e-03, -5.78029229e-04
    3962, -1.72608776e-03, -1.67306621e-03, -6.08224766e-04
    3963, -1.58681472e-03, -1.60910254e-03, -1.48029737e-19
    3964, -1.69283471e-03, -1.65779414e-03, -6.47630098e-20
    3965, -1.79885471e-03, -1.70648574e-03,  0.00000000e+00
    3966, -1.52127289e-03, -1.57900127e-03,  5.47833693e-04
    3967, -1.62368033e-03, -1.62603374e-03,  5.78029229e-04
    3968, -1.72608776e-03, -1.67306621e-03,  6.08224766e-04
    3969, -1.32911397e-03, -1.49074882e-03,  1.05833347e-03
    3970, -1.42092992e-03, -1.53291695e-03,  1.11666675e-03
    3971, -1.51274587e-03, -1.57508509e-03,  1.17500003e-03
    3972, -1.55407678e-03, -3.00760584e-02,  1.71473400e-03
    3973, -1.60214100e-03, -3.00984711e-02,  1.76776700e-03
    3974, -1.09889821e-03, -2.98638051e-02,  2.10011163e-03
    3975, -1.13288475e-03, -2.98796533e-02,  2.16506353e-03
    3976, -5.68831569e-04, -2.96166310e-02,  2.34237014e-03
    3977, -5.86424297e-04, -2.96248346e-02,  2.41481457e-03
    3978,  6.22153337e-18, -2.93513805e-02,  2.42500000e-03
    3979,  6.30538369e-18, -2.93513805e-02,  2.50000000e-03
    3980,  5.68831569e-04, -2.90861299e-02,  2.34237014e-03
    3981,  5.86424297e-04, -2.90779263e-02,  2.41481457e-03
    3982,  1.09889821e-03, -2.88389558e-02,  2.10011163e-03
    3983,  1.13288475e-03, -2.88231076e-02,  2.16506353e-03
    3984,  1.55407678e-03, -2.86267026e-02,  1.71473400e-03
    3985,  1.60214100e-03, -2.86042898e-02,  1.76776700e-03
    3986, -2.80093159e-03, -2.71997777e-02,  1.71473400e-03
    3987, -2.85061826e-03, -2.72183177e-02,  1.76776700e-03
    3988, -2.33038807e-03, -2.70241993e-02,  2.10011163e-03
    3989, -2.36552186e-03, -2.70373091e-02,  2.16506353e-03
    3990, -1.78242857e-03, -2.68197340e-02,  2.34237014e-03
    3991, -1.80061515e-03, -2.68265201e-02,  2.41481457e-03
    3992, -1.19439560e-03, -2.66003157e-02,  2.42500000e-03
    3993, -1.19439560e-03, -2.66003157e-02,  2.50000000e-03
    3994, -6.06362621e-04, -2.63808974e-02,  2.34237014e-03
    3995, -5.88176036e-04, -2.63741112e-02,  2.41481457e-03
    3996, -5.84031197e-05, -2.61764320e-02,  2.10011163e-03
    3997, -2.32693323e-05, -2.61633222e-02,  2.16506353e-03
    3998,  4.12140396e-04, -2.60008537e-02,  1.71473400e-03
    3999,  4.61827067e-04, -2.59823136e-02,  1.76776700e-03
    4000, -3.66279480e-03, -2.39605808e-02,  1.71473400e-03
    4001, -3.71524566e-03, -2.39684170e-02,  1.76776700e-03
    4002, -3.16607384e-03, -2.38863699e-02,  2.10011163e-03
    4003, -3.20316220e-03, -2.38919109e-02,  2.16506353e-03
    4004, -2.58763007e-03, -2.37999494e-02,  2.34237014e-03
    4005, -2.60682842e-03, -2.38028177e-02,  2.41481457e-03
    4006, -1.96688344e-03, -2.37072089e-02,  2.42500000e-03
    4007, -1.96688344e-03, -2.37072089e-02,  2.50000000e-03
    4008, -1.34613681e-03, -2.36144683e-02,  2.34237014e-03
    4009, -1.32693846e-03, -2.36116001e-02,  2.41481457e-03
    4010, -7.67693035e-04, -2.35280479e-02,  2.10011163e-03
    4011, -7.30604673e-04, -2.35225068e-02,  2.16506353e-03
    4012, -2.70972079e-04, -2.34538370e-02,  1.71473400e-03
    4013, -2.18521222e-04, -2.34460008e-02,  1.76776700e-03
    4014, -3.72282463e-03, -2.05207186e-02,  1.71473400e-03
    4015, -3.77551119e-03, -2.05146668e-02,  1.76776700e-03
    4016, -3.22387145e-03, -2.05780307e-02,  2.10011163e-03
    4017, -3.26112648e-03, -2.05737514e-02,  2.16506353e-03
    4018, -2.64282820e-03, -2.06447720e-02,  2.34237014e-03
    4019, -2.66211282e-03, -2.06425568e-02,  2.41481457e-03
    4020, -2.01929199e-03, -2.07163942e-02,  2.42500000e-03
    4021, -2.01929199e-03, -2.07163942e-02,  2.50000000e-03
    4022, -1.39575579e-03, -2.07880165e-02,  2.34237014e-03
    4023, -1.37647116e-03, -2.07902316e-02,  2.41481457e-03
    4024, -8.14712536e-04, -2.08547578e-02,  2.10011163e-03
    4025, -7.77457502e-04, -2.08590370e-02,  2.16506353e-03
    4026, -3.15759361e-04, -2.09120698e-02,  1.71473400e-03
    4027, -2.63072795e-04, -2.09181216e-02,  1.76776700e-03
    4028, -2.94936436e-03, -1.72383813e-02,  1.71473400e-03
    4029, -2.99944024e-03, -1.72209197e-02,  1.76776700e-03
    4030, -2.47513500e-03, -1.74037460e-02,  2.10011163e-03
    4031, -2.51054400e-03, -1.73913988e-02,  2.16506353e-03
    4032, -1.92288324e-03, -1.75963172e-02,  2.34237014e-03
    4033, -1.94121229e-03, -1.75899258e-02,  2.41481457e-03
    4034, -1.33024411e-03, -1.78029716e-02,  2.42500000e-03
    4035, -1.33024411e-03, -1.78029716e-02,  2.50000000e-03
    4036, -7.37604976e-04, -1.80096260e-02,  2.34237014e-03
    4037, -7.19275933e-04, -1.80160174e-02,  2.41481457e-03
    4038, -1.85353218e-04, -1.82021973e-02,  2.10011163e-03
    4039, -1.49944221e-04, -1.82145445e-02,  2.16506353e-03
    4040,  2.88876143e-04, -1.83675620e-02,  1.71473400e-03
    4041,  3.38952018e-04, -1.83850235e-02,  1.76776700e-03
    4042, -1.72399907e-03, -1.43158745e-02,  1.71473400e-03
    4043, -1.77209578e-03, -1.42935316e-02,  1.76776700e-03
    4044, -1.26851279e-03, -1.45274666e-02,  2.10011163e-03
    4045, -1.30252231e-03, -1.45116678e-02,  2.16506353e-03
    4046, -7.38087816e-04, -1.47738708e-02,  2.34237014e-03
    4047, -7.55692437e-04, -1.47656928e-02,  2.41481457e-03
    4048, -1.68871705e-04, -1.50382951e-02,  2.42500000e-03
    4049, -1.68871705e-04, -1.50382951e-02,  2.50000000e-03
    4050,  4.00344405e-04, -1.53027194e-02,  2.34237014e-03
    4051,  4.17949026e-04, -1.53108975e-02,  2.41481457e-03
    4052,  9.30769382e-04, -1.55491237e-02,  2.10011163e-03
    4053,  9.64778899e-04, -1.55649225e-02,  2.16506353e-03
    4054,  1.38625566e-03, -1.57607158e-02,  1.71473400e-03
    4055,  1.43435237e-03, -1.57830587e-02,  1.76776700e-03
    4056, -5.43818464e-04, -1.16677227e-02,  1.71473400e-03
    4057, -5.93139172e-04, -1.16482300e-02,  1.76776700e-03
    4058, -7.67406990e-05, -1.18523232e-02,  2.10011163e-03
    4059, -1.11615711e-04, -1.18385398e-02,  2.16506353e-03
    4060,  4.67182851e-04, -1.20672950e-02,  2.34237014e-03
    4061,  4.49130218e-04, -1.20601601e-02,  2.41481457e-03
    4062,  1.05088472e-03, -1.22979881e-02,  2.42500000e-03
    4063,  1.05088472e-03, -1.22979881e-02,  2.50000000e-03
    4064,  1.63458658e-03, -1.25286812e-02,  2.34237014e-03
    4065,  1.65263921e-03, -1.25358161e-02,  2.41481457e-03
    4066,  2.17851013e-03, -1.27436530e-02,  2.10011163e-03
    4067,  2.21338514e-03, -1.27574365e-02,  2.16506353e-03
    4068,  2.64558790e-03, -1.29282535e-02,  1.71473400e-03
    4069,  2.69490860e-03, -1.29477462e-02,  1.76776700e-03
    4070,  2.14592627e-04, -9.11696465e-03,  1.71473400e-03
    4071,  1.62428442e-04, -9.10740450e-03,  1.76776700e-03
    4072,  7.08598749e-04, -9.20750138e-03,  2.10011163e-03
    4073,  6.71713094e-04, -9.20074133e-03,  2.16506353e-03
    4074,  1.28388103e-03, -9.31293363e-03,  2.34237014e-03
    4075,  1.26478761e-03, -9.30943437e-03,  2.41481457e-03
    4076,  1.90123496e-03, -9.42607636e-03,  2.42500000e-03
    4077,  1.90123496e-03, -9.42607636e-03,  2.50000000e-03
    4078,  2.51858889e-03, -9.53921910e-03,  2.34237014e-03
    4079,  2.53768231e-03, -9.54271836e-03,  2.41481457e-03
    4080,  3.09387118e-03, -9.64465134e-03,  2.10011163e-03
    4081,  3.13075683e-03, -9.65141139e-03,  2.16506353e-03
    4082,  3.58787730e-03, -9.73518807e-03,  1.71473400e-03
    4083,  3.64004148e-03, -9.74474822e-03,  1.76776700e-03
    4084,  3.48759859e-04, -6.57525422e-03,  1.71473400e-03
    4085,  2.95895042e-04, -6.57947442e-03,  1.76776700e-03
    4086,  8.49401110e-04, -6.53528801e-03,  2.10011163e-03
    4087,  8.12020033e-04, -6.53827214e-03,  2.16506353e-03
    4088,  1.43241016e-03, -6.48874637e-03,  2.34237014e-03
    4089,  1.41306030e-03, -6.49029107e-03,  2.41481457e-03
    4090,  2.05805594e-03, -6.43880105e-03,  2.42500000e-03
    4091,  2.05805594e-03, -6.43880105e-03,  2.50000000e-03
    4092,  2.68370172e-03, -6.38885572e-03,  2.34237014e-03
    4093,  2.70305159e-03, -6.38731102e-03,  2.41481457e-03
    4094,  3.26671077e-03, -6.34231408e-03,  2.10011163e-03
    4095,  3.30409185e-03, -6.33932995e-03,  2.16506353e-03
    4096,  3.76735202e-03, -6.30234787e-03,  1.71473400e-03
    4097,  3.82021684e-03, -6.29812767e-03,  1.76776700e-03
    4098, -1.74627582e-04, -4.03230109e-03,  1.71473400e-03
    4099, -2.25105690e-04, -4.04856331e-03,  1.76776700e-03
    4100,  3.03411022e-04, -3.87829444e-03,  2.10011163e-03
    4101,  2.67717603e-04, -3.88979356e-03,  2.16506353e-03
    4102,  8.60098737e-04, -3.69894989e-03,  2.34237014e-03
    4103,  8.41622465e-04, -3.70490228e-03,  2.41481457e-03
    4104,  1.45749824e-03, -3.50648949e-03,  2.42500000e-03
    4105,  1.45749824e-03, -3.50648949e-03,  2.50000000e-03
    4106,  2.05489774e-03, -3.31402909e-03,  2.34237014e-03
    4107,  2.07337401e-03, -3.30807671e-03,  2.41481457e-03
    4108,  2.61158545e-03, -3.13468455e-03,  2.10011163e-03
    4109,  2.64727887e-03, -3.12318543e-03,  2.16506353e-03
    4110,  3.08962406e-03, -2.98067789e-03,  1.71473400e-03
    4111,  3.14010217e-03, -2.96441568e-03,  1.76776700e-03
    4112, -1.22156129e-03, -1.44135331e-03,  1.71473400e-03
    4113, -1.26975465e-03, -1.46348698e-03,  1.76776700e-03
    4114, -7.65159776e-04, -1.23174266e-03,  2.10011163e-03
    4115, -7.99237631e-04, -1.24739353e-03,  2.16506353e-03
    4116, -2.33668977e-04, -9.87645902e-04,  2.34237014e-03
    4117, -2.51308972e-04, -9.95747388e-04,  2.41481457e-03
    4118,  3.36690902e-04, -7.25697818e-04,  2.42500000e-03
    4119,  3.36690902e-04, -7.25697818e-04,  2.50000000e-03
    4120,  9.07050781e-04, -4.63749733e-04,  2.34237014e-03
    4121,  9.24690776e-04, -4.55648247e-04,  2.41481457e-03
    4122,  1.43854158e-03, -2.19652977e-04,  2.10011163e-03
    4123,  1.47261943e-03, -2.04002106e-04,  2.16506353e-03
    4124,  1.89494310e-03, -1.00423293e-05,  1.71473400e-03
    4125,  1.94313646e-03,  1.20913413e-05,  1.76776700e-03
    4126,  1.90334752e-03, -2.84638349e-02,  1.21250002e-03
    4127,  1.96221394e-03, -2.84363851e-02,  1.25000002e-03
    4128,  2.12290830e-03, -2.83614521e-02,  6.27636193e-04
    4129,  2.18856525e-03, -2.83308357e-02,  6.47047620e-04
    4130,  2.19779638e-03, -2.83265312e-02,  9.25185854e-20
    4131,  2.26576947e-03, -2.82948348e-02,  2.22044605e-19
    4132,  2.12290830e-03, -2.83614521e-02, -6.27636193e-04
    4133,  2.18856525e-03, -2.83308357e-02, -6.47047620e-04
    4134,  1.90334752e-03, -2.84638349e-02, -1.21250002e-03
    4135,  1.96221394e-03, -2.84363851e-02, -1.25000002e-03
    4136,  1.55407678e-03, -2.86267026e-02, -1.71473400e-03
    4137,  1.60214100e-03, -2.86042898e-02, -1.76776700e-03
    4138,  7.73201081e-04, -2.58661277e-02,  1.21250002e-03
    4139,  8.34054581e-04, -2.58434208e-02,  1.25000002e-03
    4140,  1.00017332e-03, -2.57814354e-02,  6.27636193e-04
    4141,  1.06804658e-03, -2.57561092e-02,  6.47047620e-04
    4142,  1.07758932e-03, -2.57525484e-02,  9.25185854e-20
    4143,  1.14785689e-03, -2.57263288e-02,  2.22044605e-19
    4144,  1.00017332e-03, -2.57814354e-02, -6.27636193e-04
    4145,  1.06804658e-03, -2.57561092e-02, -6.47047620e-04
    4146,  7.73201081e-04, -2.58661277e-02, -1.21250002e-03
    4147,  8.34054581e-04, -2.58434208e-02, -1.25000002e-03
    4148,  4.12140396e-04, -2.60008537e-02, -1.71473400e-03
    4149,  4.61827067e-04, -2.59823136e-02, -1.76776700e-03
    4150,  1.10175260e-04, -2.33968930e-02,  1.21250002e-03
    4151,  1.74414182e-04, -2.33872956e-02,  1.25000002e-03
    4152,  3.49774497e-04, -2.33610965e-02,  6.27636193e-04
    4153,  4.21423705e-04, -2.33503919e-02,  6.47047620e-04
    4154,  4.31497329e-04, -2.33488869e-02,  9.25185854e-20
    4155,  5.05674054e-04, -2.33378048e-02,  2.22044605e-19
    4156,  3.49774497e-04, -2.33610965e-02, -6.27636193e-04
    4157,  4.21423705e-04, -2.33503919e-02, -6.47047620e-04
    4158,  1.10175260e-04, -2.33968930e-02, -1.21250002e-03
    4159,  1.74414182e-04, -2.33872956e-02, -1.25000002e-03
    4160, -2.70972079e-04, -2.34538370e-02, -1.71473400e-03
    4161, -2.18521222e-04, -2.34460008e-02, -1.76776700e-03
    4162,  6.71008191e-05, -2.09560469e-02,  1.21250002e-03
    4163,  1.31628426e-04, -2.09634588e-02,  1.25000002e-03
    4164,  3.07776794e-04, -2.09836921e-02,  6.27636193e-04
    4165,  3.79747986e-04, -2.09919590e-02,  6.47047620e-04
    4166,  3.89866881e-04, -2.09931213e-02,  9.25185854e-20
    4167,  4.64376949e-04, -2.10016799e-02,  2.22044605e-19
    4168,  3.07776794e-04, -2.09836921e-02, -6.27636193e-04
    4169,  3.79747986e-04, -2.09919590e-02, -6.47047620e-04
    4170,  6.71008191e-05, -2.09560469e-02, -1.21250002e-03
    4171,  1.31628426e-04, -2.09634588e-02, -1.25000002e-03
    4172, -3.15759361e-04, -2.09120698e-02, -1.71473400e-03
    4173, -2.63072795e-04, -2.09181216e-02, -1.76776700e-03
    4174,  6.52765076e-04, -1.84944507e-02,  1.21250002e-03
    4175,  7.14095252e-04, -1.85158367e-02,  1.25000002e-03
    4176,  8.81515227e-04, -1.85742164e-02,  6.27636193e-04
    4177,  9.49920148e-04, -1.85980693e-02,  6.47047620e-04
    4178,  9.59537637e-04, -1.86014229e-02,  9.25185854e-20
    4179,  1.03035563e-03, -1.86261173e-02,  2.22044605e-19
    4180,  8.81515227e-04, -1.85742164e-02, -6.27636193e-04
    4181,  9.49920148e-04, -1.85980693e-02, -6.47047620e-04
    4182,  6.52765076e-04, -1.84944507e-02, -1.21250002e-03
    4183,  7.14095252e-04, -1.85158367e-02, -1.25000002e-03
    4184,  2.88876143e-04, -1.83675620e-02, -1.71473400e-03
    4185,  3.38952018e-04, -1.83850235e-02, -1.76776700e-03
    4186,  1.73576252e-03, -1.59230761e-02,  1.21250002e-03
    4187,  1.79466873e-03, -1.59504404e-02,  1.25000002e-03
    4188,  1.95547172e-03, -1.60251400e-02,  6.27636193e-04
    4189,  2.02117306e-03, -1.60556610e-02,  6.47047620e-04
    4190,  2.03041043e-03, -1.60599522e-02,  9.25185854e-20
    4191,  2.09842947e-03, -1.60915498e-02,  2.22044605e-19
    4192,  1.95547172e-03, -1.60251400e-02, -6.27636193e-04
    4193,  2.02117306e-03, -1.60556610e-02, -6.47047620e-04
    4194,  1.73576252e-03, -1.59230761e-02, -1.21250002e-03
    4195,  1.79466873e-03, -1.59504404e-02, -1.25000002e-03
    4196,  1.38625566e-03, -1.57607158e-02, -1.71473400e-03
    4197,  1.43435237e-03, -1.57830587e-02, -1.76776700e-03
    4198,  3.00398922e-03, -1.30699024e-02,  1.21250002e-03
    4199,  3.06439451e-03, -1.30937760e-02,  1.25000002e-03
    4200,  3.22928971e-03, -1.31589466e-02,  6.27636193e-04
    4201,  3.29666305e-03, -1.31855742e-02,  6.47047620e-04
    4202,  3.30613551e-03, -1.31893179e-02,  9.25185854e-20
    4203,  3.37588553e-03, -1.32168848e-02,  2.22044605e-19
    4204,  3.22928971e-03, -1.31589466e-02, -6.27636193e-04
    4205,  3.29666305e-03, -1.31855742e-02, -6.47047620e-04
    4206,  3.00398922e-03, -1.30699024e-02, -1.21250002e-03
    4207,  3.06439451e-03, -1.30937760e-02, -1.25000002e-03
    4208,  2.64558790e-03, -1.29282535e-02, -1.71473400e-03
    4209,  2.69490860e-03, -1.29477462e-02, -1.76776700e-03
    4210,  3.96694147e-03, -9.80465933e-03,  1.21250002e-03
    4211,  4.03082930e-03, -9.81636808e-03,  1.25000002e-03
    4212,  4.20523118e-03, -9.84833079e-03,  6.27636193e-04
    4213,  4.27648878e-03, -9.86139021e-03,  6.47047620e-04
    4214,  4.28650735e-03, -9.86322632e-03,  9.25185854e-20
    4215,  4.36027866e-03, -9.87674642e-03,  2.22044605e-19
    4216,  4.20523118e-03, -9.84833079e-03, -6.27636193e-04
    4217,  4.27648878e-03, -9.86139021e-03, -6.47047620e-04
    4218,  3.96694147e-03, -9.80465933e-03, -1.21250002e-03
    4219,  4.03082930e-03, -9.81636808e-03, -1.25000002e-03
    4220,  3.58787730e-03, -9.73518807e-03, -1.71473400e-03
    4221,  3.64004148e-03, -9.74474822e-03, -1.76776700e-03
    4222,  4.15150751e-03, -6.27168073e-03,  1.21250002e-03
    4223,  4.21625343e-03, -6.26651206e-03,  1.25000002e-03
    4224,  4.39299775e-03, -6.25240255e-03,  6.27636193e-04
    4225,  4.46521244e-03, -6.24663765e-03,  6.47047620e-04
    4226,  4.47536557e-03, -6.24582713e-03,  9.25185854e-20
    4227,  4.55012772e-03, -6.23985886e-03,  2.22044605e-19
    4228,  4.39299775e-03, -6.25240255e-03, -6.27636193e-04
    4229,  4.46521244e-03, -6.24663765e-03, -6.47047620e-04
    4230,  4.15150751e-03, -6.27168073e-03, -1.21250002e-03
    4231,  4.21625343e-03, -6.26651206e-03, -1.25000002e-03
    4232,  3.76735202e-03, -6.30234787e-03, -1.71473400e-03
    4233,  3.82021684e-03, -6.29812767e-03, -1.76776700e-03
    4234,  3.45643592e-03, -2.86250444e-03,  1.21250002e-03
    4235,  3.51825873e-03, -2.84258738e-03,  1.25000002e-03
    4236,  3.68702351e-03, -2.78821751e-03,  6.27636193e-04
    4237,  3.75597789e-03, -2.76600291e-03,  6.47047620e-04
    4238,  3.76567263e-03, -2.76287962e-03,  9.25185854e-20
    4239,  3.83705947e-03, -2.73988138e-03,  2.22044605e-19
    4240,  3.68702351e-03, -2.78821751e-03, -6.27636193e-04
    4241,  3.75597789e-03, -2.76600291e-03, -6.47047620e-04
    4242,  3.45643592e-03, -2.86250444e-03, -1.21250002e-03
    4243,  3.51825873e-03, -2.84258738e-03, -1.25000002e-03
    4244,  3.08962406e-03, -2.98067789e-03, -1.71473400e-03
    4245,  3.14010217e-03, -2.96441568e-03, -1.76776700e-03
    4246,  2.24515225e-03,  1.50797554e-04,  1.21250002e-03
    4247,  2.30417682e-03,  1.77905655e-04,  1.25000002e-03
    4248,  2.46530293e-03,  2.51905733e-04,  6.27636193e-04
    4249,  2.53113628e-03,  2.82140891e-04,  6.47047620e-04
    4250,  2.54039222e-03,  2.86391847e-04,  9.25185854e-20
    4251,  2.60854793e-03,  3.17693589e-04,  2.22044605e-19
    4252,  2.46530293e-03,  2.51905733e-04, -6.27636193e-04
    4253,  2.53113628e-03,  2.82140891e-04, -6.47047620e-04
    4254,  2.24515225e-03,  1.50797554e-04, -1.21250002e-03
    4255,  2.30417682e-03,  1.77905655e-04, -1.25000002e-03
    4256,  1.89494310e-03, -1.00423293e-05, -1.71473400e-03
    4257,  1.94313646e-03,  1.20913413e-05, -1.76776700e-03
    4258,  1.09889821e-03, -2.88389558e-02, -2.10011163e-03
    4259,  1.13288475e-03, -2.88231076e-02, -2.16506353e-03
    4260,  5.68831569e-04, -2.90861299e-02, -2.34237014e-03
    4261,  5.86424297e-04, -2.90779263e-02, -2.41481457e-03
    4262,  6.18799325e-18, -2.93513805e-02, -2.42500000e-03
    4263,  6.30538369e-18, -2.93513805e-02, -2.50000000e-03
    4264, -5.68831569e-04, -2.96166310e-02, -2.34237014e-03
    4265, -5.86424297e-04, -2.96248346e-02, -2.41481457e-03
    4266, -1.09889821e-03, -2.98638051e-02, -2.10011163e-03
    4267, -1.13288475e-03, -2.98796533e-02, -2.16506353e-03
    4268, -1.55407678e-03, -3.00760584e-02, -1.71473400e-03
    4269, -1.60214100e-03, -3.00984711e-02, -1.76776700e-03
    4270, -5.84031197e-05, -2.61764320e-02, -2.10011163e-03
    4271, -2.32693323e-05, -2.61633222e-02, -2.16506353e-03
    4272, -6.06362621e-04, -2.63808974e-02, -2.34237014e-03
    4273, -5.88176036e-04, -2.63741112e-02, -2.41481457e-03
    4274, -1.19439560e-03, -2.66003157e-02, -2.42500000e-03
    4275, -1.19439560e-03, -2.66003157e-02, -2.50000000e-03
    4276, -1.78242857e-03, -2.68197340e-02, -2.34237014e-03
    4277, -1.80061515e-03, -2.68265201e-02, -2.41481457e-03
    4278, -2.33038807e-03, -2.70241993e-02, -2.10011163e-03
    4279, -2.36552186e-03, -2.70373091e-02, -2.16506353e-03
    4280, -2.80093159e-03, -2.71997777e-02, -1.71473400e-03
    4281, -2.85061826e-03, -2.72183177e-02, -1.76776700e-03
    4282, -7.67693035e-04, -2.35280479e-02, -2.10011163e-03
    4283, -7.30604673e-04, -2.35225068e-02, -2.16506353e-03
    4284, -1.34613681e-03, -2.36144683e-02, -2.34237014e-03
    4285, -1.32693846e-03, -2.36116001e-02, -2.41481457e-03
    4286, -1.96688344e-03, -2.37072089e-02, -2.42500000e-03
    4287, -1.96688344e-03, -2.37072089e-02, -2.50000000e-03
    4288, -2.58763007e-03, -2.37999494e-02, -2.34237014e-03
    4289, -2.60682842e-03, -2.38028177e-02, -2.41481457e-03
    4290, -3.16607384e-03, -2.38863699e-02, -2.10011163e-03
    4291, -3.20316220e-03, -2.38919109e-02, -2.16506353e-03
    4292, -3.66279480e-03, -2.39605808e-02, -1.71473400e-03
    4293, -3.71524566e-03, -2.39684170e-02, -1.76776700e-03
    4294, -8.14712536e-04, -2.08547578e-02, -2.10011163e-03
    4295, -7.77457502e-04, -2.08590370e-02, -2.16506353e-03
    4296, -1.39575579e-03, -2.07880165e-02, -2.34237014e-03
    4297, -1.37647116e-03, -2.07902316e-02, -2.41481457e-03
    4298, -2.01929199e-03, -2.07163942e-02, -2.42500000e-03
    4299, -2.01929199e-03, -2.07163942e-02, -2.50000000e-03
    4300, -2.64282820e-03, -2.06447720e-02, -2.34237014e-03
    4301, -2.66211282e-03, -2.06425568e-02, -2.41481457e-03
    4302, -3.22387145e-03, -2.05780307e-02, -2.10011163e-03
    4303, -3.26112648e-03, -2.05737514e-02, -2.16506353e-03
    4304, -3.72282463e-03, -2.05207186e-02, -1.71473400e-03
    4305, -3.77551119e-03, -2.05146668e-02, -1.76776700e-03
    4306, -1.85353218e-04, -1.82021973e-02, -2.10011163e-03
    4307, -1.49944221e-04, -1.82145445e-02, -2.16506353e-03
    4308, -7.37604976e-04, -1.80096260e-02, -2.34237014e-03
    4309, -7.19275933e-04, -1.80160174e-02, -2.41481457e-03
    4310, -1.33024411e-03, -1.78029716e-02, -2.42500000e-03
    4311, -1.33024411e-03, -1.78029716e-02, -2.50000000e-03
    4312, -1.92288324e-03, -1.75963172e-02, -2.34237014e-03
    4313, -1.94121229e-03, -1.75899258e-02, -2.41481457e-03
    4314, -2.47513500e-03, -1.74037460e-02, -2.10011163e-03
    4315, -2.51054400e-03, -1.73913988e-02, -2.16506353e-03
    4316, -2.94936436e-03, -1.72383813e-02, -1.71473400e-03
    4317, -2.99944024e-03, -1.72209197e-02, -1.76776700e-03
    4318,  9.30769382e-04, -1.55491237e-02, -2.10011163e-03
    4319,  9.64778899e-04, -1.55649225e-02, -2.16506353e-03
    4320,  4.00344405e-04, -1.53027194e-02, -2.34237014e-03
    4321,  4.17949026e-04, -1.53108975e-02, -2.41481457e-03
    4322, -1.68871705e-04, -1.50382951e-02, -2.42500000e-03
    4323, -1.68871705e-04, -1.50382951e-02, -2.50000000e-03
    4324, -7.38087816e-04, -1.47738708e-02, -2.34237014e-03
    4325, -7.55692437e-04, -1.47656928e-02, -2.41481457e-03
    4326, -1.26851279e-03, -1.45274666e-02, -2.10011163e-03
    4327, -1.30252231e-03, -1.45116678e-02, -2.16506353e-03
    4328, -1.72399907e-03, -1.43158745e-02, -1.71473400e-03
    4329, -1.77209578e-03, -1.42935316e-02, -1.76776700e-03
    4330,  2.17851013e-03, -1.27436530e-02, -2.10011163e-03
    4331,  2.21338514e-03, -1.27574365e-02, -2.16506353e-03
    4332,  1.63458658e-03, -1.25286812e-02, -2.34237014e-03
    4333,  1.65263921e-03, -1.25358161e-02, -2.41481457e-03
    4334,  1.05088472e-03, -1.22979881e-02, -2.42500000e-03
    4335,  1.05088472e-03, -1.22979881e-02, -2.50000000e-03
    4336,  4.67182851e-04, -1.20672950e-02, -2.34237014e-03
    4337,  4.49130218e-04, -1.20601601e-02, -2.41481457e-03
    4338, -7.67406990e-05, -1.18523232e-02, -2.10011163e-03
    4339, -1.11615711e-04, -1.18385398e-02, -2.16506353e-03
    4340, -5.43818464e-04, -1.16677227e-02, -1.71473400e-03
    4341, -5.93139172e-04, -1.16482300e-02, -1.76776700e-03
    4342,  3.09387118e-03, -9.64465134e-03, -2.10011163e-03
    4343,  3.13075683e-03, -9.65141139e-03, -2.16506353e-03
    4344,  2.51858889e-03, -9.53921910e-03, -2.34237014e-03
    4345,  2.53768231e-03, -9.54271836e-03, -2.41481457e-03
    4346,  1.90123496e-03, -9.42607636e-03, -2.42500000e-03
    4347,  1.90123496e-03, -9.42607636e-03, -2.50000000e-03
    4348,  1.28388103e-03, -9.31293363e-03, -2.34237014e-03
    4349,  1.26478761e-03, -9.30943437e-03, -2.41481457e-03
    4350,  7.08598749e-04, -9.20750138e-03, -2.10011163e-03
    4351,  6.71713094e-04, -9.20074133e-03, -2.16506353e-03
    4352,  2.14592627e-04, -9.11696465e-03, -1.71473400e-03
    4353,  1.62428442e-04, -9.10740450e-03, -1.76776700e-03
    4354,  3.26671077e-03, -6.34231408e-03, -2.10011163e-03
    4355,  3.30409185e-03, -6.33932995e-03, -2.16506353e-03
    4356,  2.68370172e-03, -6.38885572e-03, -2.34237014e-03
    4357,  2.70305159e-03, -6.38731102e-03, -2.41481457e-03
    4358,  2.05805594e-03, -6.43880105e-03, -2.42500000e-03
    4359,  2.05805594e-03, -6.43880105e-03, -2.50000000e-03
    4360,  1.43241016e-03, -6.48874637e-03, -2.34237014e-03
    4361,  1.41306030e-03, -6.49029107e-03, -2.41481457e-03
    4362,  8.49401110e-04, -6.53528801e-03, -2.10011163e-03
    4363,  8.12020033e-04, -6.53827214e-03, -2.16506353e-03
    4364,  3.48759859e-04, -6.57525422e-03, -1.71473400e-03
    4365,  2.95895042e-04, -6.57947442e-03, -1.76776700e-03
    4366,  2.61158545e-03, -3.13468455e-03, -2.10011163e-03
    4367,  2.64727887e-03, -3.12318543e-03, -2.16506353e-03
    4368,  2.05489774e-03, -3.31402909e-03, -2.34237014e-03
    4369,  2.07337401e-03, -3.30807671e-03, -2.41481457e-03
    4370,  1.45749824e-03, -3.50648949e-03, -2.42500000e-03
    4371,  1.45749824e-03, -3.50648949e-03, -2.50000000e-03
    4372,  8.60098737e-04, -3.69894989e-03, -2.34237014e-03
    4373,  8.41622465e-04, -3.70490228e-03, -2.41481457e-03
    4374,  3.03411022e-04, -3.87829444e-03, -2.10011163e-03
    4375,  2.67717603e-04, -3.88979356e-03, -2.16506353e-03
    4376, -1.74627582e-04, -4.03230109e-03, -1.71473400e-03
    4377, -2.25105690e-04, -4.04856331e-03, -1.76776700e-03
    4378,  1.43854158e-03, -2.19652977e-04, -2.10011163e-03
    4379,  1.47261943e-03, -2.04002106e-04, -2.16506353e-03
    4380,  9.07050781e-04, -4.63749733e-04, -2.34237014e-03
    4381,  9.24690776e-04, -4.55648247e-04, -2.41481457e-03
    4382,  3.36690902e-04, -7.25697818e-04, -2.42500000e-03
    4383,  3.36690902e-04, -7.25697818e-04, -2.50000000e-03
    4384, -2.33668977e-04, -9.87645902e-04, -2.34237014e-03
    4385, -2.51308972e-04, -9.95747388e-04, -2.41481457e-03
    4386, -7.65159776e-04, -1.23174266e-03, -2.10011163e-03
    4387, -7.99237631e-04, -1.24739353e-03, -2.16506353e-03
    4388, -1.22156129e-03, -1.44135331e-03, -1.71473400e-03
    4389, -1.26975465e-03, -1.46348698e-03, -1.76776700e-03
    4390, -1.90334752e-03, -3.02389260e-02, -1.21250002e-03
    4391, -1.96221394e-03, -3.02663758e-02, -1.25000002e-03
    4392, -2.12290830e-03, -3.03413089e-02, -6.27636193e-04
    4393, -2.18856525e-03, -3.03719252e-02, -6.47047620e-04
    4394, -2.19779638e-03, -3.03762297e-02, -9.25185854e-20
    4395, -2.26576947e-03, -3.04079261e-02, -2.22044605e-19
    4396, -2.12290830e-03, -3.03413089e-02,  6.27636193e-04
    4397, -2.18856525e-03, -3.03719252e-02,  6.47047620e-04
    4398, -1.90334752e-03, -3.02389260e-02,  1.21250002e-03
    4399, -1.96221394e-03, -3.02663758e-02,  1.25000002e-03
    4400, -3.16199227e-03, -2.73345037e-02, -1.21250002e-03
    4401, -3.22284577e-03, -2.73572105e-02, -1.25000002e-03
    4402, -3.38896451e-03, -2.74191960e-02, -6.27636193e-04
    4403, -3.45683777e-03, -2.74445222e-02, -6.47047620e-04
    4404, -3.46638051e-03, -2.74480829e-02, -9.25185854e-20
    4405, -3.53664808e-03, -2.74743025e-02, -2.22044605e-19
    4406, -3.38896451e-03, -2.74191960e-02,  6.27636193e-04
    4407, -3.45683777e-03, -2.74445222e-02,  6.47047620e-04
    4408, -3.16199227e-03, -2.73345037e-02,  1.21250002e-03
    4409, -3.22284577e-03, -2.73572105e-02,  1.25000002e-03
    4410, -4.04394214e-03, -2.40175248e-02, -1.21250002e-03
    4411, -4.10818106e-03, -2.40271222e-02, -1.25000002e-03
    4412, -4.28354137e-03, -2.40533213e-02, -6.27636193e-04
    4413, -4.35519058e-03, -2.40640258e-02, -6.47047620e-04
    4414, -4.36526421e-03, -2.40655309e-02, -9.25185854e-20
    4415, -4.43944093e-03, -2.40766130e-02, -2.22044605e-19
    4416, -4.28354137e-03, -2.40533213e-02,  6.27636193e-04
    4417, -4.35519058e-03, -2.40640258e-02,  6.47047620e-04
    4418, -4.04394214e-03, -2.40175248e-02,  1.21250002e-03
    4419, -4.10818106e-03, -2.40271222e-02,  1.25000002e-03
    4420, -4.10568481e-03, -2.04767415e-02, -1.21250002e-03
    4421, -4.17021241e-03, -2.04693296e-02, -1.25000002e-03
    4422, -4.34636078e-03, -2.04490964e-02, -6.27636193e-04
    4423, -4.41833197e-03, -2.04408294e-02, -6.47047620e-04
    4424, -4.42845087e-03, -2.04396671e-02, -9.25185854e-20
    4425, -4.50296094e-03, -2.04311086e-02, -2.22044605e-19
    4426, -4.34636078e-03, -2.04490964e-02,  6.27636193e-04
    4427, -4.41833197e-03, -2.04408294e-02,  6.47047620e-04
    4428, -4.10568481e-03, -2.04767415e-02,  1.21250002e-03
    4429, -4.17021241e-03, -2.04693296e-02,  1.25000002e-03
    4430, -3.31325330e-03, -1.71114925e-02, -1.21250002e-03
    4431, -3.37458347e-03, -1.70901065e-02, -1.25000002e-03
    4432, -3.54200345e-03, -1.70317269e-02, -6.27636193e-04
    4433, -3.61040837e-03, -1.70078739e-02, -6.47047620e-04
    4434, -3.62002586e-03, -1.70045203e-02, -9.25185854e-20
    4435, -3.69084385e-03, -1.69798259e-02, -2.22044605e-19
    4436, -3.54200345e-03, -1.70317269e-02,  6.27636193e-04
    4437, -3.61040837e-03, -1.70078739e-02,  6.47047620e-04
    4438, -3.31325330e-03, -1.71114925e-02,  1.21250002e-03
    4439, -3.37458347e-03, -1.70901065e-02,  1.25000002e-03
    4440, -2.07350593e-03, -1.41535142e-02, -1.21250002e-03
    4441, -2.13241214e-03, -1.41261498e-02, -1.25000002e-03
    4442, -2.29321513e-03, -1.40514502e-02, -6.27636193e-04
    4443, -2.35891647e-03, -1.40209293e-02, -6.47047620e-04
    4444, -2.36815384e-03, -1.40166381e-02, -9.25185854e-20
    4445, -2.43617288e-03, -1.39850405e-02, -2.22044605e-19
    4446, -2.29321513e-03, -1.40514502e-02,  6.27636193e-04
    4447, -2.35891647e-03, -1.40209293e-02,  6.47047620e-04
    4448, -2.07350593e-03, -1.41535142e-02,  1.21250002e-03
    4449, -2.13241214e-03, -1.41261498e-02,  1.25000002e-03
    4450, -9.02219786e-04, -1.15260739e-02, -1.21250002e-03
    4451, -9.62625074e-04, -1.15022002e-02, -1.25000002e-03
    4452, -1.12752028e-03, -1.14370296e-02, -6.27636193e-04
    4453, -1.19489362e-03, -1.14104021e-02, -6.47047620e-04
    4454, -1.20436608e-03, -1.14066583e-02, -9.25185854e-20
    4455, -1.27411610e-03, -1.13790914e-02, -2.22044605e-19
    4456, -1.12752028e-03, -1.14370296e-02,  6.27636193e-04
    4457, -1.19489362e-03, -1.14104021e-02,  6.47047620e-04
    4458, -9.02219786e-04, -1.15260739e-02,  1.21250002e-03
    4459, -9.62625074e-04, -1.15022002e-02,  1.25000002e-03
    4460, -1.64471546e-04, -9.04749339e-03, -1.21250002e-03
    4461, -2.28359370e-04, -9.03578464e-03, -1.25000002e-03
    4462, -4.02761251e-04, -9.00382193e-03, -6.27636193e-04
    4463, -4.74018858e-04, -8.99076251e-03, -6.47047620e-04
    4464, -4.84037425e-04, -8.98892641e-03, -9.25185854e-20
    4465, -5.57808736e-04, -8.97540631e-03, -2.22044605e-19
    4466, -4.02761251e-04, -9.00382193e-03,  6.27636193e-04
    4467, -4.74018858e-04, -8.99076251e-03,  6.47047620e-04
    4468, -1.64471546e-04, -9.04749339e-03,  1.21250002e-03
    4469, -2.28359370e-04, -9.03578464e-03,  1.25000002e-03
    4470, -3.53956272e-05, -6.60592137e-03, -1.21250002e-03
    4471, -1.00141546e-04, -6.61109004e-03, -1.25000002e-03
    4472, -2.76885865e-04, -6.62519954e-03, -6.27636193e-04
    4473, -3.49100553e-04, -6.63096444e-03, -6.47047620e-04
    4474, -3.59253682e-04, -6.63177497e-03, -9.25185854e-20
    4475, -4.34015836e-04, -6.63774323e-03, -2.22044605e-19
    4476, -2.76885865e-04, -6.62519954e-03,  6.27636193e-04
    4477, -3.49100553e-04, -6.63096444e-03,  6.47047620e-04
    4478, -3.53956272e-05, -6.60592137e-03,  1.21250002e-03
    4479, -1.00141546e-04, -6.61109004e-03,  1.25000002e-03
    4480, -5.41439449e-04, -4.15047454e-03, -1.21250002e-03
    4481, -6.03262258e-04, -4.17039160e-03, -1.25000002e-03
    4482, -7.72027032e-04, -4.22476148e-03, -6.27636193e-04
    4483, -8.40981415e-04, -4.24697607e-03, -6.47047620e-04
    4484, -8.50676157e-04, -4.25009937e-03, -9.25185854e-20
    4485, -9.22062994e-04, -4.27309761e-03, -2.22044605e-19
    4486, -7.72027032e-04, -4.22476148e-03,  6.27636193e-04
    4487, -8.40981415e-04, -4.24697607e-03,  6.47047620e-04
    4488, -5.41439449e-04, -4.15047454e-03,  1.21250002e-03
    4489, -6.03262258e-04, -4.17039160e-03,  1.25000002e-03
    4490, -1.57177045e-03, -1.60219319e-03, -1.21250002e-03
    4491, -1.63079502e-03, -1.62930129e-03, -1.25000002e-03
    4492, -1.79192113e-03, -1.70330137e-03, -6.27636193e-04
    4493, -1.85775448e-03, -1.73353653e-03, -6.47047620e-04
    4494, -1.86701042e-03, -1.73778748e-03, -9.25185854e-20
    4495, -1.93516613e-03, -1.76908922e-03, -2.22044605e-19
    4496, -1.79192113e-03, -1.70330137e-03,  6.27636193e-04
    4497, -1.85775448e-03, -1.73353653e-03,  6.47047620e-04
    4498, -1.57177045e-03, -1.60219319e-03,  1.21250002e-03
    4499, -1.63079502e-03, -1.62930129e-03,  1.25000002e-03
    4500,  8.91414209e-04, -1.37892134e-04,  7.50000000e-04
    4501,  8.91414209e-04, -1.37892134e-04,  5.00000000e-04
    4502,  8.91414209e-04, -1.37892134e-04,  2.50000000e-04
    4503,  8.91414209e-04, -1.37892134e-04,  0.00000000e+00
    4504,  8.91414209e-04, -1.37892134e-04, -2.50000000e-04
    4505,  8.91414209e-04, -1.37892134e-04, -5.00000000e-04
    4506,  8.91414209e-04, -1.37892134e-04, -7.50000000e-04
    4507,  6.64598235e-04, -2.43032583e-04,  7.50000000e-04
    4508,  6.64598235e-04, -2.43032583e-04,  5.00000000e-04
    4509,  6.64598235e-04, -2.43032583e-04,  2.50000000e-04
    4510,  6.64598235e-04, -2.43032583e-04,  0.00000000e+00
    4511,  6.64598235e-04, -2.43032583e-04, -2.50000000e-04
    4512,  6.64598235e-04, -2.43032583e-04, -5.00000000e-04
    4513,  6.64598235e-04, -2.43032583e-04, -7.50000000e-04
    4514,  4.37782261e-04, -3.48173031e-04,  7.50000000e-04
    4515,  4.37782261e-04, -3.48173031e-04,  5.00000000e-04
    4516,  4.37782261e-04, -3.48173031e-04,  2.50000000e-04
    4517,  4.37782261e-04, -3.48173031e-04,  0.00000000e+00
    4518,  4.37782261e-04, -3.48173031e-04, -2.50000000e-04
    4519,  4.37782261e-04, -3.48173031e-04, -5.00000000e-04
    4520,  4.37782261e-04, -3.48173031e-04, -7.50000000e-04
    4521,  2.10966287e-04, -4.53313480e-04,  7.50000000e-04
    4522,  2.10966287e-04, -4.53313480e-04,  5.00000000e-04
    4523,  2.10966287e-04, -4.53313480e-04,  2.50000000e-04
    4524,  2.10966287e-04, -4.53313480e-04,  0.00000000e+00
    4525,  2.10966287e-04, -4.53313480e-04, -2.50000000e-04
    4526,  2.10966287e-04, -4.53313480e-04, -5.00000000e-04
    4527,  2.10966287e-04, -4.53313480e-04, -7.50000000e-04
    4528, -1.58496868e-05, -5.58453929e-04,  7.50000000e-04
    4529, -1.58496868e-05, -5.58453929e-04,  5.00000000e-04
    4530, -1.58496868e-05, -5.58453929e-04,  2.50000000e-04
    4531, -1.58496868e-05, -5.58453929e-04,  0.00000000e+00
    4532, -1.58496868e-05, -5.58453929e-04, -2.50000000e-04
    4533, -1.58496868e-05, -5.58453929e-04, -5.00000000e-04
    4534, -1.58496868e-05, -5.58453929e-04, -7.50000000e-04
    4535, -2.42665661e-04, -6.63594378e-04,  7.50000000e-04
    4536, -2.42665661e-04, -6.63594378e-04,  5.00000000e-04
    4537, -2.42665661e-04, -6.63594378e-04,  2.50000000e-04
    4538, -2.42665661e-04, -6.63594378e-04,  0.00000000e+00
    4539, -2.42665661e-04, -6.63594378e-04, -2.50000000e-04
    4540, -2.42665661e-04, -6.63594378e-04, -5.00000000e-04
    4541, -2.42665661e-04, -6.63594378e-04, -7.50000000e-04
    4542, -4.69481635e-04, -7.68734826e-04,  7.50000000e-04
    4543, -4.69481635e-04, -7.68734826e-04,  5.00000000e-04
    4544, -4.69481635e-04, -7.68734826e-04,  2.50000000e-04
    4545, -4.69481635e-04, -7.68734826e-04,  0.00000000e+00
    4546, -4.69481635e-04, -7.68734826e-04, -2.50000000e-04
    4547, -4.69481635e-04, -7.68734826e-04, -5.00000000e-04
    4548, -4.69481635e-04, -7.68734826e-04, -7.50000000e-04
    4549, -5.16456735e-04, -7.90510114e-04,  8.01776667e-04
    4550, -5.63431835e-04, -8.12285402e-04,  8.53553333e-04
    4551, -6.10406936e-04, -8.34060690e-04,  9.05330000e-04
    4552, -6.57382036e-04, -8.55835978e-04,  9.57106667e-04
    4553, -7.04357133e-04, -8.77611264e-04,  1.00888333e-03
    4554, -7.51332236e-04, -8.99386554e-04,  1.06066000e-03
    4555, -2.80468312e-04, -6.81117780e-04,  8.41506337e-04
    4556, -3.18270962e-04, -6.98641183e-04,  9.33012674e-04
    4557, -3.56073613e-04, -7.16164586e-04,  1.02451901e-03
    4558, -3.93876264e-04, -7.33687989e-04,  1.11602535e-03
    4559, -4.31678915e-04, -7.51211392e-04,  1.20753168e-03
    4560, -4.69481566e-04, -7.68734794e-04,  1.29903802e-03
    4561, -3.67513141e-05, -5.68142869e-04,  8.66481453e-04
    4562, -5.76529423e-05, -5.77831810e-04,  9.82962906e-04
    4563, -7.85545696e-05, -5.87520751e-04,  1.09944436e-03
    4564, -9.94561969e-05, -5.97209691e-04,  1.21592581e-03
    4565, -1.20357824e-04, -6.06898632e-04,  1.33240726e-03
    4566, -1.41259452e-04, -6.16587573e-04,  1.44888872e-03
    4567,  2.10966287e-04, -4.53313480e-04,  8.75000000e-04
    4568,  2.10966287e-04, -4.53313480e-04,  1.00000000e-03
    4569,  2.10966287e-04, -4.53313480e-04,  1.12500000e-03
    4570,  2.10966287e-04, -4.53313480e-04,  1.25000000e-03
    4571,  2.10966287e-04, -4.53313480e-04,  1.37500000e-03
    4572,  2.10966287e-04, -4.53313480e-04,  1.50000000e-03
    4573,  4.58683888e-04, -3.38484091e-04,  8.66481453e-04
    4574,  4.79585516e-04, -3.28795150e-04,  9.82962906e-04
    4575,  5.00487144e-04, -3.19106210e-04,  1.09944436e-03
    4576,  5.21388771e-04, -3.09417269e-04,  1.21592581e-03
    4577,  5.42290398e-04, -2.99728329e-04,  1.33240726e-03
    4578,  5.63192026e-04, -2.90039388e-04,  1.44888872e-03
    4579,  7.02400886e-04, -2.25509180e-04,  8.41506337e-04
    4580,  7.40203537e-04, -2.07985777e-04,  9.33012674e-04
    4581,  7.78006187e-04, -1.90462374e-04,  1.02451901e-03
    4582,  8.15808838e-04, -1.72938972e-04,  1.11602535e-03
    4583,  8.53611489e-04, -1.55415569e-04,  1.20753168e-03
    4584,  8.91414140e-04, -1.37892166e-04,  1.29903802e-03
    4585,  9.38389309e-04, -1.16116846e-04,  8.01776667e-04
    4586,  9.85364409e-04, -9.43415584e-05,  8.53553333e-04
    4587,  1.03233951e-03, -7.25662704e-05,  9.05330000e-04
    4588,  1.07931461e-03, -5.07909824e-05,  9.57106667e-04
    4589,  1.12628971e-03, -2.90156961e-05,  1.00888333e-03
    4590,  1.17326481e-03, -7.24040680e-06,  1.06066000e-03
    4591,  9.74434605e-04, -9.94080647e-05,  5.41666654e-04
    4592,  1.05745500e-03, -6.09239953e-05,  5.83333308e-04
    4593,  1.14047540e-03, -2.24399264e-05,  6.24999962e-04
    4594,  1.22349579e-03,  1.60441442e-05,  6.66666616e-04
    4595,  1.30651618e-03,  5.45282106e-05,  7.08333270e-04
    4596,  1.38953658e-03,  9.30122812e-05,  7.49999924e-04
    4597,  9.97093626e-04, -8.89044851e-05,  2.73038090e-04
    4598,  1.10277304e-03, -3.99168361e-05,  2.96076181e-04
    4599,  1.20845246e-03,  9.07081325e-06,  3.19114271e-04
    4600,  1.31413187e-03,  5.80584609e-05,  3.42152361e-04
    4601,  1.41981129e-03,  1.07046109e-04,  3.65190451e-04
    4602,  1.52549071e-03,  1.56033761e-04,  3.88228542e-04
    4603,  1.00482220e-03, -8.53219096e-05,  1.85037171e-20
    4604,  1.11823018e-03, -3.27516853e-05,  3.70074342e-20
    4605,  1.23163817e-03,  1.98185391e-05,  5.55111512e-20
    4606,  1.34504616e-03,  7.23887634e-05,  7.40148683e-20
    4607,  1.45845414e-03,  1.24958988e-04,  9.71445147e-20
    4608,  1.57186213e-03,  1.77529212e-04,  1.11022303e-19
    4609,  9.97093626e-04, -8.89044851e-05, -2.73038090e-04
    4610,  1.10277304e-03, -3.99168361e-05, -2.96076181e-04
    4611,  1.20845246e-03,  9.07081325e-06, -3.19114271e-04
    4612,  1.31413187e-03,  5.80584609e-05, -3.42152361e-04
    4613,  1.41981129e-03,  1.07046109e-04, -3.65190451e-04
    4614,  1.52549071e-03,  1.56033761e-04, -3.88228542e-04
    4615,  9.74434605e-04, -9.94080647e-05, -5.41666654e-04
    4616,  1.05745500e-03, -6.09239953e-05, -5.83333308e-04
    4617,  1.14047540e-03, -2.24399264e-05, -6.24999962e-04
    4618,  1.22349579e-03,  1.60441442e-05, -6.66666616e-04
    4619,  1.30651618e-03,  5.45282106e-05, -7.08333270e-04
    4620,  1.38953658e-03,  9.30122812e-05, -7.49999924e-04
    4621,  9.38389309e-04, -1.16116846e-04, -8.01776667e-04
    4622,  9.85364409e-04, -9.43415584e-05, -8.53553333e-04
    4623,  1.03233951e-03, -7.25662704e-05, -9.05330000e-04
    4624,  1.07931461e-03, -5.07909824e-05, -9.57106667e-04
    4625,  1.12628971e-03, -2.90156961e-05, -1.00888333e-03
    4626,  1.17326481e-03, -7.24040680e-06, -1.06066000e-03
    4627,  7.02400886e-04, -2.25509180e-04, -8.41506337e-04
    4628,  7.40203537e-04, -2.07985777e-04, -9.33012674e-04
    4629,  7.78006187e-04, -1.90462374e-04, -1.02451901e-03
    4630,  8.15808838e-04, -1.72938972e-04, -1.11602535e-03
    4631,  8.53611489e-04, -1.55415569e-04, -1.20753168e-03
    4632,  8.91414140e-04, -1.37892166e-04, -1.29903802e-03
    4633,  4.58683888e-04, -3.38484091e-04, -8.66481453e-04
    4634,  4.79585516e-04, -3.28795150e-04, -9.82962906e-04
    4635,  5.00487144e-04, -3.19106210e-04, -1.09944436e-03
    4636,  5.21388771e-04, -3.09417269e-04, -1.21592581e-03
    4637,  5.42290398e-04, -2.99728329e-04, -1.33240726e-03
    4638,  5.63192026e-04, -2.90039388e-04, -1.44888872e-03
    4639,  2.10966287e-04, -4.53313480e-04, -8.75000000e-04
    4640,  2.10966287e-04, -4.53313480e-04, -1.00000000e-03
    4641,  2.10966287e-04, -4.53313480e-04, -1.12500000e-03
    4642,  2.10966287e-04, -4.53313480e-04, -1.25000000e-03
    4643,  2.10966287e-04, -4.53313480e-04, -1.37500000e-03
    4644,  2.10966287e-04, -4.53313480e-04, -1.50000000e-03
    4645, -3.67513141e-05, -5.68142869e-04, -8.66481453e-04
    4646, -5.76529423e-05, -5.77831810e-04, -9.82962906e-04
    4647, -7.85545696e-05, -5.87520751e-04, -1.09944436e-03
    4648, -9.94561969e-05, -5.97209691e-04, -1.21592581e-03
    4649, -1.20357824e-04, -6.06898632e-04, -1.33240726e-03
    4650, -1.41259452e-04, -6.16587573e-04, -1.44888872e-03
    4651, -2.80468312e-04, -6.81117780e-04, -8.41506337e-04
    4652, -3.18270962e-04, -6.98641183e-04, -9.33012674e-04
    4653, -3.56073613e-04, -7.16164586e-04, -1.02451901e-03
    4654, -3.93876264e-04, -7.33687989e-04, -1.11602535e-03
    4655, -4.31678915e-04, -7.51211392e-04, -1.20753168e-03
    4656, -4.69481566e-04, -7.68734794e-04, -1.29903802e-03
    4657, -5.16456735e-04, -7.90510114e-04, -8.01776667e-04
    4658, -5.63431835e-04, -8.12285402e-04, -8.53553333e-04
    4659, -6.10406936e-04, -8.34060690e-04, -9.05330000e-04
    4660, -6.57382036e-04, -8.55835978e-04, -9.57106667e-04
    4661, -7.04357133e-04, -8.77611264e-04, -1.00888333e-03
    4662, -7.51332236e-04, -8.99386554e-04, -1.06066000e-03
    4663, -5.52502030e-04, -8.07218896e-04, -5.41666654e-04
    4664, -6.35522426e-04, -8.45702965e-04, -5.83333308e-04
    4665, -7.18542821e-04, -8.84187034e-04, -6.24999962e-04
    4666, -8.01563220e-04, -9.22671105e-04, -6.66666616e-04
    4667, -8.84583609e-04, -9.61155171e-04, -7.08333270e-04
    4668, -9.67604008e-04, -9.99639241e-04, -7.49999924e-04
    4669, -5.75161051e-04, -8.17722475e-04, -2.73038090e-04
    4670, -6.80840468e-04, -8.66710124e-04, -2.96076181e-04
    4671, -7.86519886e-04, -9.15697774e-04, -3.19114271e-04
    4672, -8.92199300e-04, -9.64685421e-04, -3.42152361e-04
    4673, -9.97878714e-04, -1.01367307e-03, -3.65190451e-04
    4674, -1.10355814e-03, -1.06266072e-03, -3.88228542e-04
    4675, -5.82889622e-04, -8.21305051e-04, -1.85037171e-20
    4676, -6.96297609e-04, -8.73875275e-04, -3.70074342e-20
    4677, -8.09705596e-04, -9.26445499e-04, -5.55111512e-20
    4678, -9.23113582e-04, -9.79015724e-04, -7.40148683e-20
    4679, -1.03652157e-03, -1.03158595e-03, -9.71445147e-20
    4680, -1.14992956e-03, -1.08415617e-03, -1.11022303e-19
    4681, -5.75161051e-04, -8.17722475e-04,  2.73038090e-04
    4682, -6.80840468e-04, -8.66710124e-04,  2.96076181e-04
    4683, -7.86519886e-04, -9.15697774e-04,  3.19114271e-04
    4684, -8.92199300e-04, -9.64685421e-04,  3.42152361e-04
    4685, -9.97878714e-04, -1.01367307e-03,  3.65190451e-04
    4686, -1.10355814e-03, -1.06266072e-03,  3.88228542e-04
    4687, -5.52502030e-04, -8.07218896e-04,  5.41666654e-04
    4688, -6.35522426e-04, -8.45702965e-04,  5.83333308e-04
    4689, -7.18542821e-04, -8.84187034e-04,  6.24999962e-04
    4690, -8.01563220e-04, -9.22671105e-04,  6.66666616e-04
    4691, -8.84583609e-04, -9.61155171e-04,  7.08333270e-04
    4692, -9.67604008e-04, -9.99639241e-04,  7.49999924e-04
    4693, -7.83409459e-04, -9.14255936e-04,  1.09601600e-03
    4694, -4.92163429e-04, -7.79248962e-04,  1.34233962e-03
    4695, -1.53000402e-04, -6.22030085e-04,  1.49718509e-03
    4696,  2.10966287e-04, -4.53313480e-04,  1.55000000e-03
    4697,  5.74932976e-04, -2.84596876e-04,  1.49718509e-03
    4698,  9.14096003e-04, -1.27377998e-04,  1.34233962e-03
    4699,  1.20534203e-03,  7.62897602e-06,  1.09601600e-03
    4700,  1.42882256e-03,  1.11223280e-04,  7.75000217e-04
    4701,  1.56930826e-03,  1.76345369e-04,  4.01169594e-04
    4702,  1.61722533e-03,  1.98557302e-04,  0.00000000e+00
    4703,  1.56930826e-03,  1.76345369e-04, -4.01169594e-04
    4704,  1.42882256e-03,  1.11223280e-04, -7.75000217e-04
    4705,  1.20534203e-03,  7.62897602e-06, -1.09601600e-03
    4706,  9.14096003e-04, -1.27377998e-04, -1.34233962e-03
    4707,  5.74932976e-04, -2.84596876e-04, -1.49718509e-03
    4708,  2.10966287e-04, -4.53313480e-04, -1.55000000e-03
    4709, -1.53000402e-04, -6.22030085e-04, -1.49718509e-03
    4710, -4.92163429e-04, -7.79248962e-04, -1.34233962e-03
    4711, -7.83409459e-04, -9.14255936e-04, -1.09601600e-03
    4712, -1.00688999e-03, -1.01785024e-03, -7.75000217e-04
    4713, -1.14737569e-03, -1.08297233e-03, -4.01169594e-04
    4714, -1.19529275e-03, -1.10518426e-03,  0.00000000e+00
    4715, -1.14737569e-03, -1.08297233e-03,  4.01169594e-04
    4716, -1.00688999e-03, -1.01785024e-03,  7.75000217e-04
    4717, -8.79639311e-04, -9.58863244e-04,  1.20208200e-03
    4718, -9.75869163e-04, -1.00347055e-03,  1.30814800e-03
    4719, -1.07209902e-03, -1.04807786e-03,  1.41421400e-03
    4720, -5.60208214e-04, -8.10791094e-04,  1.47224342e-03
    4721, -6.28252999e-04, -8.42333225e-04,  1.60214722e-03
    4722, -6.96297781e-04, -8.73875355e-04,  1.73205102e-03
    4723, -1.88222975e-04, -6.38357494e-04,  1.64207397e-03
    4724, -2.23445549e-04, -6.54684903e-04,  1.78696284e-03
    4725, -2.58668123e-04, -6.71012312e-04,  1.93185171e-03
    4726,  2.10966287e-04, -4.53313480e-04,  1.70000000e-03
    4727,  2.10966287e-04, -4.53313480e-04,  1.85000000e-03
    4728,  2.10966287e-04, -4.53313480e-04,  2.00000000e-03
    4729,  6.10155549e-04, -2.68269466e-04,  1.64207397e-03
    4730,  6.45378123e-04, -2.51942057e-04,  1.78696284e-03
    4731,  6.80600697e-04, -2.35614648e-04,  1.93185171e-03
    4732,  9.82140788e-04, -9.58358666e-05,  1.47224342e-03
    4733,  1.05018557e-03, -6.42937354e-05,  1.60214722e-03
    4734,  1.11823036e-03, -3.27516054e-05,  1.73205102e-03
    4735,  1.30157189e-03,  5.22362834e-05,  1.20208200e-03
    4736,  1.39780174e-03,  9.68435907e-05,  1.30814800e-03
    4737,  1.49403159e-03,  1.41450898e-04,  1.41421400e-03
    4738,  1.54667959e-03,  1.65855855e-04,  8.50000209e-04
    4739,  1.66453662e-03,  2.20488430e-04,  9.25000201e-04
    4740,  1.78239364e-03,  2.75121006e-04,  1.00000019e-03
    4741,  1.70076071e-03,  2.37280096e-04,  4.39992448e-04
    4742,  1.83221315e-03,  2.98214819e-04,  4.78815302e-04
    4743,  1.96366560e-03,  3.59149542e-04,  5.17638156e-04
    4744,  1.75331491e-03,  2.61641571e-04,  9.25185854e-20
    4745,  1.88940449e-03,  3.24725840e-04,  1.38777878e-19
    4746,  2.02549408e-03,  3.87810110e-04,  2.22044605e-19
    4747,  1.70076071e-03,  2.37280096e-04, -4.39992448e-04
    4748,  1.83221315e-03,  2.98214819e-04, -4.78815302e-04
    4749,  1.96366560e-03,  3.59149542e-04, -5.17638156e-04
    4750,  1.54667959e-03,  1.65855855e-04, -8.50000209e-04
    4751,  1.66453662e-03,  2.20488430e-04, -9.25000201e-04
    4752,  1.78239364e-03,  2.75121006e-04, -1.00000019e-03
    4753,  1.30157189e-03,  5.22362834e-05, -1.20208200e-03
    4754,  1.39780174e-03,  9.68435907e-05, -1.30814800e-03
    4755,  1.49403159e-03,  1.41450898e-04, -1.41421400e-03
    4756,  9.82140788e-04, -9.58358666e-05, -1.47224342e-03
    4757,  1.05018557e-03, -6.42937354e-05, -1.60214722e-03
    4758,  1.11823036e-03, -3.27516054e-05, -1.73205102e-03
    4759,  6.10155549e-04, -2.68269466e-04, -1.64207397e-03
    4760,  6.45378123e-04, -2.51942057e-04, -1.78696284e-03
    4761,  6.80600697e-04, -2.35614648e-04, -1.93185171e-03
    4762,  2.10966287e-04, -4.53313480e-04, -1.70000000e-03
    4763,  2.10966287e-04, -4.53313480e-04, -1.85000000e-03
    4764,  2.10966287e-04, -4.53313480e-04, -2.00000000e-03
    4765, -1.88222975e-04, -6.38357494e-04, -1.64207397e-03
    4766, -2.23445549e-04, -6.54684903e-04, -1.78696284e-03
    4767, -2.58668123e-04, -6.71012312e-04, -1.93185171e-03
    4768, -5.60208214e-04, -8.10791094e-04, -1.47224342e-03
    4769, -6.28252999e-04, -8.42333225e-04, -1.60214722e-03
    4770, -6.96297781e-04, -8.73875355e-04, -1.73205102e-03
    4771, -8.79639311e-04, -9.58863244e-04, -1.20208200e-03
    4772, -9.75869163e-04, -1.00347055e-03, -1.30814800e-03
    4773, -1.07209902e-03, -1.04807786e-03, -1.41421400e-03
    4774, -1.12474701e-03, -1.07248282e-03, -8.50000209e-04
    4775, -1.24260404e-03, -1.12711539e-03, -9.25000201e-04
    4776, -1.36046107e-03, -1.18174797e-03, -1.00000019e-03
    4777, -1.27882814e-03, -1.14390706e-03, -4.39992448e-04
    4778, -1.41028058e-03, -1.20484178e-03, -4.78815302e-04
    4779, -1.54173302e-03, -1.26577650e-03, -5.17638156e-04
    4780, -1.33138234e-03, -1.16826853e-03, -9.25185854e-20
    4781, -1.46747192e-03, -1.23135280e-03, -1.38777878e-19
    4782, -1.60356150e-03, -1.29443707e-03, -2.22044605e-19
    4783, -1.27882814e-03, -1.14390706e-03,  4.39992448e-04
    4784, -1.41028058e-03, -1.20484178e-03,  4.78815302e-04
    4785, -1.54173302e-03, -1.26577650e-03,  5.17638156e-04
    4786, -1.12474701e-03, -1.07248282e-03,  8.50000209e-04
    4787, -1.24260404e-03, -1.12711539e-03,  9.25000201e-04
    4788, -1.36046107e-03, -1.18174797e-03,  1.00000019e-03
    4789, -1.14694436e-03, -1.08277239e-03,  1.49670967e-03
    4790, -1.22178969e-03, -1.11746691e-03,  1.57920533e-03
    4791, -1.29663504e-03, -1.15216144e-03,  1.66170100e-03
    4792, -7.49221460e-04, -8.98408104e-04,  1.83308726e-03
    4793, -8.02145139e-04, -9.22940853e-04,  1.93412349e-03
    4794, -8.55068818e-04, -9.47473602e-04,  2.03515973e-03
    4795, -2.86063443e-04, -6.83711401e-04,  2.04454304e-03
    4796, -3.13458763e-04, -6.96410490e-04,  2.15723437e-03
    4797, -3.40854084e-04, -7.09109579e-04,  2.26992570e-03
    4798,  2.10966287e-04, -4.53313480e-04,  2.11666667e-03
    4799,  2.10966287e-04, -4.53313480e-04,  2.23333333e-03
    4800,  2.10966287e-04, -4.53313480e-04,  2.35000000e-03
    4801,  7.07996018e-04, -2.22915559e-04,  2.04454304e-03
    4802,  7.35391337e-04, -2.10216470e-04,  2.15723437e-03
    4803,  7.62786658e-04, -1.97517381e-04,  2.26992570e-03
    4804,  1.17115403e-03, -8.21885643e-06,  1.83308726e-03
    4805,  1.22407771e-03,  1.63138925e-05,  1.93412349e-03
    4806,  1.27700139e-03,  4.08466414e-05,  2.03515973e-03
    4807,  1.56887693e-03,  1.76145425e-04,  1.49670967e-03
    4808,  1.64372227e-03,  2.10839948e-04,  1.57920533e-03
    4809,  1.71856761e-03,  2.45534475e-04,  1.66170100e-03
    4810,  1.87406018e-03,  3.17612988e-04,  1.05833347e-03
    4811,  1.96572670e-03,  3.60104966e-04,  1.11666675e-03
    4812,  2.05739323e-03,  4.02596949e-04,  1.17500003e-03
    4813,  2.06590637e-03,  4.06543210e-04,  5.47833693e-04
    4814,  2.16814715e-03,  4.53936878e-04,  5.78029229e-04
    4815,  2.27038792e-03,  5.01330546e-04,  6.08224766e-04
    4816,  2.13134154e-03,  4.36875654e-04,  1.48029737e-19
    4817,  2.23718898e-03,  4.85941194e-04,  6.47630098e-20
    4818,  2.34303644e-03,  5.35006738e-04,  0.00000000e+00
    4819,  2.06590637e-03,  4.06543210e-04, -5.47833693e-04
    4820,  2.16814715e-03,  4.53936878e-04, -5.78029229e-04
    4821,  2.27038792e-03,  5.01330546e-04, -6.08224766e-04
    4822,  1.87406018e-03,  3.17612988e-04, -1.05833347e-03
    4823,  1.96572670e-03,  3.60104966e-04, -1.11666675e-03
    4824,  2.05739323e-03,  4.02596949e-04, -1.17500003e-03
    4825,  1.56887693e-03,  1.76145425e-04, -1.49670967e-03
    4826,  1.64372227e-03,  2.10839948e-04, -1.57920533e-03
    4827,  1.71856761e-03,  2.45534475e-04, -1.66170100e-03
    4828,  1.17115403e-03, -8.21885643e-06, -1.83308726e-03
    4829,  1.22407771e-03,  1.63138925e-05, -1.93412349e-03
    4830,  1.27700139e-03,  4.08466414e-05, -2.03515973e-03
    4831,  7.07996018e-04, -2.22915559e-04, -2.04454304e-03
    4832,  7.35391337e-04, -2.10216470e-04, -2.15723437e-03
    4833,  7.62786658e-04, -1.97517381e-04, -2.26992570e-03
    4834,  2.10966287e-04, -4.53313480e-04, -2.11666667e-03
    4835,  2.10966287e-04, -4.53313480e-04, -2.23333333e-03
    4836,  2.10966287e-04, -4.53313480e-04, -2.35000000e-03
    4837, -2.86063443e-04, -6.83711401e-04, -2.04454304e-03
    4838, -3.13458763e-04, -6.96410490e-04, -2.15723437e-03
    4839, -3.40854084e-04, -7.09109579e-04, -2.26992570e-03
    4840, -7.49221460e-04, -8.98408104e-04, -1.83308726e-03
    4841, -8.02145139e-04, -9.22940853e-04, -1.93412349e-03
    4842, -8.55068818e-04, -9.47473602e-04, -2.03515973e-03
    4843, -1.14694436e-03, -1.08277239e-03, -1.49670967e-03
    4844, -1.22178969e-03, -1.11746691e-03, -1.57920533e-03
    4845, -1.29663504e-03, -1.15216144e-03, -1.66170100e-03
    4846, -1.45212760e-03, -1.22423995e-03, -1.05833347e-03
    4847, -1.54379413e-03, -1.26673193e-03, -1.11666675e-03
    4848, -1.63546066e-03, -1.30922391e-03, -1.17500003e-03
    4849, -1.64397380e-03, -1.31317017e-03, -5.47833693e-04
    4850, -1.74621457e-03, -1.36056384e-03, -5.78029229e-04
    4851, -1.84845535e-03, -1.40795751e-03, -6.08224766e-04
    4852, -1.70940896e-03, -1.34350261e-03, -1.48029737e-19
    4853, -1.81525641e-03, -1.39256815e-03, -6.47630098e-20
    4854, -1.92110387e-03, -1.44163370e-03,  0.00000000e+00
    4855, -1.64397380e-03, -1.31317017e-03,  5.47833693e-04
    4856, -1.74621457e-03, -1.36056384e-03,  5.78029229e-04
    4857, -1.84845535e-03, -1.40795751e-03,  6.08224766e-04
    4858, -1.45212760e-03, -1.22423995e-03,  1.05833347e-03
    4859, -1.54379413e-03, -1.26673193e-03,  1.11666675e-03
    4860, -1.63546066e-03, -1.30922391e-03,  1.17500003e-03
    4861, -1.34474996e-03, -1.17446509e-03,  1.71473400e-03
    4862, -1.39286489e-03, -1.19676874e-03,  1.76776700e-03
    4863, -8.89091205e-04, -9.63244665e-04,  2.10011163e-03
    4864, -9.23113601e-04, -9.79015732e-04,  2.16506353e-03
    4865, -3.58465370e-04, -7.17273284e-04,  2.34237014e-03
    4866, -3.76076657e-04, -7.25436989e-04,  2.41481457e-03
    4867,  2.10966287e-04, -4.53313480e-04,  2.42500000e-03
    4868,  2.10966287e-04, -4.53313480e-04,  2.50000000e-03
    4869,  7.80397945e-04, -1.89353676e-04,  2.34237014e-03
    4870,  7.98009231e-04, -1.81189972e-04,  2.41481457e-03
    4871,  1.31102378e-03,  5.66177045e-05,  2.10011163e-03
    4872,  1.34504617e-03,  7.23887719e-05,  2.16506353e-03
    4873,  1.76668254e-03,  2.67838129e-04,  1.71473400e-03
    4874,  1.81479746e-03,  2.90141782e-04,  1.76776700e-03
    4875,  2.11632175e-03,  4.29913236e-04,  1.21250002e-03
    4876,  2.17525026e-03,  4.57229524e-04,  1.25000002e-03
    4877,  2.33611415e-03,  5.31797910e-04,  6.27636193e-04
    4878,  2.40184036e-03,  5.62265270e-04,  6.47047620e-04
    4879,  2.41108123e-03,  5.66548872e-04,  9.25185854e-20
    4880,  2.47912603e-03,  5.98091007e-04,  2.22044605e-19
    4881,  2.33611415e-03,  5.31797910e-04, -6.27636193e-04
    4882,  2.40184036e-03,  5.62265270e-04, -6.47047620e-04
    4883,  2.11632175e-03,  4.29913236e-04, -1.21250002e-03
    4884,  2.17525026e-03,  4.57229524e-04, -1.25000002e-03
    4885,  1.76668254e-03,  2.67838129e-04, -1.71473400e-03
    4886,  1.81479746e-03,  2.90141782e-04, -1.76776700e-03
    4887,  1.31102378e-03,  5.66177045e-05, -2.10011163e-03
    4888,  1.34504617e-03,  7.23887719e-05, -2.16506353e-03
    4889,  7.80397945e-04, -1.89353676e-04, -2.34237014e-03
    4890,  7.98009231e-04, -1.81189972e-04, -2.41481457e-03
    4891,  2.10966287e-04, -4.53313480e-04, -2.42500000e-03
    4892,  2.10966287e-04, -4.53313480e-04, -2.50000000e-03
    4893, -3.58465370e-04, -7.17273284e-04, -2.34237014e-03
    4894, -3.76076657e-04, -7.25436989e-04, -2.41481457e-03
    4895, -8.89091205e-04, -9.63244665e-04, -2.10011163e-03
    4896, -9.23113601e-04, -9.79015732e-04, -2.16506353e-03
    4897, -1.34474996e-03, -1.17446509e-03, -1.71473400e-03
    4898, -1.39286489e-03, -1.19676874e-03, -1.76776700e-03
    4899, -1.69438917e-03, -1.33654020e-03, -1.21250002e-03
    4900, -1.75331769e-03, -1.36385648e-03, -1.25000002e-03
    4901, -1.91418157e-03, -1.43842487e-03, -6.27636193e-04
    4902, -1.97990779e-03, -1.46889223e-03, -6.47047620e-04
    4903, -1.98914866e-03, -1.47317583e-03, -9.25185854e-20
    4904, -2.05719345e-03, -1.50471797e-03, -2.22044605e-19
    4905, -1.91418157e-03, -1.43842487e-03,  6.27636193e-04
    4906, -1.97990779e-03, -1.46889223e-03,  6.47047620e-04
    4907, -1.69438917e-03, -1.33654020e-03,  1.21250002e-03
    4908, -1.75331769e-03, -1.36385648e-03,  1.25000002e-03
    4909,  6.79730840e-04,  3.16963696e-04,  7.50000000e-04
    4910,  6.79730840e-04,  3.16963696e-04,  5.00000000e-04
    4911,  6.79730840e-04,  3.16963696e-04,  2.50000000e-04
    4912,  6.79730840e-04,  3.16963696e-04,  0.00000000e+00
    4913,  6.79730840e-04,  3.16963696e-04, -2.50000000e-04
    4914,  6.79730840e-04,  3.16963696e-04, -5.00000000e-04
    4915,  6.79730840e-04,  3.16963696e-04, -7.50000000e-04
    4916,  4.53153894e-04,  2.11309131e-04,  7.50000000e-04
    4917,  4.53153894e-04,  2.11309131e-04,  5.00000000e-04
    4918,  4.53153894e-04,  2.11309131e-04,  2.50000000e-04
    4919,  4.53153894e-04,  2.11309131e-04,  0.00000000e+00
    4920,  4.53153894e-04,  2.11309131e-04, -2.50000000e-04
    4921,  4.53153894e-04,  2.11309131e-04, -5.00000000e-04
    4922,  4.53153894e-04,  2.11309131e-04, -7.50000000e-04
    4923,  2.26576947e-04,  1.05654565e-04,  7.50000000e-04
    4924,  2.26576947e-04,  1.05654565e-04,  5.00000000e-04
    4925,  2.26576947e-04,  1.05654565e-04,  2.50000000e-04
    4926,  2.26576947e-04,  1.05654565e-04,  0.00000000e+00
    4927,  2.26576947e-04,  1.05654565e-04, -2.50000000e-04
    4928,  2.26576947e-04,  1.05654565e-04, -5.00000000e-04
    4929,  2.26576947e-04,  1.05654565e-04, -7.50000000e-04
    4930,  0.00000000e+00,  0.00000000e+00,  7.50000000e-04
    4931,  0.00000000e+00,  0.00000000e+00,  5.00000000e-04
    4932,  0.00000000e+00,  0.00000000e+00,  2.50000000e-04
    4933,  0.00000000e+00,  0.00000000e+00,  0.00000000e+00
    4934,  0.00000000e+00,  0.00000000e+00, -2.50000000e-04
    4935,  4.19251572e-21,  1.95500219e-21, -5.00000000e-04
    4936,  0.00000000e+00,  0.00000000e+00, -7.50000000e-04
    4937, -2.26576947e-04, -1.05654565e-04,  7.50000000e-04
    4938, -2.26576947e-04, -1.05654565e-04,  5.00000000e-04
    4939, -2.26576947e-04, -1.05654565e-04,  2.50000000e-04
    4940, -2.26576947e-04, -1.05654565e-04,  0.00000000e+00
    4941, -2.26576947e-04, -1.05654565e-04, -2.50000000e-04
    4942, -2.26576947e-04, -1.05654565e-04, -5.00000000e-04
    4943, -2.26576947e-04, -1.05654565e-04, -7.50000000e-04
    4944, -4.53153894e-04, -2.11309131e-04,  7.50000000e-04
    4945, -4.53153894e-04, -2.11309131e-04,  5.00000000e-04
    4946, -4.53153894e-04, -2.11309131e-04,  2.50000000e-04
    4947, -4.53153894e-04, -2.11309131e-04,  0.00000000e+00
    4948, -4.53153894e-04, -2.11309131e-04, -2.50000000e-04
    4949, -4.53153894e-04, -2.11309131e-04, -5.00000000e-04
    4950, -4.53153894e-04, -2.11309131e-04, -7.50000000e-04
    4951, -6.79730840e-04, -3.16963696e-04,  7.50000000e-04
    4952, -6.79730840e-04, -3.16963696e-04,  5.00000000e-04
    4953, -6.79730840e-04, -3.16963696e-04,  2.50000000e-04
    4954, -6.79730840e-04, -3.16963696e-04,  0.00000000e+00
    4955, -6.79730840e-04, -3.16963696e-04, -2.50000000e-04
    4956, -6.79730840e-04, -3.16963696e-04, -5.00000000e-04
    4957, -6.79730840e-04, -3.16963696e-04, -7.50000000e-04
    4958, -7.26656437e-04, -3.38845461e-04,  8.01776667e-04
    4959, -7.73582032e-04, -3.60727226e-04,  8.53553333e-04
    4960, -8.20507629e-04, -3.82608991e-04,  9.05330000e-04
    4961, -8.67433225e-04, -4.04490756e-04,  9.57106667e-04
    4962, -9.14358818e-04, -4.26372519e-04,  1.00888333e-03
    4963, -9.61284417e-04, -4.48254285e-04,  1.06066000e-03
    4964, -4.90916706e-04, -2.28918220e-04,  8.41506337e-04
    4965, -5.28679519e-04, -2.46527309e-04,  9.33012674e-04
    4966, -5.66442332e-04, -2.64136398e-04,  1.02451901e-03
    4967, -6.04205145e-04, -2.81745486e-04,  1.11602535e-03
    4968, -6.41967958e-04, -2.99354575e-04,  1.20753168e-03
    4969, -6.79730771e-04, -3.16963664e-04,  1.29903802e-03
    4970, -2.47456547e-04, -1.15390883e-04,  8.66481453e-04
    4971, -2.68336148e-04, -1.25127201e-04,  9.82962906e-04
    4972, -2.89215749e-04, -1.34863519e-04,  1.09944436e-03
    4973, -3.10095349e-04, -1.44599836e-04,  1.21592581e-03
    4974, -3.30974949e-04, -1.54336154e-04,  1.33240726e-03
    4975, -3.51854551e-04, -1.64072472e-04,  1.44888872e-03
    4976,  1.67700629e-20,  7.82000876e-21,  8.75000000e-04
    4977,  3.35401258e-20,  1.56400175e-20,  1.00000000e-03
    4978,  5.03101886e-20,  2.34600262e-20,  1.12500000e-03
    4979,  6.70802515e-20,  3.12800350e-20,  1.25000000e-03
    4980,  7.96577986e-20,  3.71450415e-20,  1.37500000e-03
    4981,  1.00620378e-19,  4.69200527e-20,  1.50000000e-03
    4982,  2.47456547e-04,  1.15390883e-04,  8.66481453e-04
    4983,  2.68336148e-04,  1.25127201e-04,  9.82962906e-04
    4984,  2.89215749e-04,  1.34863519e-04,  1.09944436e-03
    4985,  3.10095349e-04,  1.44599836e-04,  1.21592581e-03
    4986,  3.30974949e-04,  1.54336154e-04,  1.33240726e-03
    4987,  3.51854551e-04,  1.64072472e-04,  1.44888872e-03
    4988,  4.90916706e-04,  2.28918220e-04,  8.41506337e-04
    4989,  5.28679519e-04,  2.46527309e-04,  9.33012674e-04
    4990,  5.66442332e-04,  2.64136398e-04,  1.02451901e-03
    4991,  6.04205145e-04,  2.81745486e-04,  1.11602535e-03
    4992,  6.41967958e-04,  2.99354575e-04,  1.20753168e-03
    4993,  6.79730771e-04,  3.16963664e-04,  1.29903802e-03
    4994,  7.26656437e-04,  3.38845461e-04,  8.01776667e-04
    4995,  7.73582032e-04,  3.60727226e-04,  8.53553333e-04
    4996,  8.20507629e-04,  3.82608991e-04,  9.05330000e-04
    4997,  8.67433225e-04,  4.04490756e-04,  9.57106667e-04
    4998,  9.14358818e-04,  4.26372519e-04,  1.00888333e-03
    4999,  9.61284417e-04,  4.48254285e-04,  1.06066000e-03
    5000,  7.62663746e-04,  3.55635945e-04,  5.41666654e-04
    5001,  8.45596652e-04,  3.94308194e-04,  5.83333308e-04
    5002,  9.28529557e-04,  4.32980443e-04,  6.24999962e-04
    5003,  1.01146247e-03,  4.71652693e-04,  6.66666616e-04
    5004,  1.09439536e-03,  5.10324940e-04,  7.08333270e-04
    5005,  1.17732827e-03,  5.48997190e-04,  7.49999924e-04
    5006,  7.85298888e-04,  3.66190885e-04,  2.73038090e-04
    5007,  8.90866936e-04,  4.15418075e-04,  2.96076181e-04
    5008,  9.96434985e-04,  4.64645264e-04,  3.19114271e-04
    5009,  1.10200303e-03,  5.13872452e-04,  3.42152361e-04
    5010,  1.20757108e-03,  5.63099640e-04,  3.65190451e-04
    5011,  1.31313913e-03,  6.12326832e-04,  3.88228542e-04
    5012,  7.93019314e-04,  3.69790979e-04,  1.85037171e-20
    5013,  9.06307787e-04,  4.22618262e-04,  3.70074342e-20
    5014,  1.01959626e-03,  4.75445544e-04,  5.55111512e-20
    5015,  1.13288473e-03,  5.28272827e-04,  7.40148683e-20
    5016,  1.24617321e-03,  5.81100110e-04,  9.71445147e-20
    5017,  1.35946168e-03,  6.33927393e-04,  1.11022303e-19
    5018,  7.85298888e-04,  3.66190885e-04, -2.73038090e-04
    5019,  8.90866936e-04,  4.15418075e-04, -2.96076181e-04
    5020,  9.96434985e-04,  4.64645264e-04, -3.19114271e-04
    5021,  1.10200303e-03,  5.13872452e-04, -3.42152361e-04
    5022,  1.20757108e-03,  5.63099640e-04, -3.65190451e-04
    5023,  1.31313913e-03,  6.12326832e-04, -3.88228542e-04
    5024,  7.62663746e-04,  3.55635945e-04, -5.41666654e-04
    5025,  8.45596652e-04,  3.94308194e-04, -5.83333308e-04
    5026,  9.28529557e-04,  4.32980443e-04, -6.24999962e-04
    5027,  1.01146247e-03,  4.71652693e-04, -6.66666616e-04
    5028,  1.09439536e-03,  5.10324940e-04, -7.08333270e-04
    5029,  1.17732827e-03,  5.48997190e-04, -7.49999924e-04
    5030,  7.26656437e-04,  3.38845461e-04, -8.01776667e-04
    5031,  7.73582032e-04,  3.60727226e-04, -8.53553333e-04
    5032,  8.20507629e-04,  3.82608991e-04, -9.05330000e-04
    5033,  8.67433225e-04,  4.04490756e-04, -9.57106667e-04
    5034,  9.14358818e-04,  4.26372519e-04, -1.00888333e-03
    5035,  9.61284417e-04,  4.48254285e-04, -1.06066000e-03
    5036,  4.90916706e-04,  2.28918220e-04, -8.41506337e-04
    5037,  5.28679519e-04,  2.46527309e-04, -9.33012674e-04
    5038,  5.66442332e-04,  2.64136398e-04, -1.02451901e-03
    5039,  6.04205145e-04,  2.81745486e-04, -1.11602535e-03
    5040,  6.41967958e-04,  2.99354575e-04, -1.20753168e-03
    5041,  6.79730771e-04,  3.16963664e-04, -1.29903802e-03
    5042,  2.47456547e-04,  1.15390883e-04, -8.66481453e-04
    5043,  2.68336148e-04,  1.25127201e-04, -9.82962906e-04
    5044,  2.89215749e-04,  1.34863519e-04, -1.09944436e-03
    5045,  3.10095349e-04,  1.44599836e-04, -1.21592581e-03
    5046,  3.30974949e-04,  1.54336154e-04, -1.33240726e-03
    5047,  3.51854551e-04,  1.64072472e-04, -1.44888872e-03
    5048,  1.67700629e-20,  7.82000876e-21, -8.75000000e-04
    5049,  3.35401258e-20,  1.56400175e-20, -1.00000000e-03
    5050,  5.03101886e-20,  2.34600262e-20, -1.12500000e-03
    5051,  6.70802515e-20,  3.12800350e-20, -1.25000000e-03
    5052,  8.80428301e-20,  4.10550459e-20, -1.37500000e-03
    5053,  1.00620378e-19,  4.69200527e-20, -1.50000000e-03
    5054, -2.47456547e-04, -1.15390883e-04, -8.66481453e-04
    5055, -2.68336148e-04, -1.25127201e-04, -9.82962906e-04
    5056, -2.89215749e-04, -1.34863519e-04, -1.09944436e-03
    5057, -3.10095349e-04, -1.44599836e-04, -1.21592581e-03
    5058, -3.30974949e-04, -1.54336154e-04, -1.33240726e-03
    5059, -3.51854551e-04, -1.64072472e-04, -1.44888872e-03
    5060, -4.90916706e-04, -2.28918220e-04, -8.41506337e-04
    5061, -5.28679519e-04, -2.46527309e-04, -9.33012674e-04
    5062, -5.66442332e-04, -2.64136398e-04, -1.02451901e-03
    5063, -6.04205145e-04, -2.81745486e-04, -1.11602535e-03
    5064, -6.41967958e-04, -2.99354575e-04, -1.20753168e-03
    5065, -6.79730771e-04, -3.16963664e-04, -1.29903802e-03
    5066, -7.26656437e-04, -3.38845461e-04, -8.01776667e-04
    5067, -7.73582032e-04, -3.60727226e-04, -8.53553333e-04
    5068, -8.20507629e-04, -3.82608991e-04, -9.05330000e-04
    5069, -8.67433225e-04, -4.04490756e-04, -9.57106667e-04
    5070, -9.14358818e-04, -4.26372519e-04, -1.00888333e-03
    5071, -9.61284417e-04, -4.48254285e-04, -1.06066000e-03
    5072, -7.62663746e-04, -3.55635945e-04, -5.41666654e-04
    5073, -8.45596652e-04, -3.94308194e-04, -5.83333308e-04
    5074, -9.28529557e-04, -4.32980443e-04, -6.24999962e-04
    5075, -1.01146247e-03, -4.71652693e-04, -6.66666616e-04
    5076, -1.09439536e-03, -5.10324940e-04, -7.08333270e-04
    5077, -1.17732827e-03, -5.48997190e-04, -7.49999924e-04
    5078, -7.85298888e-04, -3.66190885e-04, -2.73038090e-04
    5079, -8.90866936e-04, -4.15418075e-04, -2.96076181e-04
    5080, -9.96434985e-04, -4.64645264e-04, -3.19114271e-04
    5081, -1.10200303e-03, -5.13872452e-04, -3.42152361e-04
    5082, -1.20757108e-03, -5.63099640e-04, -3.65190451e-04
    5083, -1.31313913e-03, -6.12326832e-04, -3.88228542e-04
    5084, -7.93019314e-04, -3.69790979e-04, -1.85037171e-20
    5085, -9.06307787e-04, -4.22618262e-04, -3.70074342e-20
    5086, -1.01959626e-03, -4.75445544e-04, -5.55111512e-20
    5087, -1.13288473e-03, -5.28272827e-04, -7.40148683e-20
    5088, -1.24617321e-03, -5.81100110e-04, -9.71445147e-20
    5089, -1.35946168e-03, -6.33927393e-04, -1.11022303e-19
    5090, -7.85298888e-04, -3.66190885e-04,  2.73038090e-04
    5091, -8.90866936e-04, -4.15418075e-04,  2.96076181e-04
    5092, -9.96434985e-04, -4.64645264e-04,  3.19114271e-04
    5093, -1.10200303e-03, -5.13872452e-04,  3.42152361e-04
    5094, -1.20757108e-03, -5.63099640e-04,  3.65190451e-04
    5095, -1.31313913e-03, -6.12326832e-04,  3.88228542e-04
    5096, -7.62663746e-04, -3.55635945e-04,  5.41666654e-04
    5097, -8.45596652e-04, -3.94308194e-04,  5.83333308e-04
    5098, -9.28529557e-04, -4.32980443e-04,  6.24999962e-04
    5099, -1.01146247e-03, -4.71652693e-04,  6.66666616e-04
    5100, -1.09439536e-03, -5.10324940e-04,  7.08333270e-04
    5101, -1.17732827e-03, -5.48997190e-04,  7.49999924e-04
    5102, -9.93327836e-04, -4.63196377e-04,  1.09601600e-03
    5103, -7.02388732e-04, -3.27529245e-04,  1.34233962e-03
    5104, -3.63583127e-04, -1.69541596e-04,  1.49718509e-03
    5105,  0.00000000e+00,  0.00000000e+00,  1.55000000e-03
    5106,  3.63583127e-04,  1.69541596e-04,  1.49718509e-03
    5107,  7.02388732e-04,  3.27529245e-04,  1.34233962e-03
    5108,  9.93327836e-04,  4.63196377e-04,  1.09601600e-03
    5109,  1.21657285e-03,  5.67297237e-04,  7.75000217e-04
    5110,  1.35691051e-03,  6.32737760e-04,  4.01169594e-04
    5111,  1.40477707e-03,  6.55058306e-04,  0.00000000e+00
    5112,  1.35691051e-03,  6.32737760e-04, -4.01169594e-04
    5113,  1.21657285e-03,  5.67297237e-04, -7.75000217e-04
    5114,  9.93327836e-04,  4.63196377e-04, -1.09601600e-03
    5115,  7.02388732e-04,  3.27529245e-04, -1.34233962e-03
    5116,  3.63583127e-04,  1.69541596e-04, -1.49718509e-03
    5117,  0.00000000e+00,  0.00000000e+00, -1.55000000e-03
    5118, -3.63583127e-04, -1.69541596e-04, -1.49718509e-03
    5119, -7.02388732e-04, -3.27529245e-04, -1.34233962e-03
    5120, -9.93327836e-04, -4.63196377e-04, -1.09601600e-03
    5121, -1.21657285e-03, -5.67297237e-04, -7.75000217e-04
    5122, -1.35691051e-03, -6.32737760e-04, -4.01169594e-04
    5123, -1.40477707e-03, -6.55058306e-04,  0.00000000e+00
    5124, -1.35691051e-03, -6.32737760e-04,  4.01169594e-04
    5125, -1.21657285e-03, -5.67297237e-04,  7.75000217e-04
    5126, -1.08945628e-03, -5.08021805e-04,  1.20208200e-03
    5127, -1.18558472e-03, -5.52847234e-04,  1.30814800e-03
    5128, -1.28171316e-03, -5.97672662e-04,  1.41421400e-03
    5129, -7.70361808e-04, -3.59225611e-04,  1.47224342e-03
    5130, -8.38334885e-04, -3.90921977e-04,  1.60214722e-03
    5131, -9.06307959e-04, -4.22618342e-04,  1.73205102e-03
    5132, -3.98768582e-04, -1.85948844e-04,  1.64207397e-03
    5133, -4.33954037e-04, -2.02356091e-04,  1.78696284e-03
    5134, -4.69139492e-04, -2.18763338e-04,  1.93185171e-03
    5135,  5.03101886e-20,  2.34600262e-20,  1.70000000e-03
    5136,  1.42545534e-19,  6.64700743e-20,  1.85000000e-03
    5137,  2.01240755e-19,  9.38401050e-20,  2.00000000e-03
    5138,  3.98768582e-04,  1.85948844e-04,  1.64207397e-03
    5139,  4.33954037e-04,  2.02356091e-04,  1.78696284e-03
    5140,  4.69139492e-04,  2.18763338e-04,  1.93185171e-03
    5141,  7.70361808e-04,  3.59225611e-04,  1.47224342e-03
    5142,  8.38334885e-04,  3.90921977e-04,  1.60214722e-03
    5143,  9.06307959e-04,  4.22618342e-04,  1.73205102e-03
    5144,  1.08945628e-03,  5.08021805e-04,  1.20208200e-03
    5145,  1.18558472e-03,  5.52847234e-04,  1.30814800e-03
    5146,  1.28171316e-03,  5.97672662e-04,  1.41421400e-03
    5147,  1.33430568e-03,  6.22196955e-04,  8.50000209e-04
    5148,  1.45203850e-03,  6.77096673e-04,  9.25000201e-04
    5149,  1.56977133e-03,  7.31996391e-04,  1.00000019e-03
    5150,  1.48822443e-03,  6.93970447e-04,  4.39992448e-04
    5151,  1.61953834e-03,  7.55203129e-04,  4.78815302e-04
    5152,  1.75085225e-03,  8.16435812e-04,  5.17638156e-04
    5153,  1.54072324e-03,  7.18451045e-04,  9.25185854e-20
    5154,  1.67666941e-03,  7.81843784e-04,  1.38777878e-19
    5155,  1.81261557e-03,  8.45236523e-04,  2.22044605e-19
    5156,  1.48822443e-03,  6.93970447e-04, -4.39992448e-04
    5157,  1.61953834e-03,  7.55203129e-04, -4.78815302e-04
    5158,  1.75085225e-03,  8.16435812e-04, -5.17638156e-04
    5159,  1.33430568e-03,  6.22196955e-04, -8.50000209e-04
    5160,  1.45203850e-03,  6.77096673e-04, -9.25000201e-04
    5161,  1.56977133e-03,  7.31996391e-04, -1.00000019e-03
    5162,  1.08945628e-03,  5.08021805e-04, -1.20208200e-03
    5163,  1.18558472e-03,  5.52847234e-04, -1.30814800e-03
    5164,  1.28171316e-03,  5.97672662e-04, -1.41421400e-03
    5165,  7.70361808e-04,  3.59225611e-04, -1.47224342e-03
    5166,  8.38334885e-04,  3.90921977e-04, -1.60214722e-03
    5167,  9.06307959e-04,  4.22618342e-04, -1.73205102e-03
    5168,  3.98768582e-04,  1.85948844e-04, -1.64207397e-03
    5169,  4.33954037e-04,  2.02356091e-04, -1.78696284e-03
    5170,  4.69139492e-04,  2.18763338e-04, -1.93185171e-03
    5171,  8.38503144e-20,  3.91000437e-20, -1.70000000e-03
    5172,  1.25775471e-19,  5.86500656e-20, -1.85000000e-03
    5173,  2.01240755e-19,  9.38401050e-20, -2.00000000e-03
    5174, -3.98768582e-04, -1.85948844e-04, -1.64207397e-03
    5175, -4.33954037e-04, -2.02356091e-04, -1.78696284e-03
    5176, -4.69139492e-04, -2.18763338e-04, -1.93185171e-03
    5177, -7.70361808e-04, -3.59225611e-04, -1.47224342e-03
    5178, -8.38334885e-04, -3.90921977e-04, -1.60214722e-03
    5179, -9.06307959e-04, -4.22618342e-04, -1.73205102e-03
    5180, -1.08945628e-03, -5.08021805e-04, -1.20208200e-03
    5181, -1.18558472e-03, -5.52847234e-04, -1.30814800e-03
    5182, -1.28171316e-03, -5.97672662e-04, -1.41421400e-03
    5183, -1.33430568e-03, -6.22196955e-04, -8.50000209e-04
    5184, -1.45203850e-03, -6.77096673e-04, -9.25000201e-04
    5185, -1.56977133e-03, -7.31996391e-04, -1.00000019e-03
    5186, -1.48822443e-03, -6.93970447e-04, -4.39992448e-04
    5187, -1.61953834e-03, -7.55203129e-04, -4.78815302e-04
    5188, -1.75085225e-03, -8.16435812e-04, -5.17638156e-04
    5189, -1.54072324e-03, -7.18451045e-04, -9.25185854e-20
    5190, -1.67666941e-03, -7.81843784e-04, -1.38777878e-19
    5191, -1.81261557e-03, -8.45236523e-04, -2.22044605e-19
    5192, -1.48822443e-03, -6.93970447e-04,  4.39992448e-04
    5193, -1.61953834e-03, -7.55203129e-04,  4.78815302e-04
    5194, -1.75085225e-03, -8.16435812e-04,  5.17638156e-04
    5195, -1.33430568e-03, -6.22196955e-04,  8.50000209e-04
    5196, -1.45203850e-03, -6.77096673e-04,  9.25000201e-04
    5197, -1.56977133e-03, -7.31996391e-04,  1.00000019e-03
    5198, -1.35647963e-03, -6.32536839e-04,  1.49670967e-03
    5199, -1.43124609e-03, -6.67401011e-04,  1.57920533e-03
    5200, -1.50601256e-03, -7.02265188e-04,  1.66170100e-03
    5201, -9.59175865e-04, -4.47271051e-04,  1.83308726e-03
    5202, -1.01204377e-03, -4.71923761e-04,  1.93412349e-03
    5203, -1.06491168e-03, -4.96576470e-04,  2.03515973e-03
    5204, -4.96505942e-04, -2.31524523e-04,  2.04454304e-03
    5205, -5.23872391e-04, -2.44285708e-04,  2.15723437e-03
    5206, -5.51238842e-04, -2.57046893e-04,  2.26992570e-03
    5207,  1.34160503e-19,  6.25600701e-20,  2.11666667e-03
    5208,  7.54652829e-20,  3.51900393e-20,  2.23333333e-03
    5209,  0.00000000e+00,  0.00000000e+00,  2.35000000e-03
    5210,  4.96505942e-04,  2.31524523e-04,  2.04454304e-03
    5211,  5.23872391e-04,  2.44285708e-04,  2.15723437e-03
    5212,  5.51238842e-04,  2.57046893e-04,  2.26992570e-03
    5213,  9.59175865e-04,  4.47271051e-04,  1.83308726e-03
    5214,  1.01204377e-03,  4.71923761e-04,  1.93412349e-03
    5215,  1.06491168e-03,  4.96576470e-04,  2.03515973e-03
    5216,  1.35647963e-03,  6.32536839e-04,  1.49670967e-03
    5217,  1.43124609e-03,  6.67401011e-04,  1.57920533e-03
    5218,  1.50601256e-03,  7.02265188e-04,  1.66170100e-03
    5219,  1.66134126e-03,  7.74696151e-04,  1.05833347e-03
    5220,  1.75291118e-03,  8.17395907e-04,  1.11666675e-03
    5221,  1.84448111e-03,  8.60095667e-04,  1.17500003e-03
    5222,  1.85298528e-03,  8.64061226e-04,  5.47833693e-04
    5223,  1.95511831e-03,  9.11686640e-04,  5.78029229e-04
    5224,  2.05725134e-03,  9.59312054e-04,  6.08224766e-04
    5225,  1.91835149e-03,  8.94541989e-04,  1.48029737e-19
    5226,  2.02408739e-03,  9.43847450e-04,  6.47630098e-20
    5227,  2.12982330e-03,  9.93152915e-04,  0.00000000e+00
    5228,  1.85298528e-03,  8.64061226e-04, -5.47833693e-04
    5229,  1.95511831e-03,  9.11686640e-04, -5.78029229e-04
    5230,  2.05725134e-03,  9.59312054e-04, -6.08224766e-04
    5231,  1.66134126e-03,  7.74696151e-04, -1.05833347e-03
    5232,  1.75291118e-03,  8.17395907e-04, -1.11666675e-03
    5233,  1.84448111e-03,  8.60095667e-04, -1.17500003e-03
    5234,  1.35647963e-03,  6.32536839e-04, -1.49670967e-03
    5235,  1.43124609e-03,  6.67401011e-04, -1.57920533e-03
    5236,  1.50601256e-03,  7.02265188e-04, -1.66170100e-03
    5237,  9.59175865e-04,  4.47271051e-04, -1.83308726e-03
    5238,  1.01204377e-03,  4.71923761e-04, -1.93412349e-03
    5239,  1.06491168e-03,  4.96576470e-04, -2.03515973e-03
    5240,  4.96505942e-04,  2.31524523e-04, -2.04454304e-03
    5241,  5.23872391e-04,  2.44285708e-04, -2.15723437e-03
    5242,  5.51238842e-04,  2.57046893e-04, -2.26992570e-03
    5243,  1.34160503e-19,  6.25600701e-20, -2.11666667e-03
    5244,  5.86952201e-20,  2.73700306e-20, -2.23333333e-03
    5245,  0.00000000e+00,  0.00000000e+00, -2.35000000e-03
    5246, -4.96505942e-04, -2.31524523e-04, -2.04454304e-03
    5247, -5.23872391e-04, -2.44285708e-04, -2.15723437e-03
    5248, -5.51238842e-04, -2.57046893e-04, -2.26992570e-03
    5249, -9.59175865e-04, -4.47271051e-04, -1.83308726e-03
    5250, -1.01204377e-03, -4.71923761e-04, -1.93412349e-03
    5251, -1.06491168e-03, -4.96576470e-04, -2.03515973e-03
    5252, -1.35647963e-03, -6.32536839e-04, -1.49670967e-03
    5253, -1.43124609e-03, -6.67401011e-04, -1.57920533e-03
    5254, -1.50601256e-03, -7.02265188e-04, -1.66170100e-03
    5255, -1.66134126e-03, -7.74696151e-04, -1.05833347e-03
    5256, -1.75291118e-03, -8.17395907e-04, -1.11666675e-03
    5257, -1.84448111e-03, -8.60095667e-04, -1.17500003e-03
    5258, -1.85298528e-03, -8.64061226e-04, -5.47833693e-04
    5259, -1.95511831e-03, -9.11686640e-04, -5.78029229e-04
    5260, -2.05725134e-03, -9.59312054e-04, -6.08224766e-04
    5261, -1.91835149e-03, -8.94541989e-04, -1.48029737e-19
    5262, -2.02408739e-03, -9.43847450e-04, -6.47630098e-20
    5263, -2.12982330e-03, -9.93152915e-04,  0.00000000e+00
    5264, -1.85298528e-03, -8.64061226e-04,  5.47833693e-04
    5265, -1.95511831e-03, -9.11686640e-04,  5.78029229e-04
    5266, -2.05725134e-03, -9.59312054e-04,  6.08224766e-04
    5267, -1.66134126e-03, -7.74696151e-04,  1.05833347e-03
    5268, -1.75291118e-03, -8.17395907e-04,  1.11666675e-03
    5269, -1.84448111e-03, -8.60095667e-04,  1.17500003e-03
    5270, -1.55407678e-03, -7.24677902e-04,  1.71473400e-03
    5271, -1.60214100e-03, -7.47090617e-04,  1.76776700e-03
    5272, -1.09889821e-03, -5.12424651e-04,  2.10011163e-03
    5273, -1.13288475e-03, -5.28272836e-04,  2.16506353e-03
    5274, -5.68831569e-04, -2.65250517e-04,  2.34237014e-03
    5275, -5.86424297e-04, -2.73454140e-04,  2.41481457e-03
    5276,  1.17390441e-19,  5.47400614e-20,  2.42500000e-03
    5277,  2.01240755e-19,  9.38401050e-20,  2.50000000e-03
    5278,  5.68831569e-04,  2.65250517e-04,  2.34237014e-03
    5279,  5.86424297e-04,  2.73454140e-04,  2.41481457e-03
    5280,  1.09889821e-03,  5.12424651e-04,  2.10011163e-03
    5281,  1.13288475e-03,  5.28272836e-04,  2.16506353e-03
    5282,  1.55407678e-03,  7.24677902e-04,  1.71473400e-03
    5283,  1.60214100e-03,  7.47090617e-04,  1.76776700e-03
    5284,  1.90334752e-03,  8.87545527e-04,  1.21250002e-03
    5285,  1.96221394e-03,  9.14995386e-04,  1.25000002e-03
    5286,  2.12290830e-03,  9.89928397e-04,  6.27636193e-04
    5287,  2.18856525e-03,  1.02054474e-03,  6.47047620e-04
    5288,  2.19779638e-03,  1.02484928e-03,  9.25185854e-20
    5289,  2.26576947e-03,  1.05654565e-03,  2.22044605e-19
    5290,  2.12290830e-03,  9.89928397e-04, -6.27636193e-04
    5291,  2.18856525e-03,  1.02054474e-03, -6.47047620e-04
    5292,  1.90334752e-03,  8.87545527e-04, -1.21250002e-03
    5293,  1.96221394e-03,  9.14995386e-04, -1.25000002e-03
    5294,  1.55407678e-03,  7.24677902e-04, -1.71473400e-03
    5295,  1.60214100e-03,  7.47090617e-04, -1.76776700e-03
    5296,  1.09889821e-03,  5.12424651e-04, -2.10011163e-03
    5297,  1.13288475e-03,  5.28272836e-04, -2.16506353e-03
    5298,  5.68831569e-04,  2.65250517e-04, -2.34237014e-03
    5299,  5.86424297e-04,  2.73454140e-04, -2.41481457e-03
    5300,  8.38503144e-20,  3.91000437e-20, -2.42500000e-03
    5301,  2.01240755e-19,  9.38401050e-20, -2.50000000e-03
    5302, -5.68831569e-04, -2.65250517e-04, -2.34237014e-03
    5303, -5.86424297e-04, -2.73454140e-04, -2.41481457e-03
    5304, -1.09889821e-03, -5.12424651e-04, -2.10011163e-03
    5305, -1.13288475e-03, -5.28272836e-04, -2.16506353e-03
    5306, -1.55407678e-03, -7.24677902e-04, -1.71473400e-03
    5307, -1.60214100e-03, -7.47090617e-04, -1.76776700e-03
    5308, -1.90334752e-03, -8.87545527e-04, -1.21250002e-03
    5309, -1.96221394e-03, -9.14995386e-04, -1.25000002e-03
    5310, -2.12290830e-03, -9.89928397e-04, -6.27636193e-04
    5311, -2.18856525e-03, -1.02054474e-03, -6.47047620e-04
    5312, -2.19779638e-03, -1.02484928e-03, -9.25185854e-20
    5313, -2.26576947e-03, -1.05654565e-03, -2.22044605e-19
    5314, -2.12290830e-03, -9.89928397e-04,  6.27636193e-04
    5315, -2.18856525e-03, -1.02054474e-03,  6.47047620e-04
    5316, -1.90334752e-03, -8.87545527e-04,  1.21250002e-03
    5317, -1.96221394e-03, -9.14995386e-04,  1.25000002e-03
*ELEMENT, TYPE=C3D8I, ELSET=ON
       1,       51,       58,        9,        2,       50,       57,        8,        1
       2,       52,       59,       10,        3,       51,       58,        9,        2
       3,       53,       60,       11,        4,       52,       59,       10,        3
       4,       54,       61,       12,        5,       53,       60,       11,        4
       5,       55,       62,       13,        6,       54,       61,       12,        5
       6,       14,       63,       62,       13,        7,       56,       55,        6
       7,       58,       65,       16,        9,       57,       64,       15,        8
       8,       59,       66,       17,       10,       58,       65,       16,        9
       9,       60,       67,       18,       11,       59,       66,       17,       10
      10,       61,       68,       19,       12,       60,       67,       18,       11
      11,       62,       69,       20,       13,       61,       68,       19,       12
      12,       21,       70,       69,       20,       14,       63,       62,       13
      13,       65,       72,       23,       16,       64,       71,       22,       15
      14,       66,       73,       24,       17,       65,       72,       23,       16
      15,       67,       74,       25,       18,       66,       73,       24,       17
      16,       68,       75,       26,       19,       67,       74,       25,       18
      17,       69,       76,       27,       20,       68,       75,       26,       19
      18,       28,       77,       76,       27,       21,       70,       69,       20
      19,       72,       79,       30,       23,       71,       78,       29,       22
      20,       73,       80,       31,       24,       72,       79,       30,       23
      21,       74,       81,       32,       25,       73,       80,       31,       24
      22,       75,       82,       33,       26,       74,       81,       32,       25
      23,       76,       83,       34,       27,       75,       82,       33,       26
      24,       35,       84,       83,       34,       28,       77,       76,       27
      25,       79,       86,       37,       30,       78,       85,       36,       29
      26,       80,       87,       38,       31,       79,       86,       37,       30
      27,       81,       88,       39,       32,       80,       87,       38,       31
      28,       82,       89,       40,       33,       81,       88,       39,       32
      29,       83,       90,       41,       34,       82,       89,       40,       33
      30,       42,       91,       90,       41,       35,       84,       83,       34
      31,       86,       93,       44,       37,       85,       92,       43,       36
      32,       87,       94,       45,       38,       86,       93,       44,       37
      33,       88,       95,       46,       39,       87,       94,       45,       38
      34,       89,       96,       47,       40,       88,       95,       46,       39
      35,       90,       97,       48,       41,       89,       96,       47,       40
      36,       97,       98,       91,       90,       48,       49,       42,       41
      37,      100,      107,       58,       51,       99,      106,       57,       50
      38,      101,      108,       59,       52,      100,      107,       58,       51
      39,      102,      109,       60,       53,      101,      108,       59,       52
      40,      103,      110,       61,       54,      102,      109,       60,       53
      41,      104,      111,       62,       55,      103,      110,       61,       54
      42,       63,      112,      111,       62,       56,      105,      104,       55
      43,      107,      114,       65,       58,      106,      113,       64,       57
      44,      108,      115,       66,       59,      107,      114,       65,       58
      45,      109,      116,       67,       60,      108,      115,       66,       59
      46,      110,      117,       68,       61,      109,      116,       67,       60
      47,      111,      118,       69,       62,      110,      117,       68,       61
      48,       70,      119,      118,       69,       63,      112,      111,       62
      49,      114,      121,       72,       65,      113,      120,       71,       64
      50,      115,      122,       73,       66,      114,      121,       72,       65
      51,      116,      123,       74,       67,      115,      122,       73,       66
      52,      117,      124,       75,       68,      116,      123,       74,       67
      53,      118,      125,       76,       69,      117,      124,       75,       68
      54,       77,      126,      125,       76,       70,      119,      118,       69
      55,      121,      128,       79,       72,      120,      127,       78,       71
      56,      122,      129,       80,       73,      121,      128,       79,       72
      57,      123,      130,       81,       74,      122,      129,       80,       73
      58,      124,      131,       82,       75,      123,      130,       81,       74
      59,      125,      132,       83,       76,      124,      131,       82,       75
      60,       84,      133,      132,       83,       77,      126,      125,       76
      61,      128,      135,       86,       79,      127,      134,       85,       78
      62,      129,      136,       87,       80,      128,      135,       86,       79
      63,      130,      137,       88,       81,      129,      136,       87,       80
      64,      131,      138,       89,       82,      130,      137,       88,       81
      65,      132,      139,       90,       83,      131,      138,       89,       82
      66,       91,      140,      139,       90,       84,      133,      132,       83
      67,      135,      142,       93,       86,      134,      141,       92,       85
      68,      136,      143,       94,       87,      135,      142,       93,       86
      69,      137,      144,       95,       88,      136,      143,       94,       87
      70,      138,      145,       96,       89,      137,      144,       95,       88
      71,      139,      146,       97,       90,      138,      145,       96,       89
      72,      146,      147,      140,      139,       97,       98,       91,       90
      73,      149,      156,      107,      100,      148,      155,      106,       99
      74,      150,      157,      108,      101,      149,      156,      107,      100
      75,      151,      158,      109,      102,      150,      157,      108,      101
      76,      152,      159,      110,      103,      151,      158,      109,      102
      77,      153,      160,      111,      104,      152,      159,      110,      103
      78,      112,      161,      160,      111,      105,      154,      153,      104
      79,      156,      163,      114,      107,      155,      162,      113,      106
      80,      157,      164,      115,      108,      156,      163,      114,      107
      81,      158,      165,      116,      109,      157,      164,      115,      108
      82,      159,      166,      117,      110,      158,      165,      116,      109
      83,      160,      167,      118,      111,      159,      166,      117,      110
      84,      119,      168,      167,      118,      112,      161,      160,      111
      85,      163,      170,      121,      114,      162,      169,      120,      113
      86,      164,      171,      122,      115,      163,      170,      121,      114
      87,      165,      172,      123,      116,      164,      171,      122,      115
      88,      166,      173,      124,      117,      165,      172,      123,      116
      89,      167,      174,      125,      118,      166,      173,      124,      117
      90,      126,      175,      174,      125,      119,      168,      167,      118
      91,      170,      177,      128,      121,      169,      176,      127,      120
      92,      171,      178,      129,      122,      170,      177,      128,      121
      93,      172,      179,      130,      123,      171,      178,      129,      122
      94,      173,      180,      131,      124,      172,      179,      130,      123
      95,      174,      181,      132,      125,      173,      180,      131,      124
      96,      133,      182,      181,      132,      126,      175,      174,      125
      97,      177,      184,      135,      128,      176,      183,      134,      127
      98,      178,      185,      136,      129,      177,      184,      135,      128
      99,      179,      186,      137,      130,      178,      185,      136,      129
     100,      180,      187,      138,      131,      179,      186,      137,      130
     101,      181,      188,      139,      132,      180,      187,      138,      131
     102,      140,      189,      188,      139,      133,      182,      181,      132
     103,      184,      191,      142,      135,      183,      190,      141,      134
     104,      185,      192,      143,      136,      184,      191,      142,      135
     105,      186,      193,      144,      137,      185,      192,      143,      136
     106,      187,      194,      145,      138,      186,      193,      144,      137
     107,      188,      195,      146,      139,      187,      194,      145,      138
     108,      195,      196,      189,      188,      146,      147,      140,      139
     109,      198,      205,      156,      149,      197,      204,      155,      148
     110,      199,      206,      157,      150,      198,      205,      156,      149
     111,      200,      207,      158,      151,      199,      206,      157,      150
     112,      201,      208,      159,      152,      200,      207,      158,      151
     113,      202,      209,      160,      153,      201,      208,      159,      152
     114,      161,      210,      209,      160,      154,      203,      202,      153
     115,      205,      212,      163,      156,      204,      211,      162,      155
     116,      206,      213,      164,      157,      205,      212,      163,      156
     117,      207,      214,      165,      158,      206,      213,      164,      157
     118,      208,      215,      166,      159,      207,      214,      165,      158
     119,      209,      216,      167,      160,      208,      215,      166,      159
     120,      168,      217,      216,      167,      161,      210,      209,      160
     121,      212,      219,      170,      163,      211,      218,      169,      162
     122,      213,      220,      171,      164,      212,      219,      170,      163
     123,      214,      221,      172,      165,      213,      220,      171,      164
     124,      215,      222,      173,      166,      214,      221,      172,      165
     125,      216,      223,      174,      167,      215,      222,      173,      166
     126,      175,      224,      223,      174,      168,      217,      216,      167
     127,      219,      226,      177,      170,      218,      225,      176,      169
     128,      220,      227,      178,      171,      219,      226,      177,      170
     129,      221,      228,      179,      172,      220,      227,      178,      171
     130,      222,      229,      180,      173,      221,      228,      179,      172
     131,      223,      230,      181,      174,      222,      229,      180,      173
     132,      182,      231,      230,      181,      175,      224,      223,      174
     133,      226,      233,      184,      177,      225,      232,      183,      176
     134,      227,      234,      185,      178,      226,      233,      184,      177
     135,      228,      235,      186,      179,      227,      234,      185,      178
     136,      229,      236,      187,      180,      228,      235,      186,      179
     137,      230,      237,      188,      181,      229,      236,      187,      180
     138,      189,      238,      237,      188,      182,      231,      230,      181
     139,      233,      240,      191,      184,      232,      239,      190,      183
     140,      234,      241,      192,      185,      233,      240,      191,      184
     141,      235,      242,      193,      186,      234,      241,      192,      185
     142,      236,      243,      194,      187,      235,      242,      193,      186
     143,      237,      244,      195,      188,      236,      243,      194,      187
     144,      244,      245,      238,      237,      195,      196,      189,      188
     145,      247,      254,      205,      198,      246,      253,      204,      197
     146,      248,      255,      206,      199,      247,      254,      205,      198
     147,      249,      256,      207,      200,      248,      255,      206,      199
     148,      250,      257,      208,      201,      249,      256,      207,      200
     149,      251,      258,      209,      202,      250,      257,      208,      201
     150,      210,      259,      258,      209,      203,      252,      251,      202
     151,      254,      261,      212,      205,      253,      260,      211,      204
     152,      255,      262,      213,      206,      254,      261,      212,      205
     153,      256,      263,      214,      207,      255,      262,      213,      206
     154,      257,      264,      215,      208,      256,      263,      214,      207
     155,      258,      265,      216,      209,      257,      264,      215,      208
     156,      217,      266,      265,      216,      210,      259,      258,      209
     157,      261,      268,      219,      212,      260,      267,      218,      211
     158,      262,      269,      220,      213,      261,      268,      219,      212
     159,      263,      270,      221,      214,      262,      269,      220,      213
     160,      264,      271,      222,      215,      263,      270,      221,      214
     161,      265,      272,      223,      216,      264,      271,      222,      215
     162,      224,      273,      272,      223,      217,      266,      265,      216
     163,      268,      275,      226,      219,      267,      274,      225,      218
     164,      269,      276,      227,      220,      268,      275,      226,      219
     165,      270,      277,      228,      221,      269,      276,      227,      220
     166,      271,      278,      229,      222,      270,      277,      228,      221
     167,      272,      279,      230,      223,      271,      278,      229,      222
     168,      231,      280,      279,      230,      224,      273,      272,      223
     169,      275,      282,      233,      226,      274,      281,      232,      225
     170,      276,      283,      234,      227,      275,      282,      233,      226
     171,      277,      284,      235,      228,      276,      283,      234,      227
     172,      278,      285,      236,      229,      277,      284,      235,      228
     173,      279,      286,      237,      230,      278,      285,      236,      229
     174,      238,      287,      286,      237,      231,      280,      279,      230
     175,      282,      289,      240,      233,      281,      288,      239,      232
     176,      283,      290,      241,      234,      282,      289,      240,      233
     177,      284,      291,      242,      235,      283,      290,      241,      234
     178,      285,      292,      243,      236,      284,      291,      242,      235
     179,      286,      293,      244,      237,      285,      292,      243,      236
     180,      293,      294,      287,      286,      244,      245,      238,      237
     181,      296,      303,      254,      247,      295,      302,      253,      246
     182,      297,      304,      255,      248,      296,      303,      254,      247
     183,      298,      305,      256,      249,      297,      304,      255,      248
     184,      299,      306,      257,      250,      298,      305,      256,      249
     185,      300,      307,      258,      251,      299,      306,      257,      250
     186,      259,      308,      307,      258,      252,      301,      300,      251
     187,      303,      310,      261,      254,      302,      309,      260,      253
     188,      304,      311,      262,      255,      303,      310,      261,      254
     189,      305,      312,      263,      256,      304,      311,      262,      255
     190,      306,      313,      264,      257,      305,      312,      263,      256
     191,      307,      314,      265,      258,      306,      313,      264,      257
     192,      266,      315,      314,      265,      259,      308,      307,      258
     193,      310,      317,      268,      261,      309,      316,      267,      260
     194,      311,      318,      269,      262,      310,      317,      268,      261
     195,      312,      319,      270,      263,      311,      318,      269,      262
     196,      313,      320,      271,      264,      312,      319,      270,      263
     197,      314,      321,      272,      265,      313,      320,      271,      264
     198,      273,      322,      321,      272,      266,      315,      314,      265
     199,      317,      324,      275,      268,      316,      323,      274,      267
     200,      318,      325,      276,      269,      317,      324,      275,      268
     201,      319,      326,      277,      270,      318,      325,      276,      269
     202,      320,      327,      278,      271,      319,      326,      277,      270
     203,      321,      328,      279,      272,      320,      327,      278,      271
     204,      280,      329,      328,      279,      273,      322,      321,      272
     205,      324,      331,      282,      275,      323,      330,      281,      274
     206,      325,      332,      283,      276,      324,      331,      282,      275
     207,      326,      333,      284,      277,      325,      332,      283,      276
     208,      327,      334,      285,      278,      326,      333,      284,      277
     209,      328,      335,      286,      279,      327,      334,      285,      278
     210,      287,      336,      335,      286,      280,      329,      328,      279
     211,      331,      338,      289,      282,      330,      337,      288,      281
     212,      332,      339,      290,      283,      331,      338,      289,      282
     213,      333,      340,      291,      284,      332,      339,      290,      283
     214,      334,      341,      292,      285,      333,      340,      291,      284
     215,      335,      342,      293,      286,      334,      341,      292,      285
     216,      342,      343,      336,      335,      293,      294,      287,      286
     217,      345,      352,      303,      296,      344,      351,      302,      295
     218,      346,      353,      304,      297,      345,      352,      303,      296
     219,      347,      354,      305,      298,      346,      353,      304,      297
     220,      348,      355,      306,      299,      347,      354,      305,      298
     221,      349,      356,      307,      300,      348,      355,      306,      299
     222,      308,      357,      356,      307,      301,      350,      349,      300
     223,      352,      359,      310,      303,      351,      358,      309,      302
     224,      353,      360,      311,      304,      352,      359,      310,      303
     225,      354,      361,      312,      305,      353,      360,      311,      304
     226,      355,      362,      313,      306,      354,      361,      312,      305
     227,      356,      363,      314,      307,      355,      362,      313,      306
     228,      315,      364,      363,      314,      308,      357,      356,      307
     229,      359,      366,      317,      310,      358,      365,      316,      309
     230,      360,      367,      318,      311,      359,      366,      317,      310
     231,      361,      368,      319,      312,      360,      367,      318,      311
     232,      362,      369,      320,      313,      361,      368,      319,      312
     233,      363,      370,      321,      314,      362,      369,      320,      313
     234,      322,      371,      370,      321,      315,      364,      363,      314
     235,      366,      373,      324,      317,      365,      372,      323,      316
     236,      367,      374,      325,      318,      366,      373,      324,      317
     237,      368,      375,      326,      319,      367,      374,      325,      318
     238,      369,      376,      327,      320,      368,      375,      326,      319
     239,      370,      377,      328,      321,      369,      376,      327,      320
     240,      329,      378,      377,      328,      322,      371,      370,      321
     241,      373,      380,      331,      324,      372,      379,      330,      323
     242,      374,      381,      332,      325,      373,      380,      331,      324
     243,      375,      382,      333,      326,      374,      381,      332,      325
     244,      376,      383,      334,      327,      375,      382,      333,      326
     245,      377,      384,      335,      328,      376,      383,      334,      327
     246,      336,      385,      384,      335,      329,      378,      377,      328
     247,      380,      387,      338,      331,      379,      386,      337,      330
     248,      381,      388,      339,      332,      380,      387,      338,      331
     249,      382,      389,      340,      333,      381,      388,      339,      332
     250,      383,      390,      341,      334,      382,      389,      340,      333
     251,      384,      391,      342,      335,      383,      390,      341,      334
     252,      391,      392,      385,      384,      342,      343,      336,      335
     253,      394,      401,      352,      345,      393,      400,      351,      344
     254,      395,      402,      353,      346,      394,      401,      352,      345
     255,      396,      403,      354,      347,      395,      402,      353,      346
     256,      397,      404,      355,      348,      396,      403,      354,      347
     257,      398,      405,      356,      349,      397,      404,      355,      348
     258,      357,      406,      405,      356,      350,      399,      398,      349
     259,      401,      408,      359,      352,      400,      407,      358,      351
     260,      402,      409,      360,      353,      401,      408,      359,      352
     261,      403,      410,      361,      354,      402,      409,      360,      353
     262,      404,      411,      362,      355,      403,      410,      361,      354
     263,      405,      412,      363,      356,      404,      411,      362,      355
     264,      364,      413,      412,      363,      357,      406,      405,      356
     265,      408,      415,      366,      359,      407,      414,      365,      358
     266,      409,      416,      367,      360,      408,      415,      366,      359
     267,      410,      417,      368,      361,      409,      416,      367,      360
     268,      411,      418,      369,      362,      410,      417,      368,      361
     269,      412,      419,      370,      363,      411,      418,      369,      362
     270,      371,      420,      419,      370,      364,      413,      412,      363
     271,      415,      422,      373,      366,      414,      421,      372,      365
     272,      416,      423,      374,      367,      415,      422,      373,      366
     273,      417,      424,      375,      368,      416,      423,      374,      367
     274,      418,      425,      376,      369,      417,      424,      375,      368
     275,      419,      426,      377,      370,      418,      425,      376,      369
     276,      378,      427,      426,      377,      371,      420,      419,      370
     277,      422,      429,      380,      373,      421,      428,      379,      372
     278,      423,      430,      381,      374,      422,      429,      380,      373
     279,      424,      431,      382,      375,      423,      430,      381,      374
     280,      425,      432,      383,      376,      424,      431,      382,      375
     281,      426,      433,      384,      377,      425,      432,      383,      376
     282,      385,      434,      433,      384,      378,      427,      426,      377
     283,      429,      436,      387,      380,      428,      435,      386,      379
     284,      430,      437,      388,      381,      429,      436,      387,      380
     285,      431,      438,      389,      382,      430,      437,      388,      381
     286,      432,      439,      390,      383,      431,      438,      389,      382
     287,      433,      440,      391,      384,      432,      439,      390,      383
     288,      440,      441,      434,      433,      391,      392,      385,      384
     289,      443,      450,      401,      394,      442,      449,      400,      393
     290,      444,      451,      402,      395,      443,      450,      401,      394
     291,      445,      452,      403,      396,      444,      451,      402,      395
     292,      446,      453,      404,      397,      445,      452,      403,      396
     293,      447,      454,      405,      398,      446,      453,      404,      397
     294,      406,      455,      454,      405,      399,      448,      447,      398
     295,      450,      457,      408,      401,      449,      456,      407,      400
     296,      451,      458,      409,      402,      450,      457,      408,      401
     297,      452,      459,      410,      403,      451,      458,      409,      402
     298,      453,      460,      411,      404,      452,      459,      410,      403
     299,      454,      461,      412,      405,      453,      460,      411,      404
     300,      413,      462,      461,      412,      406,      455,      454,      405
     301,      457,      464,      415,      408,      456,      463,      414,      407
     302,      458,      465,      416,      409,      457,      464,      415,      408
     303,      459,      466,      417,      410,      458,      465,      416,      409
     304,      460,      467,      418,      411,      459,      466,      417,      410
     305,      461,      468,      419,      412,      460,      467,      418,      411
     306,      420,      469,      468,      419,      413,      462,      461,      412
     307,      464,      471,      422,      415,      463,      470,      421,      414
     308,      465,      472,      423,      416,      464,      471,      422,      415
     309,      466,      473,      424,      417,      465,      472,      423,      416
     310,      467,      474,      425,      418,      466,      473,      424,      417
     311,      468,      475,      426,      419,      467,      474,      425,      418
     312,      427,      476,      475,      426,      420,      469,      468,      419
     313,      471,      478,      429,      422,      470,      477,      428,      421
     314,      472,      479,      430,      423,      471,      478,      429,      422
     315,      473,      480,      431,      424,      472,      479,      430,      423
     316,      474,      481,      432,      425,      473,      480,      431,      424
     317,      475,      482,      433,      426,      474,      481,      432,      425
     318,      434,      483,      482,      433,      427,      476,      475,      426
     319,      478,      485,      436,      429,      477,      484,      435,      428
     320,      479,      486,      437,      430,      478,      485,      436,      429
     321,      480,      487,      438,      431,      479,      486,      437,      430
     322,      481,      488,      439,      432,      480,      487,      438,      431
     323,      482,      489,      440,      433,      481,      488,      439,      432
     324,      489,      490,      483,      482,      440,      441,      434,      433
     325,      492,      499,      450,      443,      491,      498,      449,      442
     326,      493,      500,      451,      444,      492,      499,      450,      443
     327,      494,      501,      452,      445,      493,      500,      451,      444
     328,      495,      502,      453,      446,      494,      501,      452,      445
     329,      496,      503,      454,      447,      495,      502,      453,      446
     330,      455,      504,      503,      454,      448,      497,      496,      447
     331,      499,      506,      457,      450,      498,      505,      456,      449
     332,      500,      507,      458,      451,      499,      506,      457,      450
     333,      501,      508,      459,      452,      500,      507,      458,      451
     334,      502,      509,      460,      453,      501,      508,      459,      452
     335,      503,      510,      461,      454,      502,      509,      460,      453
     336,      462,      511,      510,      461,      455,      504,      503,      454
     337,      506,      513,      464,      457,      505,      512,      463,      456
     338,      507,      514,      465,      458,      506,      513,      464,      457
     339,      508,      515,      466,      459,      507,      514,      465,      458
     340,      509,      516,      467,      460,      508,      515,      466,      459
     341,      510,      517,      468,      461,      509,      516,      467,      460
     342,      469,      518,      517,      468,      462,      511,      510,      461
     343,      513,      520,      471,      464,      512,      519,      470,      463
     344,      514,      521,      472,      465,      513,      520,      471,      464
     345,      515,      522,      473,      466,      514,      521,      472,      465
     346,      516,      523,      474,      467,      515,      522,      473,      466
     347,      517,      524,      475,      468,      516,      523,      474,      467
     348,      476,      525,      524,      475,      469,      518,      517,      468
     349,      520,      527,      478,      471,      519,      526,      477,      470
     350,      521,      528,      479,      472,      520,      527,      478,      471
     351,      522,      529,      480,      473,      521,      528,      479,      472
     352,      523,      530,      481,      474,      522,      529,      480,      473
     353,      524,      531,      482,      475,      523,      530,      481,      474
     354,      483,      532,      531,      482,      476,      525,      524,      475
     355,      527,      534,      485,      478,      526,      533,      484,      477
     356,      528,      535,      486,      479,      527,      534,      485,      478
     357,      529,      536,      487,      480,      528,      535,      486,      479
     358,      530,      537,      488,      481,      529,      536,      487,      480
     359,      531,      538,      489,      482,      530,      537,      488,      481
     360,      532,      539,      490,      483,      531,      538,      489,      482
     361,      582,      588,      546,      540,       92,       85,       36,       43
     362,      583,      589,      547,      541,      582,      588,      546,      540
     363,      584,      590,      548,      542,      583,      589,      547,      541
     364,      585,      591,      549,      543,      584,      590,      548,      542
     365,      586,      592,      550,      544,      585,      591,      549,      543
     366,      551,      593,      592,      550,      545,      587,      586,      544
     367,      588,      594,      552,      546,       85,       78,       29,       36
     368,      589,      595,      553,      547,      588,      594,      552,      546
     369,      590,      596,      554,      548,      589,      595,      553,      547
     370,      591,      597,      555,      549,      590,      596,      554,      548
     371,      592,      598,      556,      550,      591,      597,      555,      549
     372,      557,      599,      598,      556,      551,      593,      592,      550
     373,      594,      600,      558,      552,       78,       71,       22,       29
     374,      595,      601,      559,      553,      594,      600,      558,      552
     375,      596,      602,      560,      554,      595,      601,      559,      553
     376,      597,      603,      561,      555,      596,      602,      560,      554
     377,      598,      604,      562,      556,      597,      603,      561,      555
     378,      563,      605,      604,      562,      557,      599,      598,      556
     379,      600,      606,      564,      558,       71,       64,       15,       22
     380,      601,      607,      565,      559,      600,      606,      564,      558
     381,      602,      608,      566,      560,      601,      607,      565,      559
     382,      603,      609,      567,      561,      602,      608,      566,      560
     383,      604,      610,      568,      562,      603,      609,      567,      561
     384,      569,      611,      610,      568,      563,      605,      604,      562
     385,      606,      612,      570,      564,       64,       57,        8,       15
     386,      607,      613,      571,      565,      606,      612,      570,      564
     387,      608,      614,      572,      566,      607,      613,      571,      565
     388,      609,      615,      573,      567,      608,      614,      572,      566
     389,      610,      616,      574,      568,      609,      615,      573,      567
     390,      575,      617,      616,      574,      569,      611,      610,      568
     391,      612,      618,      576,      570,       57,       50,        1,        8
     392,      613,      619,      577,      571,      612,      618,      576,      570
     393,      614,      620,      578,      572,      613,      619,      577,      571
     394,      615,      621,      579,      573,      614,      620,      578,      572
     395,      616,      622,      580,      574,      615,      621,      579,      573
     396,      622,      623,      617,      616,      580,      581,      575,      574
     397,      624,      630,      588,      582,      141,      134,       85,       92
     398,      625,      631,      589,      583,      624,      630,      588,      582
     399,      626,      632,      590,      584,      625,      631,      589,      583
     400,      627,      633,      591,      585,      626,      632,      590,      584
     401,      628,      634,      592,      586,      627,      633,      591,      585
     402,      593,      635,      634,      592,      587,      629,      628,      586
     403,      630,      636,      594,      588,      134,      127,       78,       85
     404,      631,      637,      595,      589,      630,      636,      594,      588
     405,      632,      638,      596,      590,      631,      637,      595,      589
     406,      633,      639,      597,      591,      632,      638,      596,      590
     407,      634,      640,      598,      592,      633,      639,      597,      591
     408,      599,      641,      640,      598,      593,      635,      634,      592
     409,      636,      642,      600,      594,      127,      120,       71,       78
     410,      637,      643,      601,      595,      636,      642,      600,      594
     411,      638,      644,      602,      596,      637,      643,      601,      595
     412,      639,      645,      603,      597,      638,      644,      602,      596
     413,      640,      646,      604,      598,      639,      645,      603,      597
     414,      605,      647,      646,      604,      599,      641,      640,      598
     415,      642,      648,      606,      600,      120,      113,       64,       71
     416,      643,      649,      607,      601,      642,      648,      606,      600
     417,      644,      650,      608,      602,      643,      649,      607,      601
     418,      645,      651,      609,      603,      644,      650,      608,      602
     419,      646,      652,      610,      604,      645,      651,      609,      603
     420,      611,      653,      652,      610,      605,      647,      646,      604
     421,      648,      654,      612,      606,      113,      106,       57,       64
     422,      649,      655,      613,      607,      648,      654,      612,      606
     423,      650,      656,      614,      608,      649,      655,      613,      607
     424,      651,      657,      615,      609,      650,      656,      614,      608
     425,      652,      658,      616,      610,      651,      657,      615,      609
     426,      617,      659,      658,      616,      611,      653,      652,      610
     427,      654,      660,      618,      612,      106,       99,       50,       57
     428,      655,      661,      619,      613,      654,      660,      618,      612
     429,      656,      662,      620,      614,      655,      661,      619,      613
     430,      657,      663,      621,      615,      656,      662,      620,      614
     431,      658,      664,      622,      616,      657,      663,      621,      615
     432,      664,      665,      659,      658,      622,      623,      617,      616
     433,      666,      672,      630,      624,      190,      183,      134,      141
     434,      667,      673,      631,      625,      666,      672,      630,      624
     435,      668,      674,      632,      626,      667,      673,      631,      625
     436,      669,      675,      633,      627,      668,      674,      632,      626
     437,      670,      676,      634,      628,      669,      675,      633,      627
     438,      635,      677,      676,      634,      629,      671,      670,      628
     439,      672,      678,      636,      630,      183,      176,      127,      134
     440,      673,      679,      637,      631,      672,      678,      636,      630
     441,      674,      680,      638,      632,      673,      679,      637,      631
     442,      675,      681,      639,      633,      674,      680,      638,      632
     443,      676,      682,      640,      634,      675,      681,      639,      633
     444,      641,      683,      682,      640,      635,      677,      676,      634
     445,      678,      684,      642,      636,      176,      169,      120,      127
     446,      679,      685,      643,      637,      678,      684,      642,      636
     447,      680,      686,      644,      638,      679,      685,      643,      637
     448,      681,      687,      645,      639,      680,      686,      644,      638
     449,      682,      688,      646,      640,      681,      687,      645,      639
     450,      647,      689,      688,      646,      641,      683,      682,      640
     451,      684,      690,      648,      642,      169,      162,      113,      120
     452,      685,      691,      649,      643,      684,      690,      648,      642
     453,      686,      692,      650,      644,      685,      691,      649,      643
     454,      687,      693,      651,      645,      686,      692,      650,      644
     455,      688,      694,      652,      646,      687,      693,      651,      645
     456,      653,      695,      694,      652,      647,      689,      688,      646
     457,      690,      696,      654,      648,      162,      155,      106,      113
     458,      691,      697,      655,      649,      690,      696,      654,      648
     459,      692,      698,      656,      650,      691,      697,      655,      649
     460,      693,      699,      657,      651,      692,      698,      656,      650
     461,      694,      700,      658,      652,      693,      699,      657,      651
     462,      659,      701,      700,      658,      653,      695,      694,      652
     463,      696,      702,      660,      654,      155,      148,       99,      106
     464,      697,      703,      661,      655,      696,      702,      660,      654
     465,      698,      704,      662,      656,      697,      703,      661,      655
     466,      699,      705,      663,      657,      698,      704,      662,      656
     467,      700,      706,      664,      658,      699,      705,      663,      657
     468,      706,      707,      701,      700,      664,      665,      659,      658
     469,      708,      714,      672,      666,      239,      232,      183,      190
     470,      709,      715,      673,      667,      708,      714,      672,      666
     471,      710,      716,      674,      668,      709,      715,      673,      667
     472,      711,      717,      675,      669,      710,      716,      674,      668
     473,      712,      718,      676,      670,      711,      717,      675,      669
     474,      677,      719,      718,      676,      671,      713,      712,      670
     475,      714,      720,      678,      672,      232,      225,      176,      183
     476,      715,      721,      679,      673,      714,      720,      678,      672
     477,      716,      722,      680,      674,      715,      721,      679,      673
     478,      717,      723,      681,      675,      716,      722,      680,      674
     479,      718,      724,      682,      676,      717,      723,      681,      675
     480,      683,      725,      724,      682,      677,      719,      718,      676
     481,      720,      726,      684,      678,      225,      218,      169,      176
     482,      721,      727,      685,      679,      720,      726,      684,      678
     483,      722,      728,      686,      680,      721,      727,      685,      679
     484,      723,      729,      687,      681,      722,      728,      686,      680
     485,      724,      730,      688,      682,      723,      729,      687,      681
     486,      689,      731,      730,      688,      683,      725,      724,      682
     487,      726,      732,      690,      684,      218,      211,      162,      169
     488,      727,      733,      691,      685,      726,      732,      690,      684
     489,      728,      734,      692,      686,      727,      733,      691,      685
     490,      729,      735,      693,      687,      728,      734,      692,      686
     491,      730,      736,      694,      688,      729,      735,      693,      687
     492,      695,      737,      736,      694,      689,      731,      730,      688
     493,      732,      738,      696,      690,      211,      204,      155,      162
     494,      733,      739,      697,      691,      732,      738,      696,      690
     495,      734,      740,      698,      692,      733,      739,      697,      691
     496,      735,      741,      699,      693,      734,      740,      698,      692
     497,      736,      742,      700,      694,      735,      741,      699,      693
     498,      701,      743,      742,      700,      695,      737,      736,      694
     499,      738,      744,      702,      696,      204,      197,      148,      155
     500,      739,      745,      703,      697,      738,      744,      702,      696
     501,      740,      746,      704,      698,      739,      745,      703,      697
     502,      741,      747,      705,      699,      740,      746,      704,      698
     503,      742,      748,      706,      700,      741,      747,      705,      699
     504,      748,      749,      743,      742,      706,      707,      701,      700
     505,      750,      756,      714,      708,      288,      281,      232,      239
     506,      751,      757,      715,      709,      750,      756,      714,      708
     507,      752,      758,      716,      710,      751,      757,      715,      709
     508,      753,      759,      717,      711,      752,      758,      716,      710
     509,      754,      760,      718,      712,      753,      759,      717,      711
     510,      719,      761,      760,      718,      713,      755,      754,      712
     511,      756,      762,      720,      714,      281,      274,      225,      232
     512,      757,      763,      721,      715,      756,      762,      720,      714
     513,      758,      764,      722,      716,      757,      763,      721,      715
     514,      759,      765,      723,      717,      758,      764,      722,      716
     515,      760,      766,      724,      718,      759,      765,      723,      717
     516,      725,      767,      766,      724,      719,      761,      760,      718
     517,      762,      768,      726,      720,      274,      267,      218,      225
     518,      763,      769,      727,      721,      762,      768,      726,      720
     519,      764,      770,      728,      722,      763,      769,      727,      721
     520,      765,      771,      729,      723,      764,      770,      728,      722
     521,      766,      772,      730,      724,      765,      771,      729,      723
     522,      731,      773,      772,      730,      725,      767,      766,      724
     523,      768,      774,      732,      726,      267,      260,      211,      218
     524,      769,      775,      733,      727,      768,      774,      732,      726
     525,      770,      776,      734,      728,      769,      775,      733,      727
     526,      771,      777,      735,      729,      770,      776,      734,      728
     527,      772,      778,      736,      730,      771,      777,      735,      729
     528,      737,      779,      778,      736,      731,      773,      772,      730
     529,      774,      780,      738,      732,      260,      253,      204,      211
     530,      775,      781,      739,      733,      774,      780,      738,      732
     531,      776,      782,      740,      734,      775,      781,      739,      733
     532,      777,      783,      741,      735,      776,      782,      740,      734
     533,      778,      784,      742,      736,      777,      783,      741,      735
     534,      743,      785,      784,      742,      737,      779,      778,      736
     535,      780,      786,      744,      738,      253,      246,      197,      204
     536,      781,      787,      745,      739,      780,      786,      744,      738
     537,      782,      788,      746,      740,      781,      787,      745,      739
     538,      783,      789,      747,      741,      782,      788,      746,      740
     539,      784,      790,      748,      742,      783,      789,      747,      741
     540,      790,      791,      785,      784,      748,      749,      743,      742
     541,      792,      798,      756,      750,      337,      330,      281,      288
     542,      793,      799,      757,      751,      792,      798,      756,      750
     543,      794,      800,      758,      752,      793,      799,      757,      751
     544,      795,      801,      759,      753,      794,      800,      758,      752
     545,      796,      802,      760,      754,      795,      801,      759,      753
     546,      761,      803,      802,      760,      755,      797,      796,      754
     547,      798,      804,      762,      756,      330,      323,      274,      281
     548,      799,      805,      763,      757,      798,      804,      762,      756
     549,      800,      806,      764,      758,      799,      805,      763,      757
     550,      801,      807,      765,      759,      800,      806,      764,      758
     551,      802,      808,      766,      760,      801,      807,      765,      759
     552,      767,      809,      808,      766,      761,      803,      802,      760
     553,      804,      810,      768,      762,      323,      316,      267,      274
     554,      805,      811,      769,      763,      804,      810,      768,      762
     555,      806,      812,      770,      764,      805,      811,      769,      763
     556,      807,      813,      771,      765,      806,      812,      770,      764
     557,      808,      814,      772,      766,      807,      813,      771,      765
     558,      773,      815,      814,      772,      767,      809,      808,      766
     559,      810,      816,      774,      768,      316,      309,      260,      267
     560,      811,      817,      775,      769,      810,      816,      774,      768
     561,      812,      818,      776,      770,      811,      817,      775,      769
     562,      813,      819,      777,      771,      812,      818,      776,      770
     563,      814,      820,      778,      772,      813,      819,      777,      771
     564,      779,      821,      820,      778,      773,      815,      814,      772
     565,      816,      822,      780,      774,      309,      302,      253,      260
     566,      817,      823,      781,      775,      816,      822,      780,      774
     567,      818,      824,      782,      776,      817,      823,      781,      775
     568,      819,      825,      783,      777,      818,      824,      782,      776
     569,      820,      826,      784,      778,      819,      825,      783,      777
     570,      785,      827,      826,      784,      779,      821,      820,      778
     571,      822,      828,      786,      780,      302,      295,      246,      253
     572,      823,      829,      787,      781,      822,      828,      786,      780
     573,      824,      830,      788,      782,      823,      829,      787,      781
     574,      825,      831,      789,      783,      824,      830,      788,      782
     575,      826,      832,      790,      784,      825,      831,      789,      783
     576,      832,      833,      827,      826,      790,      791,      785,      784
     577,      834,      840,      798,      792,      386,      379,      330,      337
     578,      835,      841,      799,      793,      834,      840,      798,      792
     579,      836,      842,      800,      794,      835,      841,      799,      793
     580,      837,      843,      801,      795,      836,      842,      800,      794
     581,      838,      844,      802,      796,      837,      843,      801,      795
     582,      803,      845,      844,      802,      797,      839,      838,      796
     583,      840,      846,      804,      798,      379,      372,      323,      330
     584,      841,      847,      805,      799,      840,      846,      804,      798
     585,      842,      848,      806,      800,      841,      847,      805,      799
     586,      843,      849,      807,      801,      842,      848,      806,      800
     587,      844,      850,      808,      802,      843,      849,      807,      801
     588,      809,      851,      850,      808,      803,      845,      844,      802
     589,      846,      852,      810,      804,      372,      365,      316,      323
     590,      847,      853,      811,      805,      846,      852,      810,      804
     591,      848,      854,      812,      806,      847,      853,      811,      805
     592,      849,      855,      813,      807,      848,      854,      812,      806
     593,      850,      856,      814,      808,      849,      855,      813,      807
     594,      815,      857,      856,      814,      809,      851,      850,      808
     595,      852,      858,      816,      810,      365,      358,      309,      316
     596,      853,      859,      817,      811,      852,      858,      816,      810
     597,      854,      860,      818,      812,      853,      859,      817,      811
     598,      855,      861,      819,      813,      854,      860,      818,      812
     599,      856,      862,      820,      814,      855,      861,      819,      813
     600,      821,      863,      862,      820,      815,      857,      856,      814
     601,      858,      864,      822,      816,      358,      351,      302,      309
     602,      859,      865,      823,      817,      858,      864,      822,      816
     603,      860,      866,      824,      818,      859,      865,      823,      817
     604,      861,      867,      825,      819,      860,      866,      824,      818
     605,      862,      868,      826,      820,      861,      867,      825,      819
     606,      827,      869,      868,      826,      821,      863,      862,      820
     607,      864,      870,      828,      822,      351,      344,      295,      302
     608,      865,      871,      829,      823,      864,      870,      828,      822
     609,      866,      872,      830,      824,      865,      871,      829,      823
     610,      867,      873,      831,      825,      866,      872,      830,      824
     611,      868,      874,      832,      826,      867,      873,      831,      825
     612,      874,      875,      869,      868,      832,      833,      827,      826
     613,      876,      882,      840,      834,      435,      428,      379,      386
     614,      877,      883,      841,      835,      876,      882,      840,      834
     615,      878,      884,      842,      836,      877,      883,      841,      835
     616,      879,      885,      843,      837,      878,      884,      842,      836
     617,      880,      886,      844,      838,      879,      885,      843,      837
     618,      845,      887,      886,      844,      839,      881,      880,      838
     619,      882,      888,      846,      840,      428,      421,      372,      379
     620,      883,      889,      847,      841,      882,      888,      846,      840
     621,      884,      890,      848,      842,      883,      889,      847,      841
     622,      885,      891,      849,      843,      884,      890,      848,      842
     623,      886,      892,      850,      844,      885,      891,      849,      843
     624,      851,      893,      892,      850,      845,      887,      886,      844
     625,      888,      894,      852,      846,      421,      414,      365,      372
     626,      889,      895,      853,      847,      888,      894,      852,      846
     627,      890,      896,      854,      848,      889,      895,      853,      847
     628,      891,      897,      855,      849,      890,      896,      854,      848
     629,      892,      898,      856,      850,      891,      897,      855,      849
     630,      857,      899,      898,      856,      851,      893,      892,      850
     631,      894,      900,      858,      852,      414,      407,      358,      365
     632,      895,      901,      859,      853,      894,      900,      858,      852
     633,      896,      902,      860,      854,      895,      901,      859,      853
     634,      897,      903,      861,      855,      896,      902,      860,      854
     635,      898,      904,      862,      856,      897,      903,      861,      855
     636,      863,      905,      904,      862,      857,      899,      898,      856
     637,      900,      906,      864,      858,      407,      400,      351,      358
     638,      901,      907,      865,      859,      900,      906,      864,      858
     639,      902,      908,      866,      860,      901,      907,      865,      859
     640,      903,      909,      867,      861,      902,      908,      866,      860
     641,      904,      910,      868,      862,      903,      909,      867,      861
     642,      869,      911,      910,      868,      863,      905,      904,      862
     643,      906,      912,      870,      864,      400,      393,      344,      351
     644,      907,      913,      871,      865,      906,      912,      870,      864
     645,      908,      914,      872,      866,      907,      913,      871,      865
     646,      909,      915,      873,      867,      908,      914,      872,      866
     647,      910,      916,      874,      868,      909,      915,      873,      867
     648,      916,      917,      911,      910,      874,      875,      869,      868
     649,      918,      924,      882,      876,      484,      477,      428,      435
     650,      919,      925,      883,      877,      918,      924,      882,      876
     651,      920,      926,      884,      878,      919,      925,      883,      877
     652,      921,      927,      885,      879,      920,      926,      884,      878
     653,      922,      928,      886,      880,      921,      927,      885,      879
     654,      887,      929,      928,      886,      881,      923,      922,      880
     655,      924,      930,      888,      882,      477,      470,      421,      428
     656,      925,      931,      889,      883,      924,      930,      888,      882
     657,      926,      932,      890,      884,      925,      931,      889,      883
     658,      927,      933,      891,      885,      926,      932,      890,      884
     659,      928,      934,      892,      886,      927,      933,      891,      885
     660,      893,      935,      934,      892,      887,      929,      928,      886
     661,      930,      936,      894,      888,      470,      463,      414,      421
     662,      931,      937,      895,      889,      930,      936,      894,      888
     663,      932,      938,      896,      890,      931,      937,      895,      889
     664,      933,      939,      897,      891,      932,      938,      896,      890
     665,      934,      940,      898,      892,      933,      939,      897,      891
     666,      899,      941,      940,      898,      893,      935,      934,      892
     667,      936,      942,      900,      894,      463,      456,      407,      414
     668,      937,      943,      901,      895,      936,      942,      900,      894
     669,      938,      944,      902,      896,      937,      943,      901,      895
     670,      939,      945,      903,      897,      938,      944,      902,      896
     671,      940,      946,      904,      898,      939,      945,      903,      897
     672,      905,      947,      946,      904,      899,      941,      940,      898
     673,      942,      948,      906,      900,      456,      449,      400,      407
     674,      943,      949,      907,      901,      942,      948,      906,      900
     675,      944,      950,      908,      902,      943,      949,      907,      901
     676,      945,      951,      909,      903,      944,      950,      908,      902
     677,      946,      952,      910,      904,      945,      951,      909,      903
     678,      911,      953,      952,      910,      905,      947,      946,      904
     679,      948,      954,      912,      906,      449,      442,      393,      400
     680,      949,      955,      913,      907,      948,      954,      912,      906
     681,      950,      956,      914,      908,      949,      955,      913,      907
     682,      951,      957,      915,      909,      950,      956,      914,      908
     683,      952,      958,      916,      910,      951,      957,      915,      909
     684,      958,      959,      953,      952,      916,      917,      911,      910
     685,      960,      966,      924,      918,      533,      526,      477,      484
     686,      961,      967,      925,      919,      960,      966,      924,      918
     687,      962,      968,      926,      920,      961,      967,      925,      919
     688,      963,      969,      927,      921,      962,      968,      926,      920
     689,      964,      970,      928,      922,      963,      969,      927,      921
     690,      929,      971,      970,      928,      923,      965,      964,      922
     691,      966,      972,      930,      924,      526,      519,      470,      477
     692,      967,      973,      931,      925,      966,      972,      930,      924
     693,      968,      974,      932,      926,      967,      973,      931,      925
     694,      969,      975,      933,      927,      968,      974,      932,      926
     695,      970,      976,      934,      928,      969,      975,      933,      927
     696,      935,      977,      976,      934,      929,      971,      970,      928
     697,      972,      978,      936,      930,      519,      512,      463,      470
     698,      973,      979,      937,      931,      972,      978,      936,      930
     699,      974,      980,      938,      932,      973,      979,      937,      931
     700,      975,      981,      939,      933,      974,      980,      938,      932
     701,      976,      982,      940,      934,      975,      981,      939,      933
     702,      941,      983,      982,      940,      935,      977,      976,      934
     703,      978,      984,      942,      936,      512,      505,      456,      463
     704,      979,      985,      943,      937,      978,      984,      942,      936
     705,      980,      986,      944,      938,      979,      985,      943,      937
     706,      981,      987,      945,      939,      980,      986,      944,      938
     707,      982,      988,      946,      940,      981,      987,      945,      939
     708,      947,      989,      988,      946,      941,      983,      982,      940
     709,      984,      990,      948,      942,      505,      498,      449,      456
     710,      985,      991,      949,      943,      984,      990,      948,      942
     711,      986,      992,      950,      944,      985,      991,      949,      943
     712,      987,      993,      951,      945,      986,      992,      950,      944
     713,      988,      994,      952,      946,      987,      993,      951,      945
     714,      953,      995,      994,      952,      947,      989,      988,      946
     715,      990,      996,      954,      948,      498,      491,      442,      449
     716,      991,      997,      955,      949,      990,      996,      954,      948
     717,      992,      998,      956,      950,      991,      997,      955,      949
     718,      993,      999,      957,      951,      992,      998,      956,      950
     719,      994,     1000,      958,      952,      993,      999,      957,      951
     720,      959,     1001,     1000,      958,      953,      995,      994,      952
     721,      618,     1038,     1002,      576,       50,       51,        2,        1
     722,      619,     1039,     1003,      577,      618,     1038,     1002,      576
     723,      620,     1040,     1004,      578,      619,     1039,     1003,      577
     724,      621,     1041,     1005,      579,      620,     1040,     1004,      578
     725,      622,     1042,     1006,      580,      621,     1041,     1005,      579
     726,     1007,     1043,     1042,     1006,      581,      623,      622,      580
     727,     1038,     1044,     1008,     1002,       51,       52,        3,        2
     728,     1039,     1045,     1009,     1003,     1038,     1044,     1008,     1002
     729,     1040,     1046,     1010,     1004,     1039,     1045,     1009,     1003
     730,     1041,     1047,     1011,     1005,     1040,     1046,     1010,     1004
     731,     1042,     1048,     1012,     1006,     1041,     1047,     1011,     1005
     732,     1013,     1049,     1048,     1012,     1007,     1043,     1042,     1006
     733,     1044,     1050,     1014,     1008,       52,       53,        4,        3
     734,     1045,     1051,     1015,     1009,     1044,     1050,     1014,     1008
     735,     1046,     1052,     1016,     1010,     1045,     1051,     1015,     1009
     736,     1047,     1053,     1017,     1011,     1046,     1052,     1016,     1010
     737,     1048,     1054,     1018,     1012,     1047,     1053,     1017,     1011
     738,     1019,     1055,     1054,     1018,     1013,     1049,     1048,     1012
     739,     1050,     1056,     1020,     1014,       53,       54,        5,        4
     740,     1051,     1057,     1021,     1015,     1050,     1056,     1020,     1014
     741,     1052,     1058,     1022,     1016,     1051,     1057,     1021,     1015
     742,     1053,     1059,     1023,     1017,     1052,     1058,     1022,     1016
     743,     1054,     1060,     1024,     1018,     1053,     1059,     1023,     1017
     744,     1025,     1061,     1060,     1024,     1019,     1055,     1054,     1018
     745,     1056,     1062,     1026,     1020,       54,       55,        6,        5
     746,     1057,     1063,     1027,     1021,     1056,     1062,     1026,     1020
     747,     1058,     1064,     1028,     1022,     1057,     1063,     1027,     1021
     748,     1059,     1065,     1029,     1023,     1058,     1064,     1028,     1022
     749,     1060,     1066,     1030,     1024,     1059,     1065,     1029,     1023
     750,     1031,     1067,     1066,     1030,     1025,     1061,     1060,     1024
     751,     1062,     1068,     1032,     1026,       55,       56,        7,        6
     752,     1063,     1069,     1033,     1027,     1062,     1068,     1032,     1026
     753,     1064,     1070,     1034,     1028,     1063,     1069,     1033,     1027
     754,     1065,     1071,     1035,     1029,     1064,     1070,     1034,     1028
     755,     1066,     1072,     1036,     1030,     1065,     1071,     1035,     1029
     756,     1072,     1073,     1067,     1066,     1036,     1037,     1031,     1030
     757,      660,     1074,     1038,      618,       99,      100,       51,       50
     758,      661,     1075,     1039,      619,      660,     1074,     1038,      618
     759,      662,     1076,     1040,      620,      661,     1075,     1039,      619
     760,      663,     1077,     1041,      621,      662,     1076,     1040,      620
     761,      664,     1078,     1042,      622,      663,     1077,     1041,      621
     762,     1043,     1079,     1078,     1042,      623,      665,      664,      622
     763,     1074,     1080,     1044,     1038,      100,      101,       52,       51
     764,     1075,     1081,     1045,     1039,     1074,     1080,     1044,     1038
     765,     1076,     1082,     1046,     1040,     1075,     1081,     1045,     1039
     766,     1077,     1083,     1047,     1041,     1076,     1082,     1046,     1040
     767,     1078,     1084,     1048,     1042,     1077,     1083,     1047,     1041
     768,     1049,     1085,     1084,     1048,     1043,     1079,     1078,     1042
     769,     1080,     1086,     1050,     1044,      101,      102,       53,       52
     770,     1081,     1087,     1051,     1045,     1080,     1086,     1050,     1044
     771,     1082,     1088,     1052,     1046,     1081,     1087,     1051,     1045
     772,     1083,     1089,     1053,     1047,     1082,     1088,     1052,     1046
     773,     1084,     1090,     1054,     1048,     1083,     1089,     1053,     1047
     774,     1055,     1091,     1090,     1054,     1049,     1085,     1084,     1048
     775,     1086,     1092,     1056,     1050,      102,      103,       54,       53
     776,     1087,     1093,     1057,     1051,     1086,     1092,     1056,     1050
     777,     1088,     1094,     1058,     1052,     1087,     1093,     1057,     1051
     778,     1089,     1095,     1059,     1053,     1088,     1094,     1058,     1052
     779,     1090,     1096,     1060,     1054,     1089,     1095,     1059,     1053
     780,     1061,     1097,     1096,     1060,     1055,     1091,     1090,     1054
     781,     1092,     1098,     1062,     1056,      103,      104,       55,       54
     782,     1093,     1099,     1063,     1057,     1092,     1098,     1062,     1056
     783,     1094,     1100,     1064,     1058,     1093,     1099,     1063,     1057
     784,     1095,     1101,     1065,     1059,     1094,     1100,     1064,     1058
     785,     1096,     1102,     1066,     1060,     1095,     1101,     1065,     1059
     786,     1067,     1103,     1102,     1066,     1061,     1097,     1096,     1060
     787,     1098,     1104,     1068,     1062,      104,      105,       56,       55
     788,     1099,     1105,     1069,     1063,     1098,     1104,     1068,     1062
     789,     1100,     1106,     1070,     1064,     1099,     1105,     1069,     1063
     790,     1101,     1107,     1071,     1065,     1100,     1106,     1070,     1064
     791,     1102,     1108,     1072,     1066,     1101,     1107,     1071,     1065
     792,     1108,     1109,     1103,     1102,     1072,     1073,     1067,     1066
     793,      702,     1110,     1074,      660,      148,      149,      100,       99
     794,      703,     1111,     1075,      661,      702,     1110,     1074,      660
     795,      704,     1112,     1076,      662,      703,     1111,     1075,      661
     796,      705,     1113,     1077,      663,      704,     1112,     1076,      662
     797,      706,     1114,     1078,      664,      705,     1113,     1077,      663
     798,     1079,     1115,     1114,     1078,      665,      707,      706,      664
     799,     1110,     1116,     1080,     1074,      149,      150,      101,      100
     800,     1111,     1117,     1081,     1075,     1110,     1116,     1080,     1074
     801,     1112,     1118,     1082,     1076,     1111,     1117,     1081,     1075
     802,     1113,     1119,     1083,     1077,     1112,     1118,     1082,     1076
     803,     1114,     1120,     1084,     1078,     1113,     1119,     1083,     1077
     804,     1085,     1121,     1120,     1084,     1079,     1115,     1114,     1078
     805,     1116,     1122,     1086,     1080,      150,      151,      102,      101
     806,     1117,     1123,     1087,     1081,     1116,     1122,     1086,     1080
     807,     1118,     1124,     1088,     1082,     1117,     1123,     1087,     1081
     808,     1119,     1125,     1089,     1083,     1118,     1124,     1088,     1082
     809,     1120,     1126,     1090,     1084,     1119,     1125,     1089,     1083
     810,     1091,     1127,     1126,     1090,     1085,     1121,     1120,     1084
     811,     1122,     1128,     1092,     1086,      151,      152,      103,      102
     812,     1123,     1129,     1093,     1087,     1122,     1128,     1092,     1086
     813,     1124,     1130,     1094,     1088,     1123,     1129,     1093,     1087
     814,     1125,     1131,     1095,     1089,     1124,     1130,     1094,     1088
     815,     1126,     1132,     1096,     1090,     1125,     1131,     1095,     1089
     816,     1097,     1133,     1132,     1096,     1091,     1127,     1126,     1090
     817,     1128,     1134,     1098,     1092,      152,      153,      104,      103
     818,     1129,     1135,     1099,     1093,     1128,     1134,     1098,     1092
     819,     1130,     1136,     1100,     1094,     1129,     1135,     1099,     1093
     820,     1131,     1137,     1101,     1095,     1130,     1136,     1100,     1094
     821,     1132,     1138,     1102,     1096,     1131,     1137,     1101,     1095
     822,     1103,     1139,     1138,     1102,     1097,     1133,     1132,     1096
     823,     1134,     1140,     1104,     1098,      153,      154,      105,      104
     824,     1135,     1141,     1105,     1099,     1134,     1140,     1104,     1098
     825,     1136,     1142,     1106,     1100,     1135,     1141,     1105,     1099
     826,     1137,     1143,     1107,     1101,     1136,     1142,     1106,     1100
     827,     1138,     1144,     1108,     1102,     1137,     1143,     1107,     1101
     828,     1144,     1145,     1139,     1138,     1108,     1109,     1103,     1102
     829,      744,     1146,     1110,      702,      197,      198,      149,      148
     830,      745,     1147,     1111,      703,      744,     1146,     1110,      702
     831,      746,     1148,     1112,      704,      745,     1147,     1111,      703
     832,      747,     1149,     1113,      705,      746,     1148,     1112,      704
     833,      748,     1150,     1114,      706,      747,     1149,     1113,      705
     834,     1115,     1151,     1150,     1114,      707,      749,      748,      706
     835,     1146,     1152,     1116,     1110,      198,      199,      150,      149
     836,     1147,     1153,     1117,     1111,     1146,     1152,     1116,     1110
     837,     1148,     1154,     1118,     1112,     1147,     1153,     1117,     1111
     838,     1149,     1155,     1119,     1113,     1148,     1154,     1118,     1112
     839,     1150,     1156,     1120,     1114,     1149,     1155,     1119,     1113
     840,     1121,     1157,     1156,     1120,     1115,     1151,     1150,     1114
     841,     1152,     1158,     1122,     1116,      199,      200,      151,      150
     842,     1153,     1159,     1123,     1117,     1152,     1158,     1122,     1116
     843,     1154,     1160,     1124,     1118,     1153,     1159,     1123,     1117
     844,     1155,     1161,     1125,     1119,     1154,     1160,     1124,     1118
     845,     1156,     1162,     1126,     1120,     1155,     1161,     1125,     1119
     846,     1127,     1163,     1162,     1126,     1121,     1157,     1156,     1120
     847,     1158,     1164,     1128,     1122,      200,      201,      152,      151
     848,     1159,     1165,     1129,     1123,     1158,     1164,     1128,     1122
     849,     1160,     1166,     1130,     1124,     1159,     1165,     1129,     1123
     850,     1161,     1167,     1131,     1125,     1160,     1166,     1130,     1124
     851,     1162,     1168,     1132,     1126,     1161,     1167,     1131,     1125
     852,     1133,     1169,     1168,     1132,     1127,     1163,     1162,     1126
     853,     1164,     1170,     1134,     1128,      201,      202,      153,      152
     854,     1165,     1171,     1135,     1129,     1164,     1170,     1134,     1128
     855,     1166,     1172,     1136,     1130,     1165,     1171,     1135,     1129
     856,     1167,     1173,     1137,     1131,     1166,     1172,     1136,     1130
     857,     1168,     1174,     1138,     1132,     1167,     1173,     1137,     1131
     858,     1139,     1175,     1174,     1138,     1133,     1169,     1168,     1132
     859,     1170,     1176,     1140,     1134,      202,      203,      154,      153
     860,     1171,     1177,     1141,     1135,     1170,     1176,     1140,     1134
     861,     1172,     1178,     1142,     1136,     1171,     1177,     1141,     1135
     862,     1173,     1179,     1143,     1137,     1172,     1178,     1142,     1136
     863,     1174,     1180,     1144,     1138,     1173,     1179,     1143,     1137
     864,     1180,     1181,     1175,     1174,     1144,     1145,     1139,     1138
     865,      786,     1182,     1146,      744,      246,      247,      198,      197
     866,      787,     1183,     1147,      745,      786,     1182,     1146,      744
     867,      788,     1184,     1148,      746,      787,     1183,     1147,      745
     868,      789,     1185,     1149,      747,      788,     1184,     1148,      746
     869,      790,     1186,     1150,      748,      789,     1185,     1149,      747
     870,     1151,     1187,     1186,     1150,      749,      791,      790,      748
     871,     1182,     1188,     1152,     1146,      247,      248,      199,      198
     872,     1183,     1189,     1153,     1147,     1182,     1188,     1152,     1146
     873,     1184,     1190,     1154,     1148,     1183,     1189,     1153,     1147
     874,     1185,     1191,     1155,     1149,     1184,     1190,     1154,     1148
     875,     1186,     1192,     1156,     1150,     1185,     1191,     1155,     1149
     876,     1157,     1193,     1192,     1156,     1151,     1187,     1186,     1150
     877,     1188,     1194,     1158,     1152,      248,      249,      200,      199
     878,     1189,     1195,     1159,     1153,     1188,     1194,     1158,     1152
     879,     1190,     1196,     1160,     1154,     1189,     1195,     1159,     1153
     880,     1191,     1197,     1161,     1155,     1190,     1196,     1160,     1154
     881,     1192,     1198,     1162,     1156,     1191,     1197,     1161,     1155
     882,     1163,     1199,     1198,     1162,     1157,     1193,     1192,     1156
     883,     1194,     1200,     1164,     1158,      249,      250,      201,      200
     884,     1195,     1201,     1165,     1159,     1194,     1200,     1164,     1158
     885,     1196,     1202,     1166,     1160,     1195,     1201,     1165,     1159
     886,     1197,     1203,     1167,     1161,     1196,     1202,     1166,     1160
     887,     1198,     1204,     1168,     1162,     1197,     1203,     1167,     1161
     888,     1169,     1205,     1204,     1168,     1163,     1199,     1198,     1162
     889,     1200,     1206,     1170,     1164,      250,      251,      202,      201
     890,     1201,     1207,     1171,     1165,     1200,     1206,     1170,     1164
     891,     1202,     1208,     1172,     1166,     1201,     1207,     1171,     1165
     892,     1203,     1209,     1173,     1167,     1202,     1208,     1172,     1166
     893,     1204,     1210,     1174,     1168,     1203,     1209,     1173,     1167
     894,     1175,     1211,     1210,     1174,     1169,     1205,     1204,     1168
     895,     1206,     1212,     1176,     1170,      251,      252,      203,      202
     896,     1207,     1213,     1177,     1171,     1206,     1212,     1176,     1170
     897,     1208,     1214,     1178,     1172,     1207,     1213,     1177,     1171
     898,     1209,     1215,     1179,     1173,     1208,     1214,     1178,     1172
     899,     1210,     1216,     1180,     1174,     1209,     1215,     1179,     1173
     900,     1216,     1217,     1211,     1210,     1180,     1181,     1175,     1174
     901,      828,     1218,     1182,      786,      295,      296,      247,      246
     902,      829,     1219,     1183,      787,      828,     1218,     1182,      786
     903,      830,     1220,     1184,      788,      829,     1219,     1183,      787
     904,      831,     1221,     1185,      789,      830,     1220,     1184,      788
     905,      832,     1222,     1186,      790,      831,     1221,     1185,      789
     906,     1187,     1223,     1222,     1186,      791,      833,      832,      790
     907,     1218,     1224,     1188,     1182,      296,      297,      248,      247
     908,     1219,     1225,     1189,     1183,     1218,     1224,     1188,     1182
     909,     1220,     1226,     1190,     1184,     1219,     1225,     1189,     1183
     910,     1221,     1227,     1191,     1185,     1220,     1226,     1190,     1184
     911,     1222,     1228,     1192,     1186,     1221,     1227,     1191,     1185
     912,     1193,     1229,     1228,     1192,     1187,     1223,     1222,     1186
     913,     1224,     1230,     1194,     1188,      297,      298,      249,      248
     914,     1225,     1231,     1195,     1189,     1224,     1230,     1194,     1188
     915,     1226,     1232,     1196,     1190,     1225,     1231,     1195,     1189
     916,     1227,     1233,     1197,     1191,     1226,     1232,     1196,     1190
     917,     1228,     1234,     1198,     1192,     1227,     1233,     1197,     1191
     918,     1199,     1235,     1234,     1198,     1193,     1229,     1228,     1192
     919,     1230,     1236,     1200,     1194,      298,      299,      250,      249
     920,     1231,     1237,     1201,     1195,     1230,     1236,     1200,     1194
     921,     1232,     1238,     1202,     1196,     1231,     1237,     1201,     1195
     922,     1233,     1239,     1203,     1197,     1232,     1238,     1202,     1196
     923,     1234,     1240,     1204,     1198,     1233,     1239,     1203,     1197
     924,     1205,     1241,     1240,     1204,     1199,     1235,     1234,     1198
     925,     1236,     1242,     1206,     1200,      299,      300,      251,      250
     926,     1237,     1243,     1207,     1201,     1236,     1242,     1206,     1200
     927,     1238,     1244,     1208,     1202,     1237,     1243,     1207,     1201
     928,     1239,     1245,     1209,     1203,     1238,     1244,     1208,     1202
     929,     1240,     1246,     1210,     1204,     1239,     1245,     1209,     1203
     930,     1211,     1247,     1246,     1210,     1205,     1241,     1240,     1204
     931,     1242,     1248,     1212,     1206,      300,      301,      252,      251
     932,     1243,     1249,     1213,     1207,     1242,     1248,     1212,     1206
     933,     1244,     1250,     1214,     1208,     1243,     1249,     1213,     1207
     934,     1245,     1251,     1215,     1209,     1244,     1250,     1214,     1208
     935,     1246,     1252,     1216,     1210,     1245,     1251,     1215,     1209
     936,     1252,     1253,     1247,     1246,     1216,     1217,     1211,     1210
     937,      870,     1254,     1218,      828,      344,      345,      296,      295
     938,      871,     1255,     1219,      829,      870,     1254,     1218,      828
     939,      872,     1256,     1220,      830,      871,     1255,     1219,      829
     940,      873,     1257,     1221,      831,      872,     1256,     1220,      830
     941,      874,     1258,     1222,      832,      873,     1257,     1221,      831
     942,     1223,     1259,     1258,     1222,      833,      875,      874,      832
     943,     1254,     1260,     1224,     1218,      345,      346,      297,      296
     944,     1255,     1261,     1225,     1219,     1254,     1260,     1224,     1218
     945,     1256,     1262,     1226,     1220,     1255,     1261,     1225,     1219
     946,     1257,     1263,     1227,     1221,     1256,     1262,     1226,     1220
     947,     1258,     1264,     1228,     1222,     1257,     1263,     1227,     1221
     948,     1229,     1265,     1264,     1228,     1223,     1259,     1258,     1222
     949,     1260,     1266,     1230,     1224,      346,      347,      298,      297
     950,     1261,     1267,     1231,     1225,     1260,     1266,     1230,     1224
     951,     1262,     1268,     1232,     1226,     1261,     1267,     1231,     1225
     952,     1263,     1269,     1233,     1227,     1262,     1268,     1232,     1226
     953,     1264,     1270,     1234,     1228,     1263,     1269,     1233,     1227
     954,     1235,     1271,     1270,     1234,     1229,     1265,     1264,     1228
     955,     1266,     1272,     1236,     1230,      347,      348,      299,      298
     956,     1267,     1273,     1237,     1231,     1266,     1272,     1236,     1230
     957,     1268,     1274,     1238,     1232,     1267,     1273,     1237,     1231
     958,     1269,     1275,     1239,     1233,     1268,     1274,     1238,     1232
     959,     1270,     1276,     1240,     1234,     1269,     1275,     1239,     1233
     960,     1241,     1277,     1276,     1240,     1235,     1271,     1270,     1234
     961,     1272,     1278,     1242,     1236,      348,      349,      300,      299
     962,     1273,     1279,     1243,     1237,     1272,     1278,     1242,     1236
     963,     1274,     1280,     1244,     1238,     1273,     1279,     1243,     1237
     964,     1275,     1281,     1245,     1239,     1274,     1280,     1244,     1238
     965,     1276,     1282,     1246,     1240,     1275,     1281,     1245,     1239
     966,     1247,     1283,     1282,     1246,     1241,     1277,     1276,     1240
     967,     1278,     1284,     1248,     1242,      349,      350,      301,      300
     968,     1279,     1285,     1249,     1243,     1278,     1284,     1248,     1242
     969,     1280,     1286,     1250,     1244,     1279,     1285,     1249,     1243
     970,     1281,     1287,     1251,     1245,     1280,     1286,     1250,     1244
     971,     1282,     1288,     1252,     1246,     1281,     1287,     1251,     1245
     972,     1288,     1289,     1283,     1282,     1252,     1253,     1247,     1246
     973,      912,     1290,     1254,      870,      393,      394,      345,      344
     974,      913,     1291,     1255,      871,      912,     1290,     1254,      870
     975,      914,     1292,     1256,      872,      913,     1291,     1255,      871
     976,      915,     1293,     1257,      873,      914,     1292,     1256,      872
     977,      916,     1294,     1258,      874,      915,     1293,     1257,      873
     978,     1259,     1295,     1294,     1258,      875,      917,      916,      874
     979,     1290,     1296,     1260,     1254,      394,      395,      346,      345
     980,     1291,     1297,     1261,     1255,     1290,     1296,     1260,     1254
     981,     1292,     1298,     1262,     1256,     1291,     1297,     1261,     1255
     982,     1293,     1299,     1263,     1257,     1292,     1298,     1262,     1256
     983,     1294,     1300,     1264,     1258,     1293,     1299,     1263,     1257
     984,     1265,     1301,     1300,     1264,     1259,     1295,     1294,     1258
     985,     1296,     1302,     1266,     1260,      395,      396,      347,      346
     986,     1297,     1303,     1267,     1261,     1296,     1302,     1266,     1260
     987,     1298,     1304,     1268,     1262,     1297,     1303,     1267,     1261
     988,     1299,     1305,     1269,     1263,     1298,     1304,     1268,     1262
     989,     1300,     1306,     1270,     1264,     1299,     1305,     1269,     1263
     990,     1271,     1307,     1306,     1270,     1265,     1301,     1300,     1264
     991,     1302,     1308,     1272,     1266,      396,      397,      348,      347
     992,     1303,     1309,     1273,     1267,     1302,     1308,     1272,     1266
     993,     1304,     1310,     1274,     1268,     1303,     1309,     1273,     1267
     994,     1305,     1311,     1275,     1269,     1304,     1310,     1274,     1268
     995,     1306,     1312,     1276,     1270,     1305,     1311,     1275,     1269
     996,     1277,     1313,     1312,     1276,     1271,     1307,     1306,     1270
     997,     1308,     1314,     1278,     1272,      397,      398,      349,      348
     998,     1309,     1315,     1279,     1273,     1308,     1314,     1278,     1272
     999,     1310,     1316,     1280,     1274,     1309,     1315,     1279,     1273
    1000,     1311,     1317,     1281,     1275,     1310,     1316,     1280,     1274
    1001,     1312,     1318,     1282,     1276,     1311,     1317,     1281,     1275
    1002,     1283,     1319,     1318,     1282,     1277,     1313,     1312,     1276
    1003,     1314,     1320,     1284,     1278,      398,      399,      350,      349
    1004,     1315,     1321,     1285,     1279,     1314,     1320,     1284,     1278
    1005,     1316,     1322,     1286,     1280,     1315,     1321,     1285,     1279
    1006,     1317,     1323,     1287,     1281,     1316,     1322,     1286,     1280
    1007,     1318,     1324,     1288,     1282,     1317,     1323,     1287,     1281
    1008,     1324,     1325,     1319,     1318,     1288,     1289,     1283,     1282
    1009,      954,     1326,     1290,      912,      442,      443,      394,      393
    1010,      955,     1327,     1291,      913,      954,     1326,     1290,      912
    1011,      956,     1328,     1292,      914,      955,     1327,     1291,      913
    1012,      957,     1329,     1293,      915,      956,     1328,     1292,      914
    1013,      958,     1330,     1294,      916,      957,     1329,     1293,      915
    1014,     1295,     1331,     1330,     1294,      917,      959,      958,      916
    1015,     1326,     1332,     1296,     1290,      443,      444,      395,      394
    1016,     1327,     1333,     1297,     1291,     1326,     1332,     1296,     1290
    1017,     1328,     1334,     1298,     1292,     1327,     1333,     1297,     1291
    1018,     1329,     1335,     1299,     1293,     1328,     1334,     1298,     1292
    1019,     1330,     1336,     1300,     1294,     1329,     1335,     1299,     1293
    1020,     1301,     1337,     1336,     1300,     1295,     1331,     1330,     1294
    1021,     1332,     1338,     1302,     1296,      444,      445,      396,      395
    1022,     1333,     1339,     1303,     1297,     1332,     1338,     1302,     1296
    1023,     1334,     1340,     1304,     1298,     1333,     1339,     1303,     1297
    1024,     1335,     1341,     1305,     1299,     1334,     1340,     1304,     1298
    1025,     1336,     1342,     1306,     1300,     1335,     1341,     1305,     1299
    1026,     1307,     1343,     1342,     1306,     1301,     1337,     1336,     1300
    1027,     1338,     1344,     1308,     1302,      445,      446,      397,      396
    1028,     1339,     1345,     1309,     1303,     1338,     1344,     1308,     1302
    1029,     1340,     1346,     1310,     1304,     1339,     1345,     1309,     1303
    1030,     1341,     1347,     1311,     1305,     1340,     1346,     1310,     1304
    1031,     1342,     1348,     1312,     1306,     1341,     1347,     1311,     1305
    1032,     1313,     1349,     1348,     1312,     1307,     1343,     1342,     1306
    1033,     1344,     1350,     1314,     1308,      446,      447,      398,      397
    1034,     1345,     1351,     1315,     1309,     1344,     1350,     1314,     1308
    1035,     1346,     1352,     1316,     1310,     1345,     1351,     1315,     1309
    1036,     1347,     1353,     1317,     1311,     1346,     1352,     1316,     1310
    1037,     1348,     1354,     1318,     1312,     1347,     1353,     1317,     1311
    1038,     1319,     1355,     1354,     1318,     1313,     1349,     1348,     1312
    1039,     1350,     1356,     1320,     1314,      447,      448,      399,      398
    1040,     1351,     1357,     1321,     1315,     1350,     1356,     1320,     1314
    1041,     1352,     1358,     1322,     1316,     1351,     1357,     1321,     1315
    1042,     1353,     1359,     1323,     1317,     1352,     1358,     1322,     1316
    1043,     1354,     1360,     1324,     1318,     1353,     1359,     1323,     1317
    1044,     1360,     1361,     1355,     1354,     1324,     1325,     1319,     1318
    1045,      996,     1362,     1326,      954,      491,      492,      443,      442
    1046,      997,     1363,     1327,      955,      996,     1362,     1326,      954
    1047,      998,     1364,     1328,      956,      997,     1363,     1327,      955
    1048,      999,     1365,     1329,      957,      998,     1364,     1328,      956
    1049,     1000,     1366,     1330,      958,      999,     1365,     1329,      957
    1050,     1331,     1367,     1366,     1330,      959,     1001,     1000,      958
    1051,     1362,     1368,     1332,     1326,      492,      493,      444,      443
    1052,     1363,     1369,     1333,     1327,     1362,     1368,     1332,     1326
    1053,     1364,     1370,     1334,     1328,     1363,     1369,     1333,     1327
    1054,     1365,     1371,     1335,     1329,     1364,     1370,     1334,     1328
    1055,     1366,     1372,     1336,     1330,     1365,     1371,     1335,     1329
    1056,     1337,     1373,     1372,     1336,     1331,     1367,     1366,     1330
    1057,     1368,     1374,     1338,     1332,      493,      494,      445,      444
    1058,     1369,     1375,     1339,     1333,     1368,     1374,     1338,     1332
    1059,     1370,     1376,     1340,     1334,     1369,     1375,     1339,     1333
    1060,     1371,     1377,     1341,     1335,     1370,     1376,     1340,     1334
    1061,     1372,     1378,     1342,     1336,     1371,     1377,     1341,     1335
    1062,     1343,     1379,     1378,     1342,     1337,     1373,     1372,     1336
    1063,     1374,     1380,     1344,     1338,      494,      495,      446,      445
    1064,     1375,     1381,     1345,     1339,     1374,     1380,     1344,     1338
    1065,     1376,     1382,     1346,     1340,     1375,     1381,     1345,     1339
    1066,     1377,     1383,     1347,     1341,     1376,     1382,     1346,     1340
    1067,     1378,     1384,     1348,     1342,     1377,     1383,     1347,     1341
    1068,     1349,     1385,     1384,     1348,     1343,     1379,     1378,     1342
    1069,     1380,     1386,     1350,     1344,      495,      496,      447,      446
    1070,     1381,     1387,     1351,     1345,     1380,     1386,     1350,     1344
    1071,     1382,     1388,     1352,     1346,     1381,     1387,     1351,     1345
    1072,     1383,     1389,     1353,     1347,     1382,     1388,     1352,     1346
    1073,     1384,     1390,     1354,     1348,     1383,     1389,     1353,     1347
    1074,     1355,     1391,     1390,     1354,     1349,     1385,     1384,     1348
    1075,     1386,     1392,     1356,     1350,      496,      497,      448,      447
    1076,     1387,     1393,     1357,     1351,     1386,     1392,     1356,     1350
    1077,     1388,     1394,     1358,     1352,     1387,     1393,     1357,     1351
    1078,     1389,     1395,     1359,     1353,     1388,     1394,     1358,     1352
    1079,     1390,     1396,     1360,     1354,     1389,     1395,     1359,     1353
    1080,     1361,     1397,     1396,     1360,     1355,     1391,     1390,     1354
    1081,     1068,     1434,     1398,     1032,       56,       63,       14,        7
    1082,     1069,     1435,     1399,     1033,     1068,     1434,     1398,     1032
    1083,     1070,     1436,     1400,     1034,     1069,     1435,     1399,     1033
    1084,     1071,     1437,     1401,     1035,     1070,     1436,     1400,     1034
    1085,     1072,     1438,     1402,     1036,     1071,     1437,     1401,     1035
    1086,     1403,     1439,     1438,     1402,     1037,     1073,     1072,     1036
    1087,     1434,     1440,     1404,     1398,       63,       70,       21,       14
    1088,     1435,     1441,     1405,     1399,     1434,     1440,     1404,     1398
    1089,     1436,     1442,     1406,     1400,     1435,     1441,     1405,     1399
    1090,     1437,     1443,     1407,     1401,     1436,     1442,     1406,     1400
    1091,     1438,     1444,     1408,     1402,     1437,     1443,     1407,     1401
    1092,     1409,     1445,     1444,     1408,     1403,     1439,     1438,     1402
    1093,     1440,     1446,     1410,     1404,       70,       77,       28,       21
    1094,     1441,     1447,     1411,     1405,     1440,     1446,     1410,     1404
    1095,     1442,     1448,     1412,     1406,     1441,     1447,     1411,     1405
    1096,     1443,     1449,     1413,     1407,     1442,     1448,     1412,     1406
    1097,     1444,     1450,     1414,     1408,     1443,     1449,     1413,     1407
    1098,     1415,     1451,     1450,     1414,     1409,     1445,     1444,     1408
    1099,     1446,     1452,     1416,     1410,       77,       84,       35,       28
    1100,     1447,     1453,     1417,     1411,     1446,     1452,     1416,     1410
    1101,     1448,     1454,     1418,     1412,     1447,     1453,     1417,     1411
    1102,     1449,     1455,     1419,     1413,     1448,     1454,     1418,     1412
    1103,     1450,     1456,     1420,     1414,     1449,     1455,     1419,     1413
    1104,     1421,     1457,     1456,     1420,     1415,     1451,     1450,     1414
    1105,     1452,     1458,     1422,     1416,       84,       91,       42,       35
    1106,     1453,     1459,     1423,     1417,     1452,     1458,     1422,     1416
    1107,     1454,     1460,     1424,     1418,     1453,     1459,     1423,     1417
    1108,     1455,     1461,     1425,     1419,     1454,     1460,     1424,     1418
    1109,     1456,     1462,     1426,     1420,     1455,     1461,     1425,     1419
    1110,     1427,     1463,     1462,     1426,     1421,     1457,     1456,     1420
    1111,     1458,     1464,     1428,     1422,       91,       98,       49,       42
    1112,     1459,     1465,     1429,     1423,     1458,     1464,     1428,     1422
    1113,     1460,     1466,     1430,     1424,     1459,     1465,     1429,     1423
    1114,     1461,     1467,     1431,     1425,     1460,     1466,     1430,     1424
    1115,     1462,     1468,     1432,     1426,     1461,     1467,     1431,     1425
    1116,     1468,     1469,     1463,     1462,     1432,     1433,     1427,     1426
    1117,     1104,     1470,     1434,     1068,      105,      112,       63,       56
    1118,     1105,     1471,     1435,     1069,     1104,     1470,     1434,     1068
    1119,     1106,     1472,     1436,     1070,     1105,     1471,     1435,     1069
    1120,     1107,     1473,     1437,     1071,     1106,     1472,     1436,     1070
    1121,     1108,     1474,     1438,     1072,     1107,     1473,     1437,     1071
    1122,     1439,     1475,     1474,     1438,     1073,     1109,     1108,     1072
    1123,     1470,     1476,     1440,     1434,      112,      119,       70,       63
    1124,     1471,     1477,     1441,     1435,     1470,     1476,     1440,     1434
    1125,     1472,     1478,     1442,     1436,     1471,     1477,     1441,     1435
    1126,     1473,     1479,     1443,     1437,     1472,     1478,     1442,     1436
    1127,     1474,     1480,     1444,     1438,     1473,     1479,     1443,     1437
    1128,     1445,     1481,     1480,     1444,     1439,     1475,     1474,     1438
    1129,     1476,     1482,     1446,     1440,      119,      126,       77,       70
    1130,     1477,     1483,     1447,     1441,     1476,     1482,     1446,     1440
    1131,     1478,     1484,     1448,     1442,     1477,     1483,     1447,     1441
    1132,     1479,     1485,     1449,     1443,     1478,     1484,     1448,     1442
    1133,     1480,     1486,     1450,     1444,     1479,     1485,     1449,     1443
    1134,     1451,     1487,     1486,     1450,     1445,     1481,     1480,     1444
    1135,     1482,     1488,     1452,     1446,      126,      133,       84,       77
    1136,     1483,     1489,     1453,     1447,     1482,     1488,     1452,     1446
    1137,     1484,     1490,     1454,     1448,     1483,     1489,     1453,     1447
    1138,     1485,     1491,     1455,     1449,     1484,     1490,     1454,     1448
    1139,     1486,     1492,     1456,     1450,     1485,     1491,     1455,     1449
    1140,     1457,     1493,     1492,     1456,     1451,     1487,     1486,     1450
    1141,     1488,     1494,     1458,     1452,      133,      140,       91,       84
    1142,     1489,     1495,     1459,     1453,     1488,     1494,     1458,     1452
    1143,     1490,     1496,     1460,     1454,     1489,     1495,     1459,     1453
    1144,     1491,     1497,     1461,     1455,     1490,     1496,     1460,     1454
    1145,     1492,     1498,     1462,     1456,     1491,     1497,     1461,     1455
    1146,     1463,     1499,     1498,     1462,     1457,     1493,     1492,     1456
    1147,     1494,     1500,     1464,     1458,      140,      147,       98,       91
    1148,     1495,     1501,     1465,     1459,     1494,     1500,     1464,     1458
    1149,     1496,     1502,     1466,     1460,     1495,     1501,     1465,     1459
    1150,     1497,     1503,     1467,     1461,     1496,     1502,     1466,     1460
    1151,     1498,     1504,     1468,     1462,     1497,     1503,     1467,     1461
    1152,     1504,     1505,     1499,     1498,     1468,     1469,     1463,     1462
    1153,     1140,     1506,     1470,     1104,      154,      161,      112,      105
    1154,     1141,     1507,     1471,     1105,     1140,     1506,     1470,     1104
    1155,     1142,     1508,     1472,     1106,     1141,     1507,     1471,     1105
    1156,     1143,     1509,     1473,     1107,     1142,     1508,     1472,     1106
    1157,     1144,     1510,     1474,     1108,     1143,     1509,     1473,     1107
    1158,     1475,     1511,     1510,     1474,     1109,     1145,     1144,     1108
    1159,     1506,     1512,     1476,     1470,      161,      168,      119,      112
    1160,     1507,     1513,     1477,     1471,     1506,     1512,     1476,     1470
    1161,     1508,     1514,     1478,     1472,     1507,     1513,     1477,     1471
    1162,     1509,     1515,     1479,     1473,     1508,     1514,     1478,     1472
    1163,     1510,     1516,     1480,     1474,     1509,     1515,     1479,     1473
    1164,     1481,     1517,     1516,     1480,     1475,     1511,     1510,     1474
    1165,     1512,     1518,     1482,     1476,      168,      175,      126,      119
    1166,     1513,     1519,     1483,     1477,     1512,     1518,     1482,     1476
    1167,     1514,     1520,     1484,     1478,     1513,     1519,     1483,     1477
    1168,     1515,     1521,     1485,     1479,     1514,     1520,     1484,     1478
    1169,     1516,     1522,     1486,     1480,     1515,     1521,     1485,     1479
    1170,     1487,     1523,     1522,     1486,     1481,     1517,     1516,     1480
    1171,     1518,     1524,     1488,     1482,      175,      182,      133,      126
    1172,     1519,     1525,     1489,     1483,     1518,     1524,     1488,     1482
    1173,     1520,     1526,     1490,     1484,     1519,     1525,     1489,     1483
    1174,     1521,     1527,     1491,     1485,     1520,     1526,     1490,     1484
    1175,     1522,     1528,     1492,     1486,     1521,     1527,     1491,     1485
    1176,     1493,     1529,     1528,     1492,     1487,     1523,     1522,     1486
    1177,     1524,     1530,     1494,     1488,      182,      189,      140,      133
    1178,     1525,     1531,     1495,     1489,     1524,     1530,     1494,     1488
    1179,     1526,     1532,     1496,     1490,     1525,     1531,     1495,     1489
    1180,     1527,     1533,     1497,     1491,     1526,     1532,     1496,     1490
    1181,     1528,     1534,     1498,     1492,     1527,     1533,     1497,     1491
    1182,     1499,     1535,     1534,     1498,     1493,     1529,     1528,     1492
    1183,     1530,     1536,     1500,     1494,      189,      196,      147,      140
    1184,     1531,     1537,     1501,     1495,     1530,     1536,     1500,     1494
    1185,     1532,     1538,     1502,     1496,     1531,     1537,     1501,     1495
    1186,     1533,     1539,     1503,     1497,     1532,     1538,     1502,     1496
    1187,     1534,     1540,     1504,     1498,     1533,     1539,     1503,     1497
    1188,     1540,     1541,     1535,     1534,     1504,     1505,     1499,     1498
    1189,     1176,     1542,     1506,     1140,      203,      210,      161,      154
    1190,     1177,     1543,     1507,     1141,     1176,     1542,     1506,     1140
    1191,     1178,     1544,     1508,     1142,     1177,     1543,     1507,     1141
    1192,     1179,     1545,     1509,     1143,     1178,     1544,     1508,     1142
    1193,     1180,     1546,     1510,     1144,     1179,     1545,     1509,     1143
    1194,     1511,     1547,     1546,     1510,     1145,     1181,     1180,     1144
    1195,     1542,     1548,     1512,     1506,      210,      217,      168,      161
    1196,     1543,     1549,     1513,     1507,     1542,     1548,     1512,     1506
    1197,     1544,     1550,     1514,     1508,     1543,     1549,     1513,     1507
    1198,     1545,     1551,     1515,     1509,     1544,     1550,     1514,     1508
    1199,     1546,     1552,     1516,     1510,     1545,     1551,     1515,     1509
    1200,     1517,     1553,     1552,     1516,     1511,     1547,     1546,     1510
    1201,     1548,     1554,     1518,     1512,      217,      224,      175,      168
    1202,     1549,     1555,     1519,     1513,     1548,     1554,     1518,     1512
    1203,     1550,     1556,     1520,     1514,     1549,     1555,     1519,     1513
    1204,     1551,     1557,     1521,     1515,     1550,     1556,     1520,     1514
    1205,     1552,     1558,     1522,     1516,     1551,     1557,     1521,     1515
    1206,     1523,     1559,     1558,     1522,     1517,     1553,     1552,     1516
    1207,     1554,     1560,     1524,     1518,      224,      231,      182,      175
    1208,     1555,     1561,     1525,     1519,     1554,     1560,     1524,     1518
    1209,     1556,     1562,     1526,     1520,     1555,     1561,     1525,     1519
    1210,     1557,     1563,     1527,     1521,     1556,     1562,     1526,     1520
    1211,     1558,     1564,     1528,     1522,     1557,     1563,     1527,     1521
    1212,     1529,     1565,     1564,     1528,     1523,     1559,     1558,     1522
    1213,     1560,     1566,     1530,     1524,      231,      238,      189,      182
    1214,     1561,     1567,     1531,     1525,     1560,     1566,     1530,     1524
    1215,     1562,     1568,     1532,     1526,     1561,     1567,     1531,     1525
    1216,     1563,     1569,     1533,     1527,     1562,     1568,     1532,     1526
    1217,     1564,     1570,     1534,     1528,     1563,     1569,     1533,     1527
    1218,     1535,     1571,     1570,     1534,     1529,     1565,     1564,     1528
    1219,     1566,     1572,     1536,     1530,      238,      245,      196,      189
    1220,     1567,     1573,     1537,     1531,     1566,     1572,     1536,     1530
    1221,     1568,     1574,     1538,     1532,     1567,     1573,     1537,     1531
    1222,     1569,     1575,     1539,     1533,     1568,     1574,     1538,     1532
    1223,     1570,     1576,     1540,     1534,     1569,     1575,     1539,     1533
    1224,     1576,     1577,     1571,     1570,     1540,     1541,     1535,     1534
    1225,     1212,     1578,     1542,     1176,      252,      259,      210,      203
    1226,     1213,     1579,     1543,     1177,     1212,     1578,     1542,     1176
    1227,     1214,     1580,     1544,     1178,     1213,     1579,     1543,     1177
    1228,     1215,     1581,     1545,     1179,     1214,     1580,     1544,     1178
    1229,     1216,     1582,     1546,     1180,     1215,     1581,     1545,     1179
    1230,     1547,     1583,     1582,     1546,     1181,     1217,     1216,     1180
    1231,     1578,     1584,     1548,     1542,      259,      266,      217,      210
    1232,     1579,     1585,     1549,     1543,     1578,     1584,     1548,     1542
    1233,     1580,     1586,     1550,     1544,     1579,     1585,     1549,     1543
    1234,     1581,     1587,     1551,     1545,     1580,     1586,     1550,     1544
    1235,     1582,     1588,     1552,     1546,     1581,     1587,     1551,     1545
    1236,     1553,     1589,     1588,     1552,     1547,     1583,     1582,     1546
    1237,     1584,     1590,     1554,     1548,      266,      273,      224,      217
    1238,     1585,     1591,     1555,     1549,     1584,     1590,     1554,     1548
    1239,     1586,     1592,     1556,     1550,     1585,     1591,     1555,     1549
    1240,     1587,     1593,     1557,     1551,     1586,     1592,     1556,     1550
    1241,     1588,     1594,     1558,     1552,     1587,     1593,     1557,     1551
    1242,     1559,     1595,     1594,     1558,     1553,     1589,     1588,     1552
    1243,     1590,     1596,     1560,     1554,      273,      280,      231,      224
    1244,     1591,     1597,     1561,     1555,     1590,     1596,     1560,     1554
    1245,     1592,     1598,     1562,     1556,     1591,     1597,     1561,     1555
    1246,     1593,     1599,     1563,     1557,     1592,     1598,     1562,     1556
    1247,     1594,     1600,     1564,     1558,     1593,     1599,     1563,     1557
    1248,     1565,     1601,     1600,     1564,     1559,     1595,     1594,     1558
    1249,     1596,     1602,     1566,     1560,      280,      287,      238,      231
    1250,     1597,     1603,     1567,     1561,     1596,     1602,     1566,     1560
    1251,     1598,     1604,     1568,     1562,     1597,     1603,     1567,     1561
    1252,     1599,     1605,     1569,     1563,     1598,     1604,     1568,     1562
    1253,     1600,     1606,     1570,     1564,     1599,     1605,     1569,     1563
    1254,     1571,     1607,     1606,     1570,     1565,     1601,     1600,     1564
    1255,     1602,     1608,     1572,     1566,      287,      294,      245,      238
    1256,     1603,     1609,     1573,     1567,     1602,     1608,     1572,     1566
    1257,     1604,     1610,     1574,     1568,     1603,     1609,     1573,     1567
    1258,     1605,     1611,     1575,     1569,     1604,     1610,     1574,     1568
    1259,     1606,     1612,     1576,     1570,     1605,     1611,     1575,     1569
    1260,     1612,     1613,     1607,     1606,     1576,     1577,     1571,     1570
    1261,     1248,     1614,     1578,     1212,      301,      308,      259,      252
    1262,     1249,     1615,     1579,     1213,     1248,     1614,     1578,     1212
    1263,     1250,     1616,     1580,     1214,     1249,     1615,     1579,     1213
    1264,     1251,     1617,     1581,     1215,     1250,     1616,     1580,     1214
    1265,     1252,     1618,     1582,     1216,     1251,     1617,     1581,     1215
    1266,     1583,     1619,     1618,     1582,     1217,     1253,     1252,     1216
    1267,     1614,     1620,     1584,     1578,      308,      315,      266,      259
    1268,     1615,     1621,     1585,     1579,     1614,     1620,     1584,     1578
    1269,     1616,     1622,     1586,     1580,     1615,     1621,     1585,     1579
    1270,     1617,     1623,     1587,     1581,     1616,     1622,     1586,     1580
    1271,     1618,     1624,     1588,     1582,     1617,     1623,     1587,     1581
    1272,     1589,     1625,     1624,     1588,     1583,     1619,     1618,     1582
    1273,     1620,     1626,     1590,     1584,      315,      322,      273,      266
    1274,     1621,     1627,     1591,     1585,     1620,     1626,     1590,     1584
    1275,     1622,     1628,     1592,     1586,     1621,     1627,     1591,     1585
    1276,     1623,     1629,     1593,     1587,     1622,     1628,     1592,     1586
    1277,     1624,     1630,     1594,     1588,     1623,     1629,     1593,     1587
    1278,     1595,     1631,     1630,     1594,     1589,     1625,     1624,     1588
    1279,     1626,     1632,     1596,     1590,      322,      329,      280,      273
    1280,     1627,     1633,     1597,     1591,     1626,     1632,     1596,     1590
    1281,     1628,     1634,     1598,     1592,     1627,     1633,     1597,     1591
    1282,     1629,     1635,     1599,     1593,     1628,     1634,     1598,     1592
    1283,     1630,     1636,     1600,     1594,     1629,     1635,     1599,     1593
    1284,     1601,     1637,     1636,     1600,     1595,     1631,     1630,     1594
    1285,     1632,     1638,     1602,     1596,      329,      336,      287,      280
    1286,     1633,     1639,     1603,     1597,     1632,     1638,     1602,     1596
    1287,     1634,     1640,     1604,     1598,     1633,     1639,     1603,     1597
    1288,     1635,     1641,     1605,     1599,     1634,     1640,     1604,     1598
    1289,     1636,     1642,     1606,     1600,     1635,     1641,     1605,     1599
    1290,     1607,     1643,     1642,     1606,     1601,     1637,     1636,     1600
    1291,     1638,     1644,     1608,     1602,      336,      343,      294,      287
    1292,     1639,     1645,     1609,     1603,     1638,     1644,     1608,     1602
    1293,     1640,     1646,     1610,     1604,     1639,     1645,     1609,     1603
    1294,     1641,     1647,     1611,     1605,     1640,     1646,     1610,     1604
    1295,     1642,     1648,     1612,     1606,     1641,     1647,     1611,     1605
    1296,     1648,     1649,     1643,     1642,     1612,     1613,     1607,     1606
    1297,     1284,     1650,     1614,     1248,      350,      357,      308,      301
    1298,     1285,     1651,     1615,     1249,     1284,     1650,     1614,     1248
    1299,     1286,     1652,     1616,     1250,     1285,     1651,     1615,     1249
    1300,     1287,     1653,     1617,     1251,     1286,     1652,     1616,     1250
    1301,     1288,     1654,     1618,     1252,     1287,     1653,     1617,     1251
    1302,     1619,     1655,     1654,     1618,     1253,     1289,     1288,     1252
    1303,     1650,     1656,     1620,     1614,      357,      364,      315,      308
    1304,     1651,     1657,     1621,     1615,     1650,     1656,     1620,     1614
    1305,     1652,     1658,     1622,     1616,     1651,     1657,     1621,     1615
    1306,     1653,     1659,     1623,     1617,     1652,     1658,     1622,     1616
    1307,     1654,     1660,     1624,     1618,     1653,     1659,     1623,     1617
    1308,     1625,     1661,     1660,     1624,     1619,     1655,     1654,     1618
    1309,     1656,     1662,     1626,     1620,      364,      371,      322,      315
    1310,     1657,     1663,     1627,     1621,     1656,     1662,     1626,     1620
    1311,     1658,     1664,     1628,     1622,     1657,     1663,     1627,     1621
    1312,     1659,     1665,     1629,     1623,     1658,     1664,     1628,     1622
    1313,     1660,     1666,     1630,     1624,     1659,     1665,     1629,     1623
    1314,     1631,     1667,     1666,     1630,     1625,     1661,     1660,     1624
    1315,     1662,     1668,     1632,     1626,      371,      378,      329,      322
    1316,     1663,     1669,     1633,     1627,     1662,     1668,     1632,     1626
    1317,     1664,     1670,     1634,     1628,     1663,     1669,     1633,     1627
    1318,     1665,     1671,     1635,     1629,     1664,     1670,     1634,     1628
    1319,     1666,     1672,     1636,     1630,     1665,     1671,     1635,     1629
    1320,     1637,     1673,     1672,     1636,     1631,     1667,     1666,     1630
    1321,     1668,     1674,     1638,     1632,      378,      385,      336,      329
    1322,     1669,     1675,     1639,     1633,     1668,     1674,     1638,     1632
    1323,     1670,     1676,     1640,     1634,     1669,     1675,     1639,     1633
    1324,     1671,     1677,     1641,     1635,     1670,     1676,     1640,     1634
    1325,     1672,     1678,     1642,     1636,     1671,     1677,     1641,     1635
    1326,     1643,     1679,     1678,     1642,     1637,     1673,     1672,     1636
    1327,     1674,     1680,     1644,     1638,      385,      392,      343,      336
    1328,     1675,     1681,     1645,     1639,     1674,     1680,     1644,     1638
    1329,     1676,     1682,     1646,     1640,     1675,     1681,     1645,     1639
    1330,     1677,     1683,     1647,     1641,     1676,     1682,     1646,     1640
    1331,     1678,     1684,     1648,     1642,     1677,     1683,     1647,     1641
    1332,     1684,     1685,     1679,     1678,     1648,     1649,     1643,     1642
    1333,     1320,     1686,     1650,     1284,      399,      406,      357,      350
    1334,     1321,     1687,     1651,     1285,     1320,     1686,     1650,     1284
    1335,     1322,     1688,     1652,     1286,     1321,     1687,     1651,     1285
    1336,     1323,     1689,     1653,     1287,     1322,     1688,     1652,     1286
    1337,     1324,     1690,     1654,     1288,     1323,     1689,     1653,     1287
    1338,     1655,     1691,     1690,     1654,     1289,     1325,     1324,     1288
    1339,     1686,     1692,     1656,     1650,      406,      413,      364,      357
    1340,     1687,     1693,     1657,     1651,     1686,     1692,     1656,     1650
    1341,     1688,     1694,     1658,     1652,     1687,     1693,     1657,     1651
    1342,     1689,     1695,     1659,     1653,     1688,     1694,     1658,     1652
    1343,     1690,     1696,     1660,     1654,     1689,     1695,     1659,     1653
    1344,     1661,     1697,     1696,     1660,     1655,     1691,     1690,     1654
    1345,     1692,     1698,     1662,     1656,      413,      420,      371,      364
    1346,     1693,     1699,     1663,     1657,     1692,     1698,     1662,     1656
    1347,     1694,     1700,     1664,     1658,     1693,     1699,     1663,     1657
    1348,     1695,     1701,     1665,     1659,     1694,     1700,     1664,     1658
    1349,     1696,     1702,     1666,     1660,     1695,     1701,     1665,     1659
    1350,     1667,     1703,     1702,     1666,     1661,     1697,     1696,     1660
    1351,     1698,     1704,     1668,     1662,      420,      427,      378,      371
    1352,     1699,     1705,     1669,     1663,     1698,     1704,     1668,     1662
    1353,     1700,     1706,     1670,     1664,     1699,     1705,     1669,     1663
    1354,     1701,     1707,     1671,     1665,     1700,     1706,     1670,     1664
    1355,     1702,     1708,     1672,     1666,     1701,     1707,     1671,     1665
    1356,     1673,     1709,     1708,     1672,     1667,     1703,     1702,     1666
    1357,     1704,     1710,     1674,     1668,      427,      434,      385,      378
    1358,     1705,     1711,     1675,     1669,     1704,     1710,     1674,     1668
    1359,     1706,     1712,     1676,     1670,     1705,     1711,     1675,     1669
    1360,     1707,     1713,     1677,     1671,     1706,     1712,     1676,     1670
    1361,     1708,     1714,     1678,     1672,     1707,     1713,     1677,     1671
    1362,     1679,     1715,     1714,     1678,     1673,     1709,     1708,     1672
    1363,     1710,     1716,     1680,     1674,      434,      441,      392,      385
    1364,     1711,     1717,     1681,     1675,     1710,     1716,     1680,     1674
    1365,     1712,     1718,     1682,     1676,     1711,     1717,     1681,     1675
    1366,     1713,     1719,     1683,     1677,     1712,     1718,     1682,     1676
    1367,     1714,     1720,     1684,     1678,     1713,     1719,     1683,     1677
    1368,     1720,     1721,     1715,     1714,     1684,     1685,     1679,     1678
    1369,     1356,     1722,     1686,     1320,      448,      455,      406,      399
    1370,     1357,     1723,     1687,     1321,     1356,     1722,     1686,     1320
    1371,     1358,     1724,     1688,     1322,     1357,     1723,     1687,     1321
    1372,     1359,     1725,     1689,     1323,     1358,     1724,     1688,     1322
    1373,     1360,     1726,     1690,     1324,     1359,     1725,     1689,     1323
    1374,     1691,     1727,     1726,     1690,     1325,     1361,     1360,     1324
    1375,     1722,     1728,     1692,     1686,      455,      462,      413,      406
    1376,     1723,     1729,     1693,     1687,     1722,     1728,     1692,     1686
    1377,     1724,     1730,     1694,     1688,     1723,     1729,     1693,     1687
    1378,     1725,     1731,     1695,     1689,     1724,     1730,     1694,     1688
    1379,     1726,     1732,     1696,     1690,     1725,     1731,     1695,     1689
    1380,     1697,     1733,     1732,     1696,     1691,     1727,     1726,     1690
    1381,     1728,     1734,     1698,     1692,      462,      469,      420,      413
    1382,     1729,     1735,     1699,     1693,     1728,     1734,     1698,     1692
    1383,     1730,     1736,     1700,     1694,     1729,     1735,     1699,     1693
    1384,     1731,     1737,     1701,     1695,     1730,     1736,     1700,     1694
    1385,     1732,     1738,     1702,     1696,     1731,     1737,     1701,     1695
    1386,     1703,     1739,     1738,     1702,     1697,     1733,     1732,     1696
    1387,     1734,     1740,     1704,     1698,      469,      476,      427,      420
    1388,     1735,     1741,     1705,     1699,     1734,     1740,     1704,     1698
    1389,     1736,     1742,     1706,     1700,     1735,     1741,     1705,     1699
    1390,     1737,     1743,     1707,     1701,     1736,     1742,     1706,     1700
    1391,     1738,     1744,     1708,     1702,     1737,     1743,     1707,     1701
    1392,     1709,     1745,     1744,     1708,     1703,     1739,     1738,     1702
    1393,     1740,     1746,     1710,     1704,      476,      483,      434,      427
    1394,     1741,     1747,     1711,     1705,     1740,     1746,     1710,     1704
    1395,     1742,     1748,     1712,     1706,     1741,     1747,     1711,     1705
    1396,     1743,     1749,     1713,     1707,     1742,     1748,     1712,     1706
    1397,     1744,     1750,     1714,     1708,     1743,     1749,     1713,     1707
    1398,     1715,     1751,     1750,     1714,     1709,     1745,     1744,     1708
    1399,     1746,     1752,     1716,     1710,      483,      490,      441,      434
    1400,     1747,     1753,     1717,     1711,     1746,     1752,     1716,     1710
    1401,     1748,     1754,     1718,     1712,     1747,     1753,     1717,     1711
    1402,     1749,     1755,     1719,     1713,     1748,     1754,     1718,     1712
    1403,     1750,     1756,     1720,     1714,     1749,     1755,     1719,     1713
    1404,     1756,     1757,     1751,     1750,     1720,     1721,     1715,     1714
    1405,     1392,     1758,     1722,     1356,      497,      504,      455,      448
    1406,     1393,     1759,     1723,     1357,     1392,     1758,     1722,     1356
    1407,     1394,     1760,     1724,     1358,     1393,     1759,     1723,     1357
    1408,     1395,     1761,     1725,     1359,     1394,     1760,     1724,     1358
    1409,     1396,     1762,     1726,     1360,     1395,     1761,     1725,     1359
    1410,     1727,     1763,     1762,     1726,     1361,     1397,     1396,     1360
    1411,     1758,     1764,     1728,     1722,      504,      511,      462,      455
    1412,     1759,     1765,     1729,     1723,     1758,     1764,     1728,     1722
    1413,     1760,     1766,     1730,     1724,     1759,     1765,     1729,     1723
    1414,     1761,     1767,     1731,     1725,     1760,     1766,     1730,     1724
    1415,     1762,     1768,     1732,     1726,     1761,     1767,     1731,     1725
    1416,     1733,     1769,     1768,     1732,     1727,     1763,     1762,     1726
    1417,     1764,     1770,     1734,     1728,      511,      518,      469,      462
    1418,     1765,     1771,     1735,     1729,     1764,     1770,     1734,     1728
    1419,     1766,     1772,     1736,     1730,     1765,     1771,     1735,     1729
    1420,     1767,     1773,     1737,     1731,     1766,     1772,     1736,     1730
    1421,     1768,     1774,     1738,     1732,     1767,     1773,     1737,     1731
    1422,     1739,     1775,     1774,     1738,     1733,     1769,     1768,     1732
    1423,     1770,     1776,     1740,     1734,      518,      525,      476,      469
    1424,     1771,     1777,     1741,     1735,     1770,     1776,     1740,     1734
    1425,     1772,     1778,     1742,     1736,     1771,     1777,     1741,     1735
    1426,     1773,     1779,     1743,     1737,     1772,     1778,     1742,     1736
    1427,     1774,     1780,     1744,     1738,     1773,     1779,     1743,     1737
    1428,     1745,     1781,     1780,     1744,     1739,     1775,     1774,     1738
    1429,     1776,     1782,     1746,     1740,      525,      532,      483,      476
    1430,     1777,     1783,     1747,     1741,     1776,     1782,     1746,     1740
    1431,     1778,     1784,     1748,     1742,     1777,     1783,     1747,     1741
    1432,     1779,     1785,     1749,     1743,     1778,     1784,     1748,     1742
    1433,     1780,     1786,     1750,     1744,     1779,     1785,     1749,     1743
    1434,     1751,     1787,     1786,     1750,     1745,     1781,     1780,     1744
    1435,     1782,     1788,     1752,     1746,      532,      539,      490,      483
    1436,     1783,     1789,     1753,     1747,     1782,     1788,     1752,     1746
    1437,     1784,     1790,     1754,     1748,     1783,     1789,     1753,     1747
    1438,     1785,     1791,     1755,     1749,     1784,     1790,     1754,     1748
    1439,     1786,     1792,     1756,     1750,     1785,     1791,     1755,     1749
    1440,     1757,     1793,     1792,     1756,     1751,     1787,     1786,     1750
    1441,     1464,     1824,     1794,     1428,       98,       97,       48,       49
    1442,     1465,     1825,     1795,     1429,     1464,     1824,     1794,     1428
    1443,     1466,     1826,     1796,     1430,     1465,     1825,     1795,     1429
    1444,     1467,     1827,     1797,     1431,     1466,     1826,     1796,     1430
    1445,     1468,     1828,     1798,     1432,     1467,     1827,     1797,     1431
    1446,     1799,     1829,     1828,     1798,     1433,     1469,     1468,     1432
    1447,     1824,     1830,     1800,     1794,       97,       96,       47,       48
    1448,     1825,     1831,     1801,     1795,     1824,     1830,     1800,     1794
    1449,     1826,     1832,     1802,     1796,     1825,     1831,     1801,     1795
    1450,     1827,     1833,     1803,     1797,     1826,     1832,     1802,     1796
    1451,     1828,     1834,     1804,     1798,     1827,     1833,     1803,     1797
    1452,     1805,     1835,     1834,     1804,     1799,     1829,     1828,     1798
    1453,     1830,     1836,     1806,     1800,       96,       95,       46,       47
    1454,     1831,     1837,     1807,     1801,     1830,     1836,     1806,     1800
    1455,     1832,     1838,     1808,     1802,     1831,     1837,     1807,     1801
    1456,     1833,     1839,     1809,     1803,     1832,     1838,     1808,     1802
    1457,     1834,     1840,     1810,     1804,     1833,     1839,     1809,     1803
    1458,     1811,     1841,     1840,     1810,     1805,     1835,     1834,     1804
    1459,     1836,     1842,     1812,     1806,       95,       94,       45,       46
    1460,     1837,     1843,     1813,     1807,     1836,     1842,     1812,     1806
    1461,     1838,     1844,     1814,     1808,     1837,     1843,     1813,     1807
    1462,     1839,     1845,     1815,     1809,     1838,     1844,     1814,     1808
    1463,     1840,     1846,     1816,     1810,     1839,     1845,     1815,     1809
    1464,     1817,     1847,     1846,     1816,     1811,     1841,     1840,     1810
    1465,     1842,     1848,     1818,     1812,       94,       93,       44,       45
    1466,     1843,     1849,     1819,     1813,     1842,     1848,     1818,     1812
    1467,     1844,     1850,     1820,     1814,     1843,     1849,     1819,     1813
    1468,     1845,     1851,     1821,     1815,     1844,     1850,     1820,     1814
    1469,     1846,     1852,     1822,     1816,     1845,     1851,     1821,     1815
    1470,     1823,     1853,     1852,     1822,     1817,     1847,     1846,     1816
    1471,     1848,      582,      540,     1818,       93,       92,       43,       44
    1472,     1849,      583,      541,     1819,     1848,      582,      540,     1818
    1473,     1850,      584,      542,     1820,     1849,      583,      541,     1819
    1474,     1851,      585,      543,     1821,     1850,      584,      542,     1820
    1475,     1852,      586,      544,     1822,     1851,      585,      543,     1821
    1476,      586,      587,     1853,     1852,      544,      545,     1823,     1822
    1477,     1500,     1854,     1824,     1464,      147,      146,       97,       98
    1478,     1501,     1855,     1825,     1465,     1500,     1854,     1824,     1464
    1479,     1502,     1856,     1826,     1466,     1501,     1855,     1825,     1465
    1480,     1503,     1857,     1827,     1467,     1502,     1856,     1826,     1466
    1481,     1504,     1858,     1828,     1468,     1503,     1857,     1827,     1467
    1482,     1829,     1859,     1858,     1828,     1469,     1505,     1504,     1468
    1483,     1854,     1860,     1830,     1824,      146,      145,       96,       97
    1484,     1855,     1861,     1831,     1825,     1854,     1860,     1830,     1824
    1485,     1856,     1862,     1832,     1826,     1855,     1861,     1831,     1825
    1486,     1857,     1863,     1833,     1827,     1856,     1862,     1832,     1826
    1487,     1858,     1864,     1834,     1828,     1857,     1863,     1833,     1827
    1488,     1835,     1865,     1864,     1834,     1829,     1859,     1858,     1828
    1489,     1860,     1866,     1836,     1830,      145,      144,       95,       96
    1490,     1861,     1867,     1837,     1831,     1860,     1866,     1836,     1830
    1491,     1862,     1868,     1838,     1832,     1861,     1867,     1837,     1831
    1492,     1863,     1869,     1839,     1833,     1862,     1868,     1838,     1832
    1493,     1864,     1870,     1840,     1834,     1863,     1869,     1839,     1833
    1494,     1841,     1871,     1870,     1840,     1835,     1865,     1864,     1834
    1495,     1866,     1872,     1842,     1836,      144,      143,       94,       95
    1496,     1867,     1873,     1843,     1837,     1866,     1872,     1842,     1836
    1497,     1868,     1874,     1844,     1838,     1867,     1873,     1843,     1837
    1498,     1869,     1875,     1845,     1839,     1868,     1874,     1844,     1838
    1499,     1870,     1876,     1846,     1840,     1869,     1875,     1845,     1839
    1500,     1847,     1877,     1876,     1846,     1841,     1871,     1870,     1840
    1501,     1872,     1878,     1848,     1842,      143,      142,       93,       94
    1502,     1873,     1879,     1849,     1843,     1872,     1878,     1848,     1842
    1503,     1874,     1880,     1850,     1844,     1873,     1879,     1849,     1843
    1504,     1875,     1881,     1851,     1845,     1874,     1880,     1850,     1844
    1505,     1876,     1882,     1852,     1846,     1875,     1881,     1851,     1845
    1506,     1853,     1883,     1882,     1852,     1847,     1877,     1876,     1846
    1507,     1878,      624,      582,     1848,      142,      141,       92,       93
    1508,     1879,      625,      583,     1849,     1878,      624,      582,     1848
    1509,     1880,      626,      584,     1850,     1879,      625,      583,     1849
    1510,     1881,      627,      585,     1851,     1880,      626,      584,     1850
    1511,     1882,      628,      586,     1852,     1881,      627,      585,     1851
    1512,      628,      629,     1883,     1882,      586,      587,     1853,     1852
    1513,     1536,     1884,     1854,     1500,      196,      195,      146,      147
    1514,     1537,     1885,     1855,     1501,     1536,     1884,     1854,     1500
    1515,     1538,     1886,     1856,     1502,     1537,     1885,     1855,     1501
    1516,     1539,     1887,     1857,     1503,     1538,     1886,     1856,     1502
    1517,     1540,     1888,     1858,     1504,     1539,     1887,     1857,     1503
    1518,     1859,     1889,     1888,     1858,     1505,     1541,     1540,     1504
    1519,     1884,     1890,     1860,     1854,      195,      194,      145,      146
    1520,     1885,     1891,     1861,     1855,     1884,     1890,     1860,     1854
    1521,     1886,     1892,     1862,     1856,     1885,     1891,     1861,     1855
    1522,     1887,     1893,     1863,     1857,     1886,     1892,     1862,     1856
    1523,     1888,     1894,     1864,     1858,     1887,     1893,     1863,     1857
    1524,     1865,     1895,     1894,     1864,     1859,     1889,     1888,     1858
    1525,     1890,     1896,     1866,     1860,      194,      193,      144,      145
    1526,     1891,     1897,     1867,     1861,     1890,     1896,     1866,     1860
    1527,     1892,     1898,     1868,     1862,     1891,     1897,     1867,     1861
    1528,     1893,     1899,     1869,     1863,     1892,     1898,     1868,     1862
    1529,     1894,     1900,     1870,     1864,     1893,     1899,     1869,     1863
    1530,     1871,     1901,     1900,     1870,     1865,     1895,     1894,     1864
    1531,     1896,     1902,     1872,     1866,      193,      192,      143,      144
    1532,     1897,     1903,     1873,     1867,     1896,     1902,     1872,     1866
    1533,     1898,     1904,     1874,     1868,     1897,     1903,     1873,     1867
    1534,     1899,     1905,     1875,     1869,     1898,     1904,     1874,     1868
    1535,     1900,     1906,     1876,     1870,     1899,     1905,     1875,     1869
    1536,     1877,     1907,     1906,     1876,     1871,     1901,     1900,     1870
    1537,     1902,     1908,     1878,     1872,      192,      191,      142,      143
    1538,     1903,     1909,     1879,     1873,     1902,     1908,     1878,     1872
    1539,     1904,     1910,     1880,     1874,     1903,     1909,     1879,     1873
    1540,     1905,     1911,     1881,     1875,     1904,     1910,     1880,     1874
    1541,     1906,     1912,     1882,     1876,     1905,     1911,     1881,     1875
    1542,     1883,     1913,     1912,     1882,     1877,     1907,     1906,     1876
    1543,     1908,      666,      624,     1878,      191,      190,      141,      142
    1544,     1909,      667,      625,     1879,     1908,      666,      624,     1878
    1545,     1910,      668,      626,     1880,     1909,      667,      625,     1879
    1546,     1911,      669,      627,     1881,     1910,      668,      626,     1880
    1547,     1912,      670,      628,     1882,     1911,      669,      627,     1881
    1548,      670,      671,     1913,     1912,      628,      629,     1883,     1882
    1549,     1572,     1914,     1884,     1536,      245,      244,      195,      196
    1550,     1573,     1915,     1885,     1537,     1572,     1914,     1884,     1536
    1551,     1574,     1916,     1886,     1538,     1573,     1915,     1885,     1537
    1552,     1575,     1917,     1887,     1539,     1574,     1916,     1886,     1538
    1553,     1576,     1918,     1888,     1540,     1575,     1917,     1887,     1539
    1554,     1889,     1919,     1918,     1888,     1541,     1577,     1576,     1540
    1555,     1914,     1920,     1890,     1884,      244,      243,      194,      195
    1556,     1915,     1921,     1891,     1885,     1914,     1920,     1890,     1884
    1557,     1916,     1922,     1892,     1886,     1915,     1921,     1891,     1885
    1558,     1917,     1923,     1893,     1887,     1916,     1922,     1892,     1886
    1559,     1918,     1924,     1894,     1888,     1917,     1923,     1893,     1887
    1560,     1895,     1925,     1924,     1894,     1889,     1919,     1918,     1888
    1561,     1920,     1926,     1896,     1890,      243,      242,      193,      194
    1562,     1921,     1927,     1897,     1891,     1920,     1926,     1896,     1890
    1563,     1922,     1928,     1898,     1892,     1921,     1927,     1897,     1891
    1564,     1923,     1929,     1899,     1893,     1922,     1928,     1898,     1892
    1565,     1924,     1930,     1900,     1894,     1923,     1929,     1899,     1893
    1566,     1901,     1931,     1930,     1900,     1895,     1925,     1924,     1894
    1567,     1926,     1932,     1902,     1896,      242,      241,      192,      193
    1568,     1927,     1933,     1903,     1897,     1926,     1932,     1902,     1896
    1569,     1928,     1934,     1904,     1898,     1927,     1933,     1903,     1897
    1570,     1929,     1935,     1905,     1899,     1928,     1934,     1904,     1898
    1571,     1930,     1936,     1906,     1900,     1929,     1935,     1905,     1899
    1572,     1907,     1937,     1936,     1906,     1901,     1931,     1930,     1900
    1573,     1932,     1938,     1908,     1902,      241,      240,      191,      192
    1574,     1933,     1939,     1909,     1903,     1932,     1938,     1908,     1902
    1575,     1934,     1940,     1910,     1904,     1933,     1939,     1909,     1903
    1576,     1935,     1941,     1911,     1905,     1934,     1940,     1910,     1904
    1577,     1936,     1942,     1912,     1906,     1935,     1941,     1911,     1905
    1578,     1913,     1943,     1942,     1912,     1907,     1937,     1936,     1906
    1579,     1938,      708,      666,     1908,      240,      239,      190,      191
    1580,     1939,      709,      667,     1909,     1938,      708,      666,     1908
    1581,     1940,      710,      668,     1910,     1939,      709,      667,     1909
    1582,     1941,      711,      669,     1911,     1940,      710,      668,     1910
    1583,     1942,      712,      670,     1912,     1941,      711,      669,     1911
    1584,      712,      713,     1943,     1942,      670,      671,     1913,     1912
    1585,     1608,     1944,     1914,     1572,      294,      293,      244,      245
    1586,     1609,     1945,     1915,     1573,     1608,     1944,     1914,     1572
    1587,     1610,     1946,     1916,     1574,     1609,     1945,     1915,     1573
    1588,     1611,     1947,     1917,     1575,     1610,     1946,     1916,     1574
    1589,     1612,     1948,     1918,     1576,     1611,     1947,     1917,     1575
    1590,     1919,     1949,     1948,     1918,     1577,     1613,     1612,     1576
    1591,     1944,     1950,     1920,     1914,      293,      292,      243,      244
    1592,     1945,     1951,     1921,     1915,     1944,     1950,     1920,     1914
    1593,     1946,     1952,     1922,     1916,     1945,     1951,     1921,     1915
    1594,     1947,     1953,     1923,     1917,     1946,     1952,     1922,     1916
    1595,     1948,     1954,     1924,     1918,     1947,     1953,     1923,     1917
    1596,     1925,     1955,     1954,     1924,     1919,     1949,     1948,     1918
    1597,     1950,     1956,     1926,     1920,      292,      291,      242,      243
    1598,     1951,     1957,     1927,     1921,     1950,     1956,     1926,     1920
    1599,     1952,     1958,     1928,     1922,     1951,     1957,     1927,     1921
    1600,     1953,     1959,     1929,     1923,     1952,     1958,     1928,     1922
    1601,     1954,     1960,     1930,     1924,     1953,     1959,     1929,     1923
    1602,     1931,     1961,     1960,     1930,     1925,     1955,     1954,     1924
    1603,     1956,     1962,     1932,     1926,      291,      290,      241,      242
    1604,     1957,     1963,     1933,     1927,     1956,     1962,     1932,     1926
    1605,     1958,     1964,     1934,     1928,     1957,     1963,     1933,     1927
    1606,     1959,     1965,     1935,     1929,     1958,     1964,     1934,     1928
    1607,     1960,     1966,     1936,     1930,     1959,     1965,     1935,     1929
    1608,     1937,     1967,     1966,     1936,     1931,     1961,     1960,     1930
    1609,     1962,     1968,     1938,     1932,      290,      289,      240,      241
    1610,     1963,     1969,     1939,     1933,     1962,     1968,     1938,     1932
    1611,     1964,     1970,     1940,     1934,     1963,     1969,     1939,     1933
    1612,     1965,     1971,     1941,     1935,     1964,     1970,     1940,     1934
    1613,     1966,     1972,     1942,     1936,     1965,     1971,     1941,     1935
    1614,     1943,     1973,     1972,     1942,     1937,     1967,     1966,     1936
    1615,     1968,      750,      708,     1938,      289,      288,      239,      240
    1616,     1969,      751,      709,     1939,     1968,      750,      708,     1938
    1617,     1970,      752,      710,     1940,     1969,      751,      709,     1939
    1618,     1971,      753,      711,     1941,     1970,      752,      710,     1940
    1619,     1972,      754,      712,     1942,     1971,      753,      711,     1941
    1620,      754,      755,     1973,     1972,      712,      713,     1943,     1942
    1621,     1644,     1974,     1944,     1608,      343,      342,      293,      294
    1622,     1645,     1975,     1945,     1609,     1644,     1974,     1944,     1608
    1623,     1646,     1976,     1946,     1610,     1645,     1975,     1945,     1609
    1624,     1647,     1977,     1947,     1611,     1646,     1976,     1946,     1610
    1625,     1648,     1978,     1948,     1612,     1647,     1977,     1947,     1611
    1626,     1949,     1979,     1978,     1948,     1613,     1649,     1648,     1612
    1627,     1974,     1980,     1950,     1944,      342,      341,      292,      293
    1628,     1975,     1981,     1951,     1945,     1974,     1980,     1950,     1944
    1629,     1976,     1982,     1952,     1946,     1975,     1981,     1951,     1945
    1630,     1977,     1983,     1953,     1947,     1976,     1982,     1952,     1946
    1631,     1978,     1984,     1954,     1948,     1977,     1983,     1953,     1947
    1632,     1955,     1985,     1984,     1954,     1949,     1979,     1978,     1948
    1633,     1980,     1986,     1956,     1950,      341,      340,      291,      292
    1634,     1981,     1987,     1957,     1951,     1980,     1986,     1956,     1950
    1635,     1982,     1988,     1958,     1952,     1981,     1987,     1957,     1951
    1636,     1983,     1989,     1959,     1953,     1982,     1988,     1958,     1952
    1637,     1984,     1990,     1960,     1954,     1983,     1989,     1959,     1953
    1638,     1961,     1991,     1990,     1960,     1955,     1985,     1984,     1954
    1639,     1986,     1992,     1962,     1956,      340,      339,      290,      291
    1640,     1987,     1993,     1963,     1957,     1986,     1992,     1962,     1956
    1641,     1988,     1994,     1964,     1958,     1987,     1993,     1963,     1957
    1642,     1989,     1995,     1965,     1959,     1988,     1994,     1964,     1958
    1643,     1990,     1996,     1966,     1960,     1989,     1995,     1965,     1959
    1644,     1967,     1997,     1996,     1966,     1961,     1991,     1990,     1960
    1645,     1992,     1998,     1968,     1962,      339,      338,      289,      290
    1646,     1993,     1999,     1969,     1963,     1992,     1998,     1968,     1962
    1647,     1994,     2000,     1970,     1964,     1993,     1999,     1969,     1963
    1648,     1995,     2001,     1971,     1965,     1994,     2000,     1970,     1964
    1649,     1996,     2002,     1972,     1966,     1995,     2001,     1971,     1965
    1650,     1973,     2003,     2002,     1972,     1967,     1997,     1996,     1966
    1651,     1998,      792,      750,     1968,      338,      337,      288,      289
    1652,     1999,      793,      751,     1969,     1998,      792,      750,     1968
    1653,     2000,      794,      752,     1970,     1999,      793,      751,     1969
    1654,     2001,      795,      753,     1971,     2000,      794,      752,     1970
    1655,     2002,      796,      754,     1972,     2001,      795,      753,     1971
    1656,      796,      797,     2003,     2002,      754,      755,     1973,     1972
    1657,     1680,     2004,     1974,     1644,      392,      391,      342,      343
    1658,     1681,     2005,     1975,     1645,     1680,     2004,     1974,     1644
    1659,     1682,     2006,     1976,     1646,     1681,     2005,     1975,     1645
    1660,     1683,     2007,     1977,     1647,     1682,     2006,     1976,     1646
    1661,     1684,     2008,     1978,     1648,     1683,     2007,     1977,     1647
    1662,     1979,     2009,     2008,     1978,     1649,     1685,     1684,     1648
    1663,     2004,     2010,     1980,     1974,      391,      390,      341,      342
    1664,     2005,     2011,     1981,     1975,     2004,     2010,     1980,     1974
    1665,     2006,     2012,     1982,     1976,     2005,     2011,     1981,     1975
    1666,     2007,     2013,     1983,     1977,     2006,     2012,     1982,     1976
    1667,     2008,     2014,     1984,     1978,     2007,     2013,     1983,     1977
    1668,     1985,     2015,     2014,     1984,     1979,     2009,     2008,     1978
    1669,     2010,     2016,     1986,     1980,      390,      389,      340,      341
    1670,     2011,     2017,     1987,     1981,     2010,     2016,     1986,     1980
    1671,     2012,     2018,     1988,     1982,     2011,     2017,     1987,     1981
    1672,     2013,     2019,     1989,     1983,     2012,     2018,     1988,     1982
    1673,     2014,     2020,     1990,     1984,     2013,     2019,     1989,     1983
    1674,     1991,     2021,     2020,     1990,     1985,     2015,     2014,     1984
    1675,     2016,     2022,     1992,     1986,      389,      388,      339,      340
    1676,     2017,     2023,     1993,     1987,     2016,     2022,     1992,     1986
    1677,     2018,     2024,     1994,     1988,     2017,     2023,     1993,     1987
    1678,     2019,     2025,     1995,     1989,     2018,     2024,     1994,     1988
    1679,     2020,     2026,     1996,     1990,     2019,     2025,     1995,     1989
    1680,     1997,     2027,     2026,     1996,     1991,     2021,     2020,     1990
    1681,     2022,     2028,     1998,     1992,      388,      387,      338,      339
    1682,     2023,     2029,     1999,     1993,     2022,     2028,     1998,     1992
    1683,     2024,     2030,     2000,     1994,     2023,     2029,     1999,     1993
    1684,     2025,     2031,     2001,     1995,     2024,     2030,     2000,     1994
    1685,     2026,     2032,     2002,     1996,     2025,     2031,     2001,     1995
    1686,     2003,     2033,     2032,     2002,     1997,     2027,     2026,     1996
    1687,     2028,      834,      792,     1998,      387,      386,      337,      338
    1688,     2029,      835,      793,     1999,     2028,      834,      792,     1998
    1689,     2030,      836,      794,     2000,     2029,      835,      793,     1999
    1690,     2031,      837,      795,     2001,     2030,      836,      794,     2000
    1691,     2032,      838,      796,     2002,     2031,      837,      795,     2001
    1692,      838,      839,     2033,     2032,      796,      797,     2003,     2002
    1693,     1716,     2034,     2004,     1680,      441,      440,      391,      392
    1694,     1717,     2035,     2005,     1681,     1716,     2034,     2004,     1680
    1695,     1718,     2036,     2006,     1682,     1717,     2035,     2005,     1681
    1696,     1719,     2037,     2007,     1683,     1718,     2036,     2006,     1682
    1697,     1720,     2038,     2008,     1684,     1719,     2037,     2007,     1683
    1698,     2009,     2039,     2038,     2008,     1685,     1721,     1720,     1684
    1699,     2034,     2040,     2010,     2004,      440,      439,      390,      391
    1700,     2035,     2041,     2011,     2005,     2034,     2040,     2010,     2004
    1701,     2036,     2042,     2012,     2006,     2035,     2041,     2011,     2005
    1702,     2037,     2043,     2013,     2007,     2036,     2042,     2012,     2006
    1703,     2038,     2044,     2014,     2008,     2037,     2043,     2013,     2007
    1704,     2015,     2045,     2044,     2014,     2009,     2039,     2038,     2008
    1705,     2040,     2046,     2016,     2010,      439,      438,      389,      390
    1706,     2041,     2047,     2017,     2011,     2040,     2046,     2016,     2010
    1707,     2042,     2048,     2018,     2012,     2041,     2047,     2017,     2011
    1708,     2043,     2049,     2019,     2013,     2042,     2048,     2018,     2012
    1709,     2044,     2050,     2020,     2014,     2043,     2049,     2019,     2013
    1710,     2021,     2051,     2050,     2020,     2015,     2045,     2044,     2014
    1711,     2046,     2052,     2022,     2016,      438,      437,      388,      389
    1712,     2047,     2053,     2023,     2017,     2046,     2052,     2022,     2016
    1713,     2048,     2054,     2024,     2018,     2047,     2053,     2023,     2017
    1714,     2049,     2055,     2025,     2019,     2048,     2054,     2024,     2018
    1715,     2050,     2056,     2026,     2020,     2049,     2055,     2025,     2019
    1716,     2027,     2057,     2056,     2026,     2021,     2051,     2050,     2020
    1717,     2052,     2058,     2028,     2022,      437,      436,      387,      388
    1718,     2053,     2059,     2029,     2023,     2052,     2058,     2028,     2022
    1719,     2054,     2060,     2030,     2024,     2053,     2059,     2029,     2023
    1720,     2055,     2061,     2031,     2025,     2054,     2060,     2030,     2024
    1721,     2056,     2062,     2032,     2026,     2055,     2061,     2031,     2025
    1722,     2033,     2063,     2062,     2032,     2027,     2057,     2056,     2026
    1723,     2058,      876,      834,     2028,      436,      435,      386,      387
    1724,     2059,      877,      835,     2029,     2058,      876,      834,     2028
    1725,     2060,      878,      836,     2030,     2059,      877,      835,     2029
    1726,     2061,      879,      837,     2031,     2060,      878,      836,     2030
    1727,     2062,      880,      838,     2032,     2061,      879,      837,     2031
    1728,      880,      881,     2063,     2062,      838,      839,     2033,     2032
    1729,     1752,     2064,     2034,     1716,      490,      489,      440,      441
    1730,     1753,     2065,     2035,     1717,     1752,     2064,     2034,     1716
    1731,     1754,     2066,     2036,     1718,     1753,     2065,     2035,     1717
    1732,     1755,     2067,     2037,     1719,     1754,     2066,     2036,     1718
    1733,     1756,     2068,     2038,     1720,     1755,     2067,     2037,     1719
    1734,     2039,     2069,     2068,     2038,     1721,     1757,     1756,     1720
    1735,     2064,     2070,     2040,     2034,      489,      488,      439,      440
    1736,     2065,     2071,     2041,     2035,     2064,     2070,     2040,     2034
    1737,     2066,     2072,     2042,     2036,     2065,     2071,     2041,     2035
    1738,     2067,     2073,     2043,     2037,     2066,     2072,     2042,     2036
    1739,     2068,     2074,     2044,     2038,     2067,     2073,     2043,     2037
    1740,     2045,     2075,     2074,     2044,     2039,     2069,     2068,     2038
    1741,     2070,     2076,     2046,     2040,      488,      487,      438,      439
    1742,     2071,     2077,     2047,     2041,     2070,     2076,     2046,     2040
    1743,     2072,     2078,     2048,     2042,     2071,     2077,     2047,     2041
    1744,     2073,     2079,     2049,     2043,     2072,     2078,     2048,     2042
    1745,     2074,     2080,     2050,     2044,     2073,     2079,     2049,     2043
    1746,     2051,     2081,     2080,     2050,     2045,     2075,     2074,     2044
    1747,     2076,     2082,     2052,     2046,      487,      486,      437,      438
    1748,     2077,     2083,     2053,     2047,     2076,     2082,     2052,     2046
    1749,     2078,     2084,     2054,     2048,     2077,     2083,     2053,     2047
    1750,     2079,     2085,     2055,     2049,     2078,     2084,     2054,     2048
    1751,     2080,     2086,     2056,     2050,     2079,     2085,     2055,     2049
    1752,     2057,     2087,     2086,     2056,     2051,     2081,     2080,     2050
    1753,     2082,     2088,     2058,     2052,      486,      485,      436,      437
    1754,     2083,     2089,     2059,     2053,     2082,     2088,     2058,     2052
    1755,     2084,     2090,     2060,     2054,     2083,     2089,     2059,     2053
    1756,     2085,     2091,     2061,     2055,     2084,     2090,     2060,     2054
    1757,     2086,     2092,     2062,     2056,     2085,     2091,     2061,     2055
    1758,     2063,     2093,     2092,     2062,     2057,     2087,     2086,     2056
    1759,     2088,      918,      876,     2058,      485,      484,      435,      436
    1760,     2089,      919,      877,     2059,     2088,      918,      876,     2058
    1761,     2090,      920,      878,     2060,     2089,      919,      877,     2059
    1762,     2091,      921,      879,     2061,     2090,      920,      878,     2060
    1763,     2092,      922,      880,     2062,     2091,      921,      879,     2061
    1764,      922,      923,     2093,     2092,      880,      881,     2063,     2062
    1765,     1788,     2094,     2064,     1752,      539,      538,      489,      490
    1766,     1789,     2095,     2065,     1753,     1788,     2094,     2064,     1752
    1767,     1790,     2096,     2066,     1754,     1789,     2095,     2065,     1753
    1768,     1791,     2097,     2067,     1755,     1790,     2096,     2066,     1754
    1769,     1792,     2098,     2068,     1756,     1791,     2097,     2067,     1755
    1770,     2069,     2099,     2098,     2068,     1757,     1793,     1792,     1756
    1771,     2094,     2100,     2070,     2064,      538,      537,      488,      489
    1772,     2095,     2101,     2071,     2065,     2094,     2100,     2070,     2064
    1773,     2096,     2102,     2072,     2066,     2095,     2101,     2071,     2065
    1774,     2097,     2103,     2073,     2067,     2096,     2102,     2072,     2066
    1775,     2098,     2104,     2074,     2068,     2097,     2103,     2073,     2067
    1776,     2075,     2105,     2104,     2074,     2069,     2099,     2098,     2068
    1777,     2100,     2106,     2076,     2070,      537,      536,      487,      488
    1778,     2101,     2107,     2077,     2071,     2100,     2106,     2076,     2070
    1779,     2102,     2108,     2078,     2072,     2101,     2107,     2077,     2071
    1780,     2103,     2109,     2079,     2073,     2102,     2108,     2078,     2072
    1781,     2104,     2110,     2080,     2074,     2103,     2109,     2079,     2073
    1782,     2081,     2111,     2110,     2080,     2075,     2105,     2104,     2074
    1783,     2106,     2112,     2082,     2076,      536,      535,      486,      487
    1784,     2107,     2113,     2083,     2077,     2106,     2112,     2082,     2076
    1785,     2108,     2114,     2084,     2078,     2107,     2113,     2083,     2077
    1786,     2109,     2115,     2085,     2079,     2108,     2114,     2084,     2078
    1787,     2110,     2116,     2086,     2080,     2109,     2115,     2085,     2079
    1788,     2087,     2117,     2116,     2086,     2081,     2111,     2110,     2080
    1789,     2112,     2118,     2088,     2082,      535,      534,      485,      486
    1790,     2113,     2119,     2089,     2083,     2112,     2118,     2088,     2082
    1791,     2114,     2120,     2090,     2084,     2113,     2119,     2089,     2083
    1792,     2115,     2121,     2091,     2085,     2114,     2120,     2090,     2084
    1793,     2116,     2122,     2092,     2086,     2115,     2121,     2091,     2085
    1794,     2093,     2123,     2122,     2092,     2087,     2117,     2116,     2086
    1795,     2118,      960,      918,     2088,      534,      533,      484,      485
    1796,     2119,      961,      919,     2089,     2118,      960,      918,     2088
    1797,     2120,      962,      920,     2090,     2119,      961,      919,     2089
    1798,     2121,      963,      921,     2091,     2120,      962,      920,     2090
    1799,     2122,      964,      922,     2092,     2121,      963,      921,     2091
    1800,     2123,      965,      923,     2093,     2122,      964,      922,     2092
*ELEMENT, TYPE=C3D8I, ELSET=PIA
    1801,     2125,     2132,      593,      551,     2124,     2131,      587,      545
    1802,     2126,     2133,      599,      557,     2125,     2132,      593,      551
    1803,     2127,     2134,      605,      563,     2126,     2133,      599,      557
    1804,     2128,     2135,      611,      569,     2127,     2134,      605,      563
    1805,     2129,     2136,      617,      575,     2128,     2135,      611,      569
    1806,      623,     2137,     2136,      617,      581,     2130,     2129,      575
    1807,     2132,     2139,      635,      593,     2131,     2138,      629,      587
    1808,     2133,     2140,      641,      599,     2132,     2139,      635,      593
    1809,     2134,     2141,      647,      605,     2133,     2140,      641,      599
    1810,     2135,     2142,      653,      611,     2134,     2141,      647,      605
    1811,     2136,     2143,      659,      617,     2135,     2142,      653,      611
    1812,      665,     2144,     2143,      659,      623,     2137,     2136,      617
    1813,     2139,     2146,      677,      635,     2138,     2145,      671,      629
    1814,     2140,     2147,      683,      641,     2139,     2146,      677,      635
    1815,     2141,     2148,      689,      647,     2140,     2147,      683,      641
    1816,     2142,     2149,      695,      653,     2141,     2148,      689,      647
    1817,     2143,     2150,      701,      659,     2142,     2149,      695,      653
    1818,      707,     2151,     2150,      701,      665,     2144,     2143,      659
    1819,     2146,     2153,      719,      677,     2145,     2152,      713,      671
    1820,     2147,     2154,      725,      683,     2146,     2153,      719,      677
    1821,     2148,     2155,      731,      689,     2147,     2154,      725,      683
    1822,     2149,     2156,      737,      695,     2148,     2155,      731,      689
    1823,     2150,     2157,      743,      701,     2149,     2156,      737,      695
    1824,      749,     2158,     2157,      743,      707,     2151,     2150,      701
    1825,     2153,     2160,      761,      719,     2152,     2159,      755,      713
    1826,     2154,     2161,      767,      725,     2153,     2160,      761,      719
    1827,     2155,     2162,      773,      731,     2154,     2161,      767,      725
    1828,     2156,     2163,      779,      737,     2155,     2162,      773,      731
    1829,     2157,     2164,      785,      743,     2156,     2163,      779,      737
    1830,      791,     2165,     2164,      785,      749,     2158,     2157,      743
    1831,     2160,     2167,      803,      761,     2159,     2166,      797,      755
    1832,     2161,     2168,      809,      767,     2160,     2167,      803,      761
    1833,     2162,     2169,      815,      773,     2161,     2168,      809,      767
    1834,     2163,     2170,      821,      779,     2162,     2169,      815,      773
    1835,     2164,     2171,      827,      785,     2163,     2170,      821,      779
    1836,      833,     2172,     2171,      827,      791,     2165,     2164,      785
    1837,     2167,     2174,      845,      803,     2166,     2173,      839,      797
    1838,     2168,     2175,      851,      809,     2167,     2174,      845,      803
    1839,     2169,     2176,      857,      815,     2168,     2175,      851,      809
    1840,     2170,     2177,      863,      821,     2169,     2176,      857,      815
    1841,     2171,     2178,      869,      827,     2170,     2177,      863,      821
    1842,      875,     2179,     2178,      869,      833,     2172,     2171,      827
    1843,     2174,     2181,      887,      845,     2173,     2180,      881,      839
    1844,     2175,     2182,      893,      851,     2174,     2181,      887,      845
    1845,     2176,     2183,      899,      857,     2175,     2182,      893,      851
    1846,     2177,     2184,      905,      863,     2176,     2183,      899,      857
    1847,     2178,     2185,      911,      869,     2177,     2184,      905,      863
    1848,      917,     2186,     2185,      911,      875,     2179,     2178,      869
    1849,     2181,     2188,      929,      887,     2180,     2187,      923,      881
    1850,     2182,     2189,      935,      893,     2181,     2188,      929,      887
    1851,     2183,     2190,      941,      899,     2182,     2189,      935,      893
    1852,     2184,     2191,      947,      905,     2183,     2190,      941,      899
    1853,     2185,     2192,      953,      911,     2184,     2191,      947,      905
    1854,      959,     2193,     2192,      953,      917,     2186,     2185,      911
    1855,     2188,     2195,      971,      929,     2187,     2194,      965,      923
    1856,     2189,     2196,      977,      935,     2188,     2195,      971,      929
    1857,     2190,     2197,      983,      941,     2189,     2196,      977,      935
    1858,     2191,     2198,      989,      947,     2190,     2197,      983,      941
    1859,     2192,     2199,      995,      953,     2191,     2198,      989,      947
    1860,     2193,     2200,     1001,      959,     2192,     2199,      995,      953
    1861,     2201,     2207,     1043,     1007,     2130,     2137,      623,      581
    1862,     2202,     2208,     1049,     1013,     2201,     2207,     1043,     1007
    1863,     2203,     2209,     1055,     1019,     2202,     2208,     1049,     1013
    1864,     2204,     2210,     1061,     1025,     2203,     2209,     1055,     1019
    1865,     2205,     2211,     1067,     1031,     2204,     2210,     1061,     1025
    1866,     1073,     2212,     2211,     1067,     1037,     2206,     2205,     1031
    1867,     2207,     2213,     1079,     1043,     2137,     2144,      665,      623
    1868,     2208,     2214,     1085,     1049,     2207,     2213,     1079,     1043
    1869,     2209,     2215,     1091,     1055,     2208,     2214,     1085,     1049
    1870,     2210,     2216,     1097,     1061,     2209,     2215,     1091,     1055
    1871,     2211,     2217,     1103,     1067,     2210,     2216,     1097,     1061
    1872,     1109,     2218,     2217,     1103,     1073,     2212,     2211,     1067
    1873,     2213,     2219,     1115,     1079,     2144,     2151,      707,      665
    1874,     2214,     2220,     1121,     1085,     2213,     2219,     1115,     1079
    1875,     2215,     2221,     1127,     1091,     2214,     2220,     1121,     1085
    1876,     2216,     2222,     1133,     1097,     2215,     2221,     1127,     1091
    1877,     2217,     2223,     1139,     1103,     2216,     2222,     1133,     1097
    1878,     1145,     2224,     2223,     1139,     1109,     2218,     2217,     1103
    1879,     2219,     2225,     1151,     1115,     2151,     2158,      749,      707
    1880,     2220,     2226,     1157,     1121,     2219,     2225,     1151,     1115
    1881,     2221,     2227,     1163,     1127,     2220,     2226,     1157,     1121
    1882,     2222,     2228,     1169,     1133,     2221,     2227,     1163,     1127
    1883,     2223,     2229,     1175,     1139,     2222,     2228,     1169,     1133
    1884,     1181,     2230,     2229,     1175,     1145,     2224,     2223,     1139
    1885,     2225,     2231,     1187,     1151,     2158,     2165,      791,      749
    1886,     2226,     2232,     1193,     1157,     2225,     2231,     1187,     1151
    1887,     2227,     2233,     1199,     1163,     2226,     2232,     1193,     1157
    1888,     2228,     2234,     1205,     1169,     2227,     2233,     1199,     1163
    1889,     2229,     2235,     1211,     1175,     2228,     2234,     1205,     1169
    1890,     1217,     2236,     2235,     1211,     1181,     2230,     2229,     1175
    1891,     2231,     2237,     1223,     1187,     2165,     2172,      833,      791
    1892,     2232,     2238,     1229,     1193,     2231,     2237,     1223,     1187
    1893,     2233,     2239,     1235,     1199,     2232,     2238,     1229,     1193
    1894,     2234,     2240,     1241,     1205,     2233,     2239,     1235,     1199
    1895,     2235,     2241,     1247,     1211,     2234,     2240,     1241,     1205
    1896,     1253,     2242,     2241,     1247,     1217,     2236,     2235,     1211
    1897,     2237,     2243,     1259,     1223,     2172,     2179,      875,      833
    1898,     2238,     2244,     1265,     1229,     2237,     2243,     1259,     1223
    1899,     2239,     2245,     1271,     1235,     2238,     2244,     1265,     1229
    1900,     2240,     2246,     1277,     1241,     2239,     2245,     1271,     1235
    1901,     2241,     2247,     1283,     1247,     2240,     2246,     1277,     1241
    1902,     1289,     2248,     2247,     1283,     1253,     2242,     2241,     1247
    1903,     2243,     2249,     1295,     1259,     2179,     2186,      917,      875
    1904,     2244,     2250,     1301,     1265,     2243,     2249,     1295,     1259
    1905,     2245,     2251,     1307,     1271,     2244,     2250,     1301,     1265
    1906,     2246,     2252,     1313,     1277,     2245,     2251,     1307,     1271
    1907,     2247,     2253,     1319,     1283,     2246,     2252,     1313,     1277
    1908,     1325,     2254,     2253,     1319,     1289,     2248,     2247,     1283
    1909,     2249,     2255,     1331,     1295,     2186,     2193,      959,      917
    1910,     2250,     2256,     1337,     1301,     2249,     2255,     1331,     1295
    1911,     2251,     2257,     1343,     1307,     2250,     2256,     1337,     1301
    1912,     2252,     2258,     1349,     1313,     2251,     2257,     1343,     1307
    1913,     2253,     2259,     1355,     1319,     2252,     2258,     1349,     1313
    1914,     1361,     2260,     2259,     1355,     1325,     2254,     2253,     1319
    1915,     2255,     2261,     1367,     1331,     2193,     2200,     1001,      959
    1916,     2256,     2262,     1373,     1337,     2255,     2261,     1367,     1331
    1917,     2257,     2263,     1379,     1343,     2256,     2262,     1373,     1337
    1918,     2258,     2264,     1385,     1349,     2257,     2263,     1379,     1343
    1919,     2259,     2265,     1391,     1355,     2258,     2264,     1385,     1349
    1920,     2260,     2266,     1397,     1361,     2259,     2265,     1391,     1355
    1921,     2267,     2273,     1439,     1403,     2206,     2212,     1073,     1037
    1922,     2268,     2274,     1445,     1409,     2267,     2273,     1439,     1403
    1923,     2269,     2275,     1451,     1415,     2268,     2274,     1445,     1409
    1924,     2270,     2276,     1457,     1421,     2269,     2275,     1451,     1415
    1925,     2271,     2277,     1463,     1427,     2270,     2276,     1457,     1421
    1926,     1469,     2278,     2277,     1463,     1433,     2272,     2271,     1427
    1927,     2273,     2279,     1475,     1439,     2212,     2218,     1109,     1073
    1928,     2274,     2280,     1481,     1445,     2273,     2279,     1475,     1439
    1929,     2275,     2281,     1487,     1451,     2274,     2280,     1481,     1445
    1930,     2276,     2282,     1493,     1457,     2275,     2281,     1487,     1451
    1931,     2277,     2283,     1499,     1463,     2276,     2282,     1493,     1457
    1932,     1505,     2284,     2283,     1499,     1469,     2278,     2277,     1463
    1933,     2279,     2285,     1511,     1475,     2218,     2224,     1145,     1109
    1934,     2280,     2286,     1517,     1481,     2279,     2285,     1511,     1475
    1935,     2281,     2287,     1523,     1487,     2280,     2286,     1517,     1481
    1936,     2282,     2288,     1529,     1493,     2281,     2287,     1523,     1487
    1937,     2283,     2289,     1535,     1499,     2282,     2288,     1529,     1493
    1938,     1541,     2290,     2289,     1535,     1505,     2284,     2283,     1499
    1939,     2285,     2291,     1547,     1511,     2224,     2230,     1181,     1145
    1940,     2286,     2292,     1553,     1517,     2285,     2291,     1547,     1511
    1941,     2287,     2293,     1559,     1523,     2286,     2292,     1553,     1517
    1942,     2288,     2294,     1565,     1529,     2287,     2293,     1559,     1523
    1943,     2289,     2295,     1571,     1535,     2288,     2294,     1565,     1529
    1944,     1577,     2296,     2295,     1571,     1541,     2290,     2289,     1535
    1945,     2291,     2297,     1583,     1547,     2230,     2236,     1217,     1181
    1946,     2292,     2298,     1589,     1553,     2291,     2297,     1583,     1547
    1947,     2293,     2299,     1595,     1559,     2292,     2298,     1589,     1553
    1948,     2294,     2300,     1601,     1565,     2293,     2299,     1595,     1559
    1949,     2295,     2301,     1607,     1571,     2294,     2300,     1601,     1565
    1950,     1613,     2302,     2301,     1607,     1577,     2296,     2295,     1571
    1951,     2297,     2303,     1619,     1583,     2236,     2242,     1253,     1217
    1952,     2298,     2304,     1625,     1589,     2297,     2303,     1619,     1583
    1953,     2299,     2305,     1631,     1595,     2298,     2304,     1625,     1589
    1954,     2300,     2306,     1637,     1601,     2299,     2305,     1631,     1595
    1955,     2301,     2307,     1643,     1607,     2300,     2306,     1637,     1601
    1956,     1649,     2308,     2307,     1643,     1613,     2302,     2301,     1607
    1957,     2303,     2309,     1655,     1619,     2242,     2248,     1289,     1253
    1958,     2304,     2310,     1661,     1625,     2303,     2309,     1655,     1619
    1959,     2305,     2311,     1667,     1631,     2304,     2310,     1661,     1625
    1960,     2306,     2312,     1673,     1637,     2305,     2311,     1667,     1631
    1961,     2307,     2313,     1679,     1643,     2306,     2312,     1673,     1637
    1962,     1685,     2314,     2313,     1679,     1649,     2308,     2307,     1643
    1963,     2309,     2315,     1691,     1655,     2248,     2254,     1325,     1289
    1964,     2310,     2316,     1697,     1661,     2309,     2315,     1691,     1655
    1965,     2311,     2317,     1703,     1667,     2310,     2316,     1697,     1661
    1966,     2312,     2318,     1709,     1673,     2311,     2317,     1703,     1667
    1967,     2313,     2319,     1715,     1679,     2312,     2318,     1709,     1673
    1968,     1721,     2320,     2319,     1715,     1685,     2314,     2313,     1679
    1969,     2315,     2321,     1727,     1691,     2254,     2260,     1361,     1325
    1970,     2316,     2322,     1733,     1697,     2315,     2321,     1727,     1691
    1971,     2317,     2323,     1739,     1703,     2316,     2322,     1733,     1697
    1972,     2318,     2324,     1745,     1709,     2317,     2323,     1739,     1703
    1973,     2319,     2325,     1751,     1715,     2318,     2324,     1745,     1709
    1974,     1757,     2326,     2325,     1751,     1721,     2320,     2319,     1715
    1975,     2321,     2327,     1763,     1727,     2260,     2266,     1397,     1361
    1976,     2322,     2328,     1769,     1733,     2321,     2327,     1763,     1727
    1977,     2323,     2329,     1775,     1739,     2322,     2328,     1769,     1733
    1978,     2324,     2330,     1781,     1745,     2323,     2329,     1775,     1739
    1979,     2325,     2331,     1787,     1751,     2324,     2330,     1781,     1745
    1980,     2326,     2332,     1793,     1757,     2325,     2331,     1787,     1751
    1981,     2333,     2338,     1829,     1799,     2272,     2278,     1469,     1433
    1982,     2334,     2339,     1835,     1805,     2333,     2338,     1829,     1799
    1983,     2335,     2340,     1841,     1811,     2334,     2339,     1835,     1805
    1984,     2336,     2341,     1847,     1817,     2335,     2340,     1841,     1811
    1985,     2337,     2342,     1853,     1823,     2336,     2341,     1847,     1817
    1986,      587,     2131,     2342,     1853,      545,     2124,     2337,     1823
    1987,     2338,     2343,     1859,     1829,     2278,     2284,     1505,     1469
    1988,     2339,     2344,     1865,     1835,     2338,     2343,     1859,     1829
    1989,     2340,     2345,     1871,     1841,     2339,     2344,     1865,     1835
    1990,     2341,     2346,     1877,     1847,     2340,     2345,     1871,     1841
    1991,     2342,     2347,     1883,     1853,     2341,     2346,     1877,     1847
    1992,      629,     2138,     2347,     1883,      587,     2131,     2342,     1853
    1993,     2343,     2348,     1889,     1859,     2284,     2290,     1541,     1505
    1994,     2344,     2349,     1895,     1865,     2343,     2348,     1889,     1859
    1995,     2345,     2350,     1901,     1871,     2344,     2349,     1895,     1865
    1996,     2346,     2351,     1907,     1877,     2345,     2350,     1901,     1871
    1997,     2347,     2352,     1913,     1883,     2346,     2351,     1907,     1877
    1998,      671,     2145,     2352,     1913,      629,     2138,     2347,     1883
    1999,     2348,     2353,     1919,     1889,     2290,     2296,     1577,     1541
    2000,     2349,     2354,     1925,     1895,     2348,     2353,     1919,     1889
    2001,     2350,     2355,     1931,     1901,     2349,     2354,     1925,     1895
    2002,     2351,     2356,     1937,     1907,     2350,     2355,     1931,     1901
    2003,     2352,     2357,     1943,     1913,     2351,     2356,     1937,     1907
    2004,      713,     2152,     2357,     1943,      671,     2145,     2352,     1913
    2005,     2353,     2358,     1949,     1919,     2296,     2302,     1613,     1577
    2006,     2354,     2359,     1955,     1925,     2353,     2358,     1949,     1919
    2007,     2355,     2360,     1961,     1931,     2354,     2359,     1955,     1925
    2008,     2356,     2361,     1967,     1937,     2355,     2360,     1961,     1931
    2009,     2357,     2362,     1973,     1943,     2356,     2361,     1967,     1937
    2010,      755,     2159,     2362,     1973,      713,     2152,     2357,     1943
    2011,     2358,     2363,     1979,     1949,     2302,     2308,     1649,     1613
    2012,     2359,     2364,     1985,     1955,     2358,     2363,     1979,     1949
    2013,     2360,     2365,     1991,     1961,     2359,     2364,     1985,     1955
    2014,     2361,     2366,     1997,     1967,     2360,     2365,     1991,     1961
    2015,     2362,     2367,     2003,     1973,     2361,     2366,     1997,     1967
    2016,      797,     2166,     2367,     2003,      755,     2159,     2362,     1973
    2017,     2363,     2368,     2009,     1979,     2308,     2314,     1685,     1649
    2018,     2364,     2369,     2015,     1985,     2363,     2368,     2009,     1979
    2019,     2365,     2370,     2021,     1991,     2364,     2369,     2015,     1985
    2020,     2366,     2371,     2027,     1997,     2365,     2370,     2021,     1991
    2021,     2367,     2372,     2033,     2003,     2366,     2371,     2027,     1997
    2022,      839,     2173,     2372,     2033,      797,     2166,     2367,     2003
    2023,     2368,     2373,     2039,     2009,     2314,     2320,     1721,     1685
    2024,     2369,     2374,     2045,     2015,     2368,     2373,     2039,     2009
    2025,     2370,     2375,     2051,     2021,     2369,     2374,     2045,     2015
    2026,     2371,     2376,     2057,     2027,     2370,     2375,     2051,     2021
    2027,     2372,     2377,     2063,     2033,     2371,     2376,     2057,     2027
    2028,      881,     2180,     2377,     2063,      839,     2173,     2372,     2033
    2029,     2373,     2378,     2069,     2039,     2320,     2326,     1757,     1721
    2030,     2374,     2379,     2075,     2045,     2373,     2378,     2069,     2039
    2031,     2375,     2380,     2081,     2051,     2374,     2379,     2075,     2045
    2032,     2376,     2381,     2087,     2057,     2375,     2380,     2081,     2051
    2033,     2377,     2382,     2093,     2063,     2376,     2381,     2087,     2057
    2034,      923,     2187,     2382,     2093,      881,     2180,     2377,     2063
    2035,     2378,     2383,     2099,     2069,     2326,     2332,     1793,     1757
    2036,     2379,     2384,     2105,     2075,     2378,     2383,     2099,     2069
    2037,     2380,     2385,     2111,     2081,     2379,     2384,     2105,     2075
    2038,     2381,     2386,     2117,     2087,     2380,     2385,     2111,     2081
    2039,     2382,     2387,     2123,     2093,     2381,     2386,     2117,     2087
    2040,     2387,     2194,     2187,     2382,     2123,      965,      923,     2093
*ELEMENT, TYPE=C3D8I, ELSET=SAS
    2041,     2409,     2412,     2391,     2388,     2131,     2132,     2125,     2124
    2042,     2410,     2413,     2392,     2389,     2409,     2412,     2391,     2388
    2043,     2393,     2414,     2413,     2392,     2390,     2411,     2410,     2389
    2044,     2412,     2415,     2394,     2391,     2132,     2133,     2126,     2125
    2045,     2413,     2416,     2395,     2392,     2412,     2415,     2394,     2391
    2046,     2396,     2417,     2416,     2395,     2393,     2414,     2413,     2392
    2047,     2415,     2418,     2397,     2394,     2133,     2134,     2127,     2126
    2048,     2416,     2419,     2398,     2395,     2415,     2418,     2397,     2394
    2049,     2399,     2420,     2419,     2398,     2396,     2417,     2416,     2395
    2050,     2418,     2421,     2400,     2397,     2134,     2135,     2128,     2127
    2051,     2419,     2422,     2401,     2398,     2418,     2421,     2400,     2397
    2052,     2402,     2423,     2422,     2401,     2399,     2420,     2419,     2398
    2053,     2421,     2424,     2403,     2400,     2135,     2136,     2129,     2128
    2054,     2422,     2425,     2404,     2401,     2421,     2424,     2403,     2400
    2055,     2405,     2426,     2425,     2404,     2402,     2423,     2422,     2401
    2056,     2424,     2427,     2406,     2403,     2136,     2137,     2130,     2129
    2057,     2425,     2428,     2407,     2404,     2424,     2427,     2406,     2403
    2058,     2428,     2429,     2426,     2425,     2407,     2408,     2405,     2404
    2059,     2430,     2433,     2412,     2409,     2138,     2139,     2132,     2131
    2060,     2431,     2434,     2413,     2410,     2430,     2433,     2412,     2409
    2061,     2414,     2435,     2434,     2413,     2411,     2432,     2431,     2410
    2062,     2433,     2436,     2415,     2412,     2139,     2140,     2133,     2132
    2063,     2434,     2437,     2416,     2413,     2433,     2436,     2415,     2412
    2064,     2417,     2438,     2437,     2416,     2414,     2435,     2434,     2413
    2065,     2436,     2439,     2418,     2415,     2140,     2141,     2134,     2133
    2066,     2437,     2440,     2419,     2416,     2436,     2439,     2418,     2415
    2067,     2420,     2441,     2440,     2419,     2417,     2438,     2437,     2416
    2068,     2439,     2442,     2421,     2418,     2141,     2142,     2135,     2134
    2069,     2440,     2443,     2422,     2419,     2439,     2442,     2421,     2418
    2070,     2423,     2444,     2443,     2422,     2420,     2441,     2440,     2419
    2071,     2442,     2445,     2424,     2421,     2142,     2143,     2136,     2135
    2072,     2443,     2446,     2425,     2422,     2442,     2445,     2424,     2421
    2073,     2426,     2447,     2446,     2425,     2423,     2444,     2443,     2422
    2074,     2445,     2448,     2427,     2424,     2143,     2144,     2137,     2136
    2075,     2446,     2449,     2428,     2425,     2445,     2448,     2427,     2424
    2076,     2449,     2450,     2447,     2446,     2428,     2429,     2426,     2425
    2077,     2451,     2454,     2433,     2430,     2145,     2146,     2139,     2138
    2078,     2452,     2455,     2434,     2431,     2451,     2454,     2433,     2430
    2079,     2435,     2456,     2455,     2434,     2432,     2453,     2452,     2431
    2080,     2454,     2457,     2436,     2433,     2146,     2147,     2140,     2139
    2081,     2455,     2458,     2437,     2434,     2454,     2457,     2436,     2433
    2082,     2438,     2459,     2458,     2437,     2435,     2456,     2455,     2434
    2083,     2457,     2460,     2439,     2436,     2147,     2148,     2141,     2140
    2084,     2458,     2461,     2440,     2437,     2457,     2460,     2439,     2436
    2085,     2441,     2462,     2461,     2440,     2438,     2459,     2458,     2437
    2086,     2460,     2463,     2442,     2439,     2148,     2149,     2142,     2141
    2087,     2461,     2464,     2443,     2440,     2460,     2463,     2442,     2439
    2088,     2444,     2465,     2464,     2443,     2441,     2462,     2461,     2440
    2089,     2463,     2466,     2445,     2442,     2149,     2150,     2143,     2142
    2090,     2464,     2467,     2446,     2443,     2463,     2466,     2445,     2442
    2091,     2447,     2468,     2467,     2446,     2444,     2465,     2464,     2443
    2092,     2466,     2469,     2448,     2445,     2150,     2151,     2144,     2143
    2093,     2467,     2470,     2449,     2446,     2466,     2469,     2448,     2445
    2094,     2470,     2471,     2468,     2467,     2449,     2450,     2447,     2446
    2095,     2472,     2475,     2454,     2451,     2152,     2153,     2146,     2145
    2096,     2473,     2476,     2455,     2452,     2472,     2475,     2454,     2451
    2097,     2456,     2477,     2476,     2455,     2453,     2474,     2473,     2452
    2098,     2475,     2478,     2457,     2454,     2153,     2154,     2147,     2146
    2099,     2476,     2479,     2458,     2455,     2475,     2478,     2457,     2454
    2100,     2459,     2480,     2479,     2458,     2456,     2477,     2476,     2455
    2101,     2478,     2481,     2460,     2457,     2154,     2155,     2148,     2147
    2102,     2479,     2482,     2461,     2458,     2478,     2481,     2460,     2457
    2103,     2462,     2483,     2482,     2461,     2459,     2480,     2479,     2458
    2104,     2481,     2484,     2463,     2460,     2155,     2156,     2149,     2148
    2105,     2482,     2485,     2464,     2461,     2481,     2484,     2463,     2460
    2106,     2465,     2486,     2485,     2464,     2462,     2483,     2482,     2461
    2107,     2484,     2487,     2466,     2463,     2156,     2157,     2150,     2149
    2108,     2485,     2488,     2467,     2464,     2484,     2487,     2466,     2463
    2109,     2468,     2489,     2488,     2467,     2465,     2486,     2485,     2464
    2110,     2487,     2490,     2469,     2466,     2157,     2158,     2151,     2150
    2111,     2488,     2491,     2470,     2467,     2487,     2490,     2469,     2466
    2112,     2491,     2492,     2489,     2488,     2470,     2471,     2468,     2467
    2113,     2493,     2496,     2475,     2472,     2159,     2160,     2153,     2152
    2114,     2494,     2497,     2476,     2473,     2493,     2496,     2475,     2472
    2115,     2477,     2498,     2497,     2476,     2474,     2495,     2494,     2473
    2116,     2496,     2499,     2478,     2475,     2160,     2161,     2154,     2153
    2117,     2497,     2500,     2479,     2476,     2496,     2499,     2478,     2475
    2118,     2480,     2501,     2500,     2479,     2477,     2498,     2497,     2476
    2119,     2499,     2502,     2481,     2478,     2161,     2162,     2155,     2154
    2120,     2500,     2503,     2482,     2479,     2499,     2502,     2481,     2478
    2121,     2483,     2504,     2503,     2482,     2480,     2501,     2500,     2479
    2122,     2502,     2505,     2484,     2481,     2162,     2163,     2156,     2155
    2123,     2503,     2506,     2485,     2482,     2502,     2505,     2484,     2481
    2124,     2486,     2507,     2506,     2485,     2483,     2504,     2503,     2482
    2125,     2505,     2508,     2487,     2484,     2163,     2164,     2157,     2156
    2126,     2506,     2509,     2488,     2485,     2505,     2508,     2487,     2484
    2127,     2489,     2510,     2509,     2488,     2486,     2507,     2506,     2485
    2128,     2508,     2511,     2490,     2487,     2164,     2165,     2158,     2157
    2129,     2509,     2512,     2491,     2488,     2508,     2511,     2490,     2487
    2130,     2512,     2513,     2510,     2509,     2491,     2492,     2489,     2488
    2131,     2514,     2517,     2496,     2493,     2166,     2167,     2160,     2159
    2132,     2515,     2518,     2497,     2494,     2514,     2517,     2496,     2493
    2133,     2498,     2519,     2518,     2497,     2495,     2516,     2515,     2494
    2134,     2517,     2520,     2499,     2496,     2167,     2168,     2161,     2160
    2135,     2518,     2521,     2500,     2497,     2517,     2520,     2499,     2496
    2136,     2501,     2522,     2521,     2500,     2498,     2519,     2518,     2497
    2137,     2520,     2523,     2502,     2499,     2168,     2169,     2162,     2161
    2138,     2521,     2524,     2503,     2500,     2520,     2523,     2502,     2499
    2139,     2504,     2525,     2524,     2503,     2501,     2522,     2521,     2500
    2140,     2523,     2526,     2505,     2502,     2169,     2170,     2163,     2162
    2141,     2524,     2527,     2506,     2503,     2523,     2526,     2505,     2502
    2142,     2507,     2528,     2527,     2506,     2504,     2525,     2524,     2503
    2143,     2526,     2529,     2508,     2505,     2170,     2171,     2164,     2163
    2144,     2527,     2530,     2509,     2506,     2526,     2529,     2508,     2505
    2145,     2510,     2531,     2530,     2509,     2507,     2528,     2527,     2506
    2146,     2529,     2532,     2511,     2508,     2171,     2172,     2165,     2164
    2147,     2530,     2533,     2512,     2509,     2529,     2532,     2511,     2508
    2148,     2533,     2534,     2531,     2530,     2512,     2513,     2510,     2509
    2149,     2535,     2538,     2517,     2514,     2173,     2174,     2167,     2166
    2150,     2536,     2539,     2518,     2515,     2535,     2538,     2517,     2514
    2151,     2519,     2540,     2539,     2518,     2516,     2537,     2536,     2515
    2152,     2538,     2541,     2520,     2517,     2174,     2175,     2168,     2167
    2153,     2539,     2542,     2521,     2518,     2538,     2541,     2520,     2517
    2154,     2522,     2543,     2542,     2521,     2519,     2540,     2539,     2518
    2155,     2541,     2544,     2523,     2520,     2175,     2176,     2169,     2168
    2156,     2542,     2545,     2524,     2521,     2541,     2544,     2523,     2520
    2157,     2525,     2546,     2545,     2524,     2522,     2543,     2542,     2521
    2158,     2544,     2547,     2526,     2523,     2176,     2177,     2170,     2169
    2159,     2545,     2548,     2527,     2524,     2544,     2547,     2526,     2523
    2160,     2528,     2549,     2548,     2527,     2525,     2546,     2545,     2524
    2161,     2547,     2550,     2529,     2526,     2177,     2178,     2171,     2170
    2162,     2548,     2551,     2530,     2527,     2547,     2550,     2529,     2526
    2163,     2531,     2552,     2551,     2530,     2528,     2549,     2548,     2527
    2164,     2550,     2553,     2532,     2529,     2178,     2179,     2172,     2171
    2165,     2551,     2554,     2533,     2530,     2550,     2553,     2532,     2529
    2166,     2554,     2555,     2552,     2551,     2533,     2534,     2531,     2530
    2167,     2556,     2559,     2538,     2535,     2180,     2181,     2174,     2173
    2168,     2557,     2560,     2539,     2536,     2556,     2559,     2538,     2535
    2169,     2540,     2561,     2560,     2539,     2537,     2558,     2557,     2536
    2170,     2559,     2562,     2541,     2538,     2181,     2182,     2175,     2174
    2171,     2560,     2563,     2542,     2539,     2559,     2562,     2541,     2538
    2172,     2543,     2564,     2563,     2542,     2540,     2561,     2560,     2539
    2173,     2562,     2565,     2544,     2541,     2182,     2183,     2176,     2175
    2174,     2563,     2566,     2545,     2542,     2562,     2565,     2544,     2541
    2175,     2546,     2567,     2566,     2545,     2543,     2564,     2563,     2542
    2176,     2565,     2568,     2547,     2544,     2183,     2184,     2177,     2176
    2177,     2566,     2569,     2548,     2545,     2565,     2568,     2547,     2544
    2178,     2549,     2570,     2569,     2548,     2546,     2567,     2566,     2545
    2179,     2568,     2571,     2550,     2547,     2184,     2185,     2178,     2177
    2180,     2569,     2572,     2551,     2548,     2568,     2571,     2550,     2547
    2181,     2552,     2573,     2572,     2551,     2549,     2570,     2569,     2548
    2182,     2571,     2574,     2553,     2550,     2185,     2186,     2179,     2178
    2183,     2572,     2575,     2554,     2551,     2571,     2574,     2553,     2550
    2184,     2575,     2576,     2573,     2572,     2554,     2555,     2552,     2551
    2185,     2577,     2580,     2559,     2556,     2187,     2188,     2181,     2180
    2186,     2578,     2581,     2560,     2557,     2577,     2580,     2559,     2556
    2187,     2561,     2582,     2581,     2560,     2558,     2579,     2578,     2557
    2188,     2580,     2583,     2562,     2559,     2188,     2189,     2182,     2181
    2189,     2581,     2584,     2563,     2560,     2580,     2583,     2562,     2559
    2190,     2564,     2585,     2584,     2563,     2561,     2582,     2581,     2560
    2191,     2583,     2586,     2565,     2562,     2189,     2190,     2183,     2182
    2192,     2584,     2587,     2566,     2563,     2583,     2586,     2565,     2562
    2193,     2567,     2588,     2587,     2566,     2564,     2585,     2584,     2563
    2194,     2586,     2589,     2568,     2565,     2190,     2191,     2184,     2183
    2195,     2587,     2590,     2569,     2566,     2586,     2589,     2568,     2565
    2196,     2570,     2591,     2590,     2569,     2567,     2588,     2587,     2566
    2197,     2589,     2592,     2571,     2568,     2191,     2192,     2185,     2184
    2198,     2590,     2593,     2572,     2569,     2589,     2592,     2571,     2568
    2199,     2573,     2594,     2593,     2572,     2570,     2591,     2590,     2569
    2200,     2592,     2595,     2574,     2571,     2192,     2193,     2186,     2185
    2201,     2593,     2596,     2575,     2572,     2592,     2595,     2574,     2571
    2202,     2596,     2597,     2594,     2593,     2575,     2576,     2573,     2572
    2203,     2598,     2601,     2580,     2577,     2194,     2195,     2188,     2187
    2204,     2599,     2602,     2581,     2578,     2598,     2601,     2580,     2577
    2205,     2582,     2603,     2602,     2581,     2579,     2600,     2599,     2578
    2206,     2601,     2604,     2583,     2580,     2195,     2196,     2189,     2188
    2207,     2602,     2605,     2584,     2581,     2601,     2604,     2583,     2580
    2208,     2585,     2606,     2605,     2584,     2582,     2603,     2602,     2581
    2209,     2604,     2607,     2586,     2583,     2196,     2197,     2190,     2189
    2210,     2605,     2608,     2587,     2584,     2604,     2607,     2586,     2583
    2211,     2588,     2609,     2608,     2587,     2585,     2606,     2605,     2584
    2212,     2607,     2610,     2589,     2586,     2197,     2198,     2191,     2190
    2213,     2608,     2611,     2590,     2587,     2607,     2610,     2589,     2586
    2214,     2591,     2612,     2611,     2590,     2588,     2609,     2608,     2587
    2215,     2610,     2613,     2592,     2589,     2198,     2199,     2192,     2191
    2216,     2611,     2614,     2593,     2590,     2610,     2613,     2592,     2589
    2217,     2594,     2615,     2614,     2593,     2591,     2612,     2611,     2590
    2218,     2613,     2616,     2595,     2592,     2199,     2200,     2193,     2192
    2219,     2614,     2617,     2596,     2593,     2613,     2616,     2595,     2592
    2220,     2597,     2618,     2617,     2596,     2594,     2615,     2614,     2593
    2221,     2427,     2637,     2619,     2406,     2137,     2207,     2201,     2130
    2222,     2428,     2638,     2620,     2407,     2427,     2637,     2619,     2406
    2223,     2621,     2639,     2638,     2620,     2408,     2429,     2428,     2407
    2224,     2637,     2640,     2622,     2619,     2207,     2208,     2202,     2201
    2225,     2638,     2641,     2623,     2620,     2637,     2640,     2622,     2619
    2226,     2624,     2642,     2641,     2623,     2621,     2639,     2638,     2620
    2227,     2640,     2643,     2625,     2622,     2208,     2209,     2203,     2202
    2228,     2641,     2644,     2626,     2623,     2640,     2643,     2625,     2622
    2229,     2627,     2645,     2644,     2626,     2624,     2642,     2641,     2623
    2230,     2643,     2646,     2628,     2625,     2209,     2210,     2204,     2203
    2231,     2644,     2647,     2629,     2626,     2643,     2646,     2628,     2625
    2232,     2630,     2648,     2647,     2629,     2627,     2645,     2644,     2626
    2233,     2646,     2649,     2631,     2628,     2210,     2211,     2205,     2204
    2234,     2647,     2650,     2632,     2629,     2646,     2649,     2631,     2628
    2235,     2633,     2651,     2650,     2632,     2630,     2648,     2647,     2629
    2236,     2649,     2652,     2634,     2631,     2211,     2212,     2206,     2205
    2237,     2650,     2653,     2635,     2632,     2649,     2652,     2634,     2631
    2238,     2653,     2654,     2651,     2650,     2635,     2636,     2633,     2632
    2239,     2448,     2655,     2637,     2427,     2144,     2213,     2207,     2137
    2240,     2449,     2656,     2638,     2428,     2448,     2655,     2637,     2427
    2241,     2639,     2657,     2656,     2638,     2429,     2450,     2449,     2428
    2242,     2655,     2658,     2640,     2637,     2213,     2214,     2208,     2207
    2243,     2656,     2659,     2641,     2638,     2655,     2658,     2640,     2637
    2244,     2642,     2660,     2659,     2641,     2639,     2657,     2656,     2638
    2245,     2658,     2661,     2643,     2640,     2214,     2215,     2209,     2208
    2246,     2659,     2662,     2644,     2641,     2658,     2661,     2643,     2640
    2247,     2645,     2663,     2662,     2644,     2642,     2660,     2659,     2641
    2248,     2661,     2664,     2646,     2643,     2215,     2216,     2210,     2209
    2249,     2662,     2665,     2647,     2644,     2661,     2664,     2646,     2643
    2250,     2648,     2666,     2665,     2647,     2645,     2663,     2662,     2644
    2251,     2664,     2667,     2649,     2646,     2216,     2217,     2211,     2210
    2252,     2665,     2668,     2650,     2647,     2664,     2667,     2649,     2646
    2253,     2651,     2669,     2668,     2650,     2648,     2666,     2665,     2647
    2254,     2667,     2670,     2652,     2649,     2217,     2218,     2212,     2211
    2255,     2668,     2671,     2653,     2650,     2667,     2670,     2652,     2649
    2256,     2671,     2672,     2669,     2668,     2653,     2654,     2651,     2650
    2257,     2469,     2673,     2655,     2448,     2151,     2219,     2213,     2144
    2258,     2470,     2674,     2656,     2449,     2469,     2673,     2655,     2448
    2259,     2657,     2675,     2674,     2656,     2450,     2471,     2470,     2449
    2260,     2673,     2676,     2658,     2655,     2219,     2220,     2214,     2213
    2261,     2674,     2677,     2659,     2656,     2673,     2676,     2658,     2655
    2262,     2660,     2678,     2677,     2659,     2657,     2675,     2674,     2656
    2263,     2676,     2679,     2661,     2658,     2220,     2221,     2215,     2214
    2264,     2677,     2680,     2662,     2659,     2676,     2679,     2661,     2658
    2265,     2663,     2681,     2680,     2662,     2660,     2678,     2677,     2659
    2266,     2679,     2682,     2664,     2661,     2221,     2222,     2216,     2215
    2267,     2680,     2683,     2665,     2662,     2679,     2682,     2664,     2661
    2268,     2666,     2684,     2683,     2665,     2663,     2681,     2680,     2662
    2269,     2682,     2685,     2667,     2664,     2222,     2223,     2217,     2216
    2270,     2683,     2686,     2668,     2665,     2682,     2685,     2667,     2664
    2271,     2669,     2687,     2686,     2668,     2666,     2684,     2683,     2665
    2272,     2685,     2688,     2670,     2667,     2223,     2224,     2218,     2217
    2273,     2686,     2689,     2671,     2668,     2685,     2688,     2670,     2667
    2274,     2689,     2690,     2687,     2686,     2671,     2672,     2669,     2668
    2275,     2490,     2691,     2673,     2469,     2158,     2225,     2219,     2151
    2276,     2491,     2692,     2674,     2470,     2490,     2691,     2673,     2469
    2277,     2675,     2693,     2692,     2674,     2471,     2492,     2491,     2470
    2278,     2691,     2694,     2676,     2673,     2225,     2226,     2220,     2219
    2279,     2692,     2695,     2677,     2674,     2691,     2694,     2676,     2673
    2280,     2678,     2696,     2695,     2677,     2675,     2693,     2692,     2674
    2281,     2694,     2697,     2679,     2676,     2226,     2227,     2221,     2220
    2282,     2695,     2698,     2680,     2677,     2694,     2697,     2679,     2676
    2283,     2681,     2699,     2698,     2680,     2678,     2696,     2695,     2677
    2284,     2697,     2700,     2682,     2679,     2227,     2228,     2222,     2221
    2285,     2698,     2701,     2683,     2680,     2697,     2700,     2682,     2679
    2286,     2684,     2702,     2701,     2683,     2681,     2699,     2698,     2680
    2287,     2700,     2703,     2685,     2682,     2228,     2229,     2223,     2222
    2288,     2701,     2704,     2686,     2683,     2700,     2703,     2685,     2682
    2289,     2687,     2705,     2704,     2686,     2684,     2702,     2701,     2683
    2290,     2703,     2706,     2688,     2685,     2229,     2230,     2224,     2223
    2291,     2704,     2707,     2689,     2686,     2703,     2706,     2688,     2685
    2292,     2707,     2708,     2705,     2704,     2689,     2690,     2687,     2686
    2293,     2511,     2709,     2691,     2490,     2165,     2231,     2225,     2158
    2294,     2512,     2710,     2692,     2491,     2511,     2709,     2691,     2490
    2295,     2693,     2711,     2710,     2692,     2492,     2513,     2512,     2491
    2296,     2709,     2712,     2694,     2691,     2231,     2232,     2226,     2225
    2297,     2710,     2713,     2695,     2692,     2709,     2712,     2694,     2691
    2298,     2696,     2714,     2713,     2695,     2693,     2711,     2710,     2692
    2299,     2712,     2715,     2697,     2694,     2232,     2233,     2227,     2226
    2300,     2713,     2716,     2698,     2695,     2712,     2715,     2697,     2694
    2301,     2699,     2717,     2716,     2698,     2696,     2714,     2713,     2695
    2302,     2715,     2718,     2700,     2697,     2233,     2234,     2228,     2227
    2303,     2716,     2719,     2701,     2698,     2715,     2718,     2700,     2697
    2304,     2702,     2720,     2719,     2701,     2699,     2717,     2716,     2698
    2305,     2718,     2721,     2703,     2700,     2234,     2235,     2229,     2228
    2306,     2719,     2722,     2704,     2701,     2718,     2721,     2703,     2700
    2307,     2705,     2723,     2722,     2704,     2702,     2720,     2719,     2701
    2308,     2721,     2724,     2706,     2703,     2235,     2236,     2230,     2229
    2309,     2722,     2725,     2707,     2704,     2721,     2724,     2706,     2703
    2310,     2725,     2726,     2723,     2722,     2707,     2708,     2705,     2704
    2311,     2532,     2727,     2709,     2511,     2172,     2237,     2231,     2165
    2312,     2533,     2728,     2710,     2512,     2532,     2727,     2709,     2511
    2313,     2711,     2729,     2728,     2710,     2513,     2534,     2533,     2512
    2314,     2727,     2730,     2712,     2709,     2237,     2238,     2232,     2231
    2315,     2728,     2731,     2713,     2710,     2727,     2730,     2712,     2709
    2316,     2714,     2732,     2731,     2713,     2711,     2729,     2728,     2710
    2317,     2730,     2733,     2715,     2712,     2238,     2239,     2233,     2232
    2318,     2731,     2734,     2716,     2713,     2730,     2733,     2715,     2712
    2319,     2717,     2735,     2734,     2716,     2714,     2732,     2731,     2713
    2320,     2733,     2736,     2718,     2715,     2239,     2240,     2234,     2233
    2321,     2734,     2737,     2719,     2716,     2733,     2736,     2718,     2715
    2322,     2720,     2738,     2737,     2719,     2717,     2735,     2734,     2716
    2323,     2736,     2739,     2721,     2718,     2240,     2241,     2235,     2234
    2324,     2737,     2740,     2722,     2719,     2736,     2739,     2721,     2718
    2325,     2723,     2741,     2740,     2722,     2720,     2738,     2737,     2719
    2326,     2739,     2742,     2724,     2721,     2241,     2242,     2236,     2235
    2327,     2740,     2743,     2725,     2722,     2739,     2742,     2724,     2721
    2328,     2743,     2744,     2741,     2740,     2725,     2726,     2723,     2722
    2329,     2553,     2745,     2727,     2532,     2179,     2243,     2237,     2172
    2330,     2554,     2746,     2728,     2533,     2553,     2745,     2727,     2532
    2331,     2729,     2747,     2746,     2728,     2534,     2555,     2554,     2533
    2332,     2745,     2748,     2730,     2727,     2243,     2244,     2238,     2237
    2333,     2746,     2749,     2731,     2728,     2745,     2748,     2730,     2727
    2334,     2732,     2750,     2749,     2731,     2729,     2747,     2746,     2728
    2335,     2748,     2751,     2733,     2730,     2244,     2245,     2239,     2238
    2336,     2749,     2752,     2734,     2731,     2748,     2751,     2733,     2730
    2337,     2735,     2753,     2752,     2734,     2732,     2750,     2749,     2731
    2338,     2751,     2754,     2736,     2733,     2245,     2246,     2240,     2239
    2339,     2752,     2755,     2737,     2734,     2751,     2754,     2736,     2733
    2340,     2738,     2756,     2755,     2737,     2735,     2753,     2752,     2734
    2341,     2754,     2757,     2739,     2736,     2246,     2247,     2241,     2240
    2342,     2755,     2758,     2740,     2737,     2754,     2757,     2739,     2736
    2343,     2741,     2759,     2758,     2740,     2738,     2756,     2755,     2737
    2344,     2757,     2760,     2742,     2739,     2247,     2248,     2242,     2241
    2345,     2758,     2761,     2743,     2740,     2757,     2760,     2742,     2739
    2346,     2761,     2762,     2759,     2758,     2743,     2744,     2741,     2740
    2347,     2574,     2763,     2745,     2553,     2186,     2249,     2243,     2179
    2348,     2575,     2764,     2746,     2554,     2574,     2763,     2745,     2553
    2349,     2747,     2765,     2764,     2746,     2555,     2576,     2575,     2554
    2350,     2763,     2766,     2748,     2745,     2249,     2250,     2244,     2243
    2351,     2764,     2767,     2749,     2746,     2763,     2766,     2748,     2745
    2352,     2750,     2768,     2767,     2749,     2747,     2765,     2764,     2746
    2353,     2766,     2769,     2751,     2748,     2250,     2251,     2245,     2244
    2354,     2767,     2770,     2752,     2749,     2766,     2769,     2751,     2748
    2355,     2753,     2771,     2770,     2752,     2750,     2768,     2767,     2749
    2356,     2769,     2772,     2754,     2751,     2251,     2252,     2246,     2245
    2357,     2770,     2773,     2755,     2752,     2769,     2772,     2754,     2751
    2358,     2756,     2774,     2773,     2755,     2753,     2771,     2770,     2752
    2359,     2772,     2775,     2757,     2754,     2252,     2253,     2247,     2246
    2360,     2773,     2776,     2758,     2755,     2772,     2775,     2757,     2754
    2361,     2759,     2777,     2776,     2758,     2756,     2774,     2773,     2755
    2362,     2775,     2778,     2760,     2757,     2253,     2254,     2248,     2247
    2363,     2776,     2779,     2761,     2758,     2775,     2778,     2760,     2757
    2364,     2779,     2780,     2777,     2776,     2761,     2762,     2759,     2758
    2365,     2595,     2781,     2763,     2574,     2193,     2255,     2249,     2186
    2366,     2596,     2782,     2764,     2575,     2595,     2781,     2763,     2574
    2367,     2765,     2783,     2782,     2764,     2576,     2597,     2596,     2575
    2368,     2781,     2784,     2766,     2763,     2255,     2256,     2250,     2249
    2369,     2782,     2785,     2767,     2764,     2781,     2784,     2766,     2763
    2370,     2768,     2786,     2785,     2767,     2765,     2783,     2782,     2764
    2371,     2784,     2787,     2769,     2766,     2256,     2257,     2251,     2250
    2372,     2785,     2788,     2770,     2767,     2784,     2787,     2769,     2766
    2373,     2771,     2789,     2788,     2770,     2768,     2786,     2785,     2767
    2374,     2787,     2790,     2772,     2769,     2257,     2258,     2252,     2251
    2375,     2788,     2791,     2773,     2770,     2787,     2790,     2772,     2769
    2376,     2774,     2792,     2791,     2773,     2771,     2789,     2788,     2770
    2377,     2790,     2793,     2775,     2772,     2258,     2259,     2253,     2252
    2378,     2791,     2794,     2776,     2773,     2790,     2793,     2775,     2772
    2379,     2777,     2795,     2794,     2776,     2774,     2792,     2791,     2773
    2380,     2793,     2796,     2778,     2775,     2259,     2260,     2254,     2253
    2381,     2794,     2797,     2779,     2776,     2793,     2796,     2778,     2775
    2382,     2797,     2798,     2795,     2794,     2779,     2780,     2777,     2776
    2383,     2616,     2799,     2781,     2595,     2200,     2261,     2255,     2193
    2384,     2617,     2800,     2782,     2596,     2616,     2799,     2781,     2595
    2385,     2783,     2801,     2800,     2782,     2597,     2618,     2617,     2596
    2386,     2799,     2802,     2784,     2781,     2261,     2262,     2256,     2255
    2387,     2800,     2803,     2785,     2782,     2799,     2802,     2784,     2781
    2388,     2786,     2804,     2803,     2785,     2783,     2801,     2800,     2782
    2389,     2802,     2805,     2787,     2784,     2262,     2263,     2257,     2256
    2390,     2803,     2806,     2788,     2785,     2802,     2805,     2787,     2784
    2391,     2789,     2807,     2806,     2788,     2786,     2804,     2803,     2785
    2392,     2805,     2808,     2790,     2787,     2263,     2264,     2258,     2257
    2393,     2806,     2809,     2791,     2788,     2805,     2808,     2790,     2787
    2394,     2792,     2810,     2809,     2791,     2789,     2807,     2806,     2788
    2395,     2808,     2811,     2793,     2790,     2264,     2265,     2259,     2258
    2396,     2809,     2812,     2794,     2791,     2808,     2811,     2793,     2790
    2397,     2795,     2813,     2812,     2794,     2792,     2810,     2809,     2791
    2398,     2811,     2814,     2796,     2793,     2265,     2266,     2260,     2259
    2399,     2812,     2815,     2797,     2794,     2811,     2814,     2796,     2793
    2400,     2798,     2816,     2815,     2797,     2795,     2813,     2812,     2794
    2401,     2652,     2835,     2817,     2634,     2212,     2273,     2267,     2206
    2402,     2653,     2836,     2818,     2635,     2652,     2835,     2817,     2634
    2403,     2819,     2837,     2836,     2818,     2636,     2654,     2653,     2635
    2404,     2835,     2838,     2820,     2817,     2273,     2274,     2268,     2267
    2405,     2836,     2839,     2821,     2818,     2835,     2838,     2820,     2817
    2406,     2822,     2840,     2839,     2821,     2819,     2837,     2836,     2818
    2407,     2838,     2841,     2823,     2820,     2274,     2275,     2269,     2268
    2408,     2839,     2842,     2824,     2821,     2838,     2841,     2823,     2820
    2409,     2825,     2843,     2842,     2824,     2822,     2840,     2839,     2821
    2410,     2841,     2844,     2826,     2823,     2275,     2276,     2270,     2269
    2411,     2842,     2845,     2827,     2824,     2841,     2844,     2826,     2823
    2412,     2828,     2846,     2845,     2827,     2825,     2843,     2842,     2824
    2413,     2844,     2847,     2829,     2826,     2276,     2277,     2271,     2270
    2414,     2845,     2848,     2830,     2827,     2844,     2847,     2829,     2826
    2415,     2831,     2849,     2848,     2830,     2828,     2846,     2845,     2827
    2416,     2847,     2850,     2832,     2829,     2277,     2278,     2272,     2271
    2417,     2848,     2851,     2833,     2830,     2847,     2850,     2832,     2829
    2418,     2851,     2852,     2849,     2848,     2833,     2834,     2831,     2830
    2419,     2670,     2853,     2835,     2652,     2218,     2279,     2273,     2212
    2420,     2671,     2854,     2836,     2653,     2670,     2853,     2835,     2652
    2421,     2837,     2855,     2854,     2836,     2654,     2672,     2671,     2653
    2422,     2853,     2856,     2838,     2835,     2279,     2280,     2274,     2273
    2423,     2854,     2857,     2839,     2836,     2853,     2856,     2838,     2835
    2424,     2840,     2858,     2857,     2839,     2837,     2855,     2854,     2836
    2425,     2856,     2859,     2841,     2838,     2280,     2281,     2275,     2274
    2426,     2857,     2860,     2842,     2839,     2856,     2859,     2841,     2838
    2427,     2843,     2861,     2860,     2842,     2840,     2858,     2857,     2839
    2428,     2859,     2862,     2844,     2841,     2281,     2282,     2276,     2275
    2429,     2860,     2863,     2845,     2842,     2859,     2862,     2844,     2841
    2430,     2846,     2864,     2863,     2845,     2843,     2861,     2860,     2842
    2431,     2862,     2865,     2847,     2844,     2282,     2283,     2277,     2276
    2432,     2863,     2866,     2848,     2845,     2862,     2865,     2847,     2844
    2433,     2849,     2867,     2866,     2848,     2846,     2864,     2863,     2845
    2434,     2865,     2868,     2850,     2847,     2283,     2284,     2278,     2277
    2435,     2866,     2869,     2851,     2848,     2865,     2868,     2850,     2847
    2436,     2869,     2870,     2867,     2866,     2851,     2852,     2849,     2848
    2437,     2688,     2871,     2853,     2670,     2224,     2285,     2279,     2218
    2438,     2689,     2872,     2854,     2671,     2688,     2871,     2853,     2670
    2439,     2855,     2873,     2872,     2854,     2672,     2690,     2689,     2671
    2440,     2871,     2874,     2856,     2853,     2285,     2286,     2280,     2279
    2441,     2872,     2875,     2857,     2854,     2871,     2874,     2856,     2853
    2442,     2858,     2876,     2875,     2857,     2855,     2873,     2872,     2854
    2443,     2874,     2877,     2859,     2856,     2286,     2287,     2281,     2280
    2444,     2875,     2878,     2860,     2857,     2874,     2877,     2859,     2856
    2445,     2861,     2879,     2878,     2860,     2858,     2876,     2875,     2857
    2446,     2877,     2880,     2862,     2859,     2287,     2288,     2282,     2281
    2447,     2878,     2881,     2863,     2860,     2877,     2880,     2862,     2859
    2448,     2864,     2882,     2881,     2863,     2861,     2879,     2878,     2860
    2449,     2880,     2883,     2865,     2862,     2288,     2289,     2283,     2282
    2450,     2881,     2884,     2866,     2863,     2880,     2883,     2865,     2862
    2451,     2867,     2885,     2884,     2866,     2864,     2882,     2881,     2863
    2452,     2883,     2886,     2868,     2865,     2289,     2290,     2284,     2283
    2453,     2884,     2887,     2869,     2866,     2883,     2886,     2868,     2865
    2454,     2887,     2888,     2885,     2884,     2869,     2870,     2867,     2866
    2455,     2706,     2889,     2871,     2688,     2230,     2291,     2285,     2224
    2456,     2707,     2890,     2872,     2689,     2706,     2889,     2871,     2688
    2457,     2873,     2891,     2890,     2872,     2690,     2708,     2707,     2689
    2458,     2889,     2892,     2874,     2871,     2291,     2292,     2286,     2285
    2459,     2890,     2893,     2875,     2872,     2889,     2892,     2874,     2871
    2460,     2876,     2894,     2893,     2875,     2873,     2891,     2890,     2872
    2461,     2892,     2895,     2877,     2874,     2292,     2293,     2287,     2286
    2462,     2893,     2896,     2878,     2875,     2892,     2895,     2877,     2874
    2463,     2879,     2897,     2896,     2878,     2876,     2894,     2893,     2875
    2464,     2895,     2898,     2880,     2877,     2293,     2294,     2288,     2287
    2465,     2896,     2899,     2881,     2878,     2895,     2898,     2880,     2877
    2466,     2882,     2900,     2899,     2881,     2879,     2897,     2896,     2878
    2467,     2898,     2901,     2883,     2880,     2294,     2295,     2289,     2288
    2468,     2899,     2902,     2884,     2881,     2898,     2901,     2883,     2880
    2469,     2885,     2903,     2902,     2884,     2882,     2900,     2899,     2881
    2470,     2901,     2904,     2886,     2883,     2295,     2296,     2290,     2289
    2471,     2902,     2905,     2887,     2884,     2901,     2904,     2886,     2883
    2472,     2905,     2906,     2903,     2902,     2887,     2888,     2885,     2884
    2473,     2724,     2907,     2889,     2706,     2236,     2297,     2291,     2230
    2474,     2725,     2908,     2890,     2707,     2724,     2907,     2889,     2706
    2475,     2891,     2909,     2908,     2890,     2708,     2726,     2725,     2707
    2476,     2907,     2910,     2892,     2889,     2297,     2298,     2292,     2291
    2477,     2908,     2911,     2893,     2890,     2907,     2910,     2892,     2889
    2478,     2894,     2912,     2911,     2893,     2891,     2909,     2908,     2890
    2479,     2910,     2913,     2895,     2892,     2298,     2299,     2293,     2292
    2480,     2911,     2914,     2896,     2893,     2910,     2913,     2895,     2892
    2481,     2897,     2915,     2914,     2896,     2894,     2912,     2911,     2893
    2482,     2913,     2916,     2898,     2895,     2299,     2300,     2294,     2293
    2483,     2914,     2917,     2899,     2896,     2913,     2916,     2898,     2895
    2484,     2900,     2918,     2917,     2899,     2897,     2915,     2914,     2896
    2485,     2916,     2919,     2901,     2898,     2300,     2301,     2295,     2294
    2486,     2917,     2920,     2902,     2899,     2916,     2919,     2901,     2898
    2487,     2903,     2921,     2920,     2902,     2900,     2918,     2917,     2899
    2488,     2919,     2922,     2904,     2901,     2301,     2302,     2296,     2295
    2489,     2920,     2923,     2905,     2902,     2919,     2922,     2904,     2901
    2490,     2923,     2924,     2921,     2920,     2905,     2906,     2903,     2902
    2491,     2742,     2925,     2907,     2724,     2242,     2303,     2297,     2236
    2492,     2743,     2926,     2908,     2725,     2742,     2925,     2907,     2724
    2493,     2909,     2927,     2926,     2908,     2726,     2744,     2743,     2725
    2494,     2925,     2928,     2910,     2907,     2303,     2304,     2298,     2297
    2495,     2926,     2929,     2911,     2908,     2925,     2928,     2910,     2907
    2496,     2912,     2930,     2929,     2911,     2909,     2927,     2926,     2908
    2497,     2928,     2931,     2913,     2910,     2304,     2305,     2299,     2298
    2498,     2929,     2932,     2914,     2911,     2928,     2931,     2913,     2910
    2499,     2915,     2933,     2932,     2914,     2912,     2930,     2929,     2911
    2500,     2931,     2934,     2916,     2913,     2305,     2306,     2300,     2299
    2501,     2932,     2935,     2917,     2914,     2931,     2934,     2916,     2913
    2502,     2918,     2936,     2935,     2917,     2915,     2933,     2932,     2914
    2503,     2934,     2937,     2919,     2916,     2306,     2307,     2301,     2300
    2504,     2935,     2938,     2920,     2917,     2934,     2937,     2919,     2916
    2505,     2921,     2939,     2938,     2920,     2918,     2936,     2935,     2917
    2506,     2937,     2940,     2922,     2919,     2307,     2308,     2302,     2301
    2507,     2938,     2941,     2923,     2920,     2937,     2940,     2922,     2919
    2508,     2941,     2942,     2939,     2938,     2923,     2924,     2921,     2920
    2509,     2760,     2943,     2925,     2742,     2248,     2309,     2303,     2242
    2510,     2761,     2944,     2926,     2743,     2760,     2943,     2925,     2742
    2511,     2927,     2945,     2944,     2926,     2744,     2762,     2761,     2743
    2512,     2943,     2946,     2928,     2925,     2309,     2310,     2304,     2303
    2513,     2944,     2947,     2929,     2926,     2943,     2946,     2928,     2925
    2514,     2930,     2948,     2947,     2929,     2927,     2945,     2944,     2926
    2515,     2946,     2949,     2931,     2928,     2310,     2311,     2305,     2304
    2516,     2947,     2950,     2932,     2929,     2946,     2949,     2931,     2928
    2517,     2933,     2951,     2950,     2932,     2930,     2948,     2947,     2929
    2518,     2949,     2952,     2934,     2931,     2311,     2312,     2306,     2305
    2519,     2950,     2953,     2935,     2932,     2949,     2952,     2934,     2931
    2520,     2936,     2954,     2953,     2935,     2933,     2951,     2950,     2932
    2521,     2952,     2955,     2937,     2934,     2312,     2313,     2307,     2306
    2522,     2953,     2956,     2938,     2935,     2952,     2955,     2937,     2934
    2523,     2939,     2957,     2956,     2938,     2936,     2954,     2953,     2935
    2524,     2955,     2958,     2940,     2937,     2313,     2314,     2308,     2307
    2525,     2956,     2959,     2941,     2938,     2955,     2958,     2940,     2937
    2526,     2959,     2960,     2957,     2956,     2941,     2942,     2939,     2938
    2527,     2778,     2961,     2943,     2760,     2254,     2315,     2309,     2248
    2528,     2779,     2962,     2944,     2761,     2778,     2961,     2943,     2760
    2529,     2945,     2963,     2962,     2944,     2762,     2780,     2779,     2761
    2530,     2961,     2964,     2946,     2943,     2315,     2316,     2310,     2309
    2531,     2962,     2965,     2947,     2944,     2961,     2964,     2946,     2943
    2532,     2948,     2966,     2965,     2947,     2945,     2963,     2962,     2944
    2533,     2964,     2967,     2949,     2946,     2316,     2317,     2311,     2310
    2534,     2965,     2968,     2950,     2947,     2964,     2967,     2949,     2946
    2535,     2951,     2969,     2968,     2950,     2948,     2966,     2965,     2947
    2536,     2967,     2970,     2952,     2949,     2317,     2318,     2312,     2311
    2537,     2968,     2971,     2953,     2950,     2967,     2970,     2952,     2949
    2538,     2954,     2972,     2971,     2953,     2951,     2969,     2968,     2950
    2539,     2970,     2973,     2955,     2952,     2318,     2319,     2313,     2312
    2540,     2971,     2974,     2956,     2953,     2970,     2973,     2955,     2952
    2541,     2957,     2975,     2974,     2956,     2954,     2972,     2971,     2953
    2542,     2973,     2976,     2958,     2955,     2319,     2320,     2314,     2313
    2543,     2974,     2977,     2959,     2956,     2973,     2976,     2958,     2955
    2544,     2977,     2978,     2975,     2974,     2959,     2960,     2957,     2956
    2545,     2796,     2979,     2961,     2778,     2260,     2321,     2315,     2254
    2546,     2797,     2980,     2962,     2779,     2796,     2979,     2961,     2778
    2547,     2963,     2981,     2980,     2962,     2780,     2798,     2797,     2779
    2548,     2979,     2982,     2964,     2961,     2321,     2322,     2316,     2315
    2549,     2980,     2983,     2965,     2962,     2979,     2982,     2964,     2961
    2550,     2966,     2984,     2983,     2965,     2963,     2981,     2980,     2962
    2551,     2982,     2985,     2967,     2964,     2322,     2323,     2317,     2316
    2552,     2983,     2986,     2968,     2965,     2982,     2985,     2967,     2964
    2553,     2969,     2987,     2986,     2968,     2966,     2984,     2983,     2965
    2554,     2985,     2988,     2970,     2967,     2323,     2324,     2318,     2317
    2555,     2986,     2989,     2971,     2968,     2985,     2988,     2970,     2967
    2556,     2972,     2990,     2989,     2971,     2969,     2987,     2986,     2968
    2557,     2988,     2991,     2973,     2970,     2324,     2325,     2319,     2318
    2558,     2989,     2992,     2974,     2971,     2988,     2991,     2973,     2970
    2559,     2975,     2993,     2992,     2974,     2972,     2990,     2989,     2971
    2560,     2991,     2994,     2976,     2973,     2325,     2326,     2320,     2319
    2561,     2992,     2995,     2977,     2974,     2991,     2994,     2976,     2973
    2562,     2995,     2996,     2993,     2992,     2977,     2978,     2975,     2974
    2563,     2814,     2997,     2979,     2796,     2266,     2327,     2321,     2260
    2564,     2815,     2998,     2980,     2797,     2814,     2997,     2979,     2796
    2565,     2981,     2999,     2998,     2980,     2798,     2816,     2815,     2797
    2566,     2997,     3000,     2982,     2979,     2327,     2328,     2322,     2321
    2567,     2998,     3001,     2983,     2980,     2997,     3000,     2982,     2979
    2568,     2984,     3002,     3001,     2983,     2981,     2999,     2998,     2980
    2569,     3000,     3003,     2985,     2982,     2328,     2329,     2323,     2322
    2570,     3001,     3004,     2986,     2983,     3000,     3003,     2985,     2982
    2571,     2987,     3005,     3004,     2986,     2984,     3002,     3001,     2983
    2572,     3003,     3006,     2988,     2985,     2329,     2330,     2324,     2323
    2573,     3004,     3007,     2989,     2986,     3003,     3006,     2988,     2985
    2574,     2990,     3008,     3007,     2989,     2987,     3005,     3004,     2986
    2575,     3006,     3009,     2991,     2988,     2330,     2331,     2325,     2324
    2576,     3007,     3010,     2992,     2989,     3006,     3009,     2991,     2988
    2577,     2993,     3011,     3010,     2992,     2990,     3008,     3007,     2989
    2578,     3009,     3012,     2994,     2991,     2331,     2332,     2326,     2325
    2579,     3010,     3013,     2995,     2992,     3009,     3012,     2994,     2991
    2580,     2996,     3014,     3013,     2995,     2993,     3011,     3010,     2992
    2581,     2850,     3030,     3015,     2832,     2278,     2338,     2333,     2272
    2582,     2851,     3031,     3016,     2833,     2850,     3030,     3015,     2832
    2583,     3017,     3032,     3031,     3016,     2834,     2852,     2851,     2833
    2584,     3030,     3033,     3018,     3015,     2338,     2339,     2334,     2333
    2585,     3031,     3034,     3019,     3016,     3030,     3033,     3018,     3015
    2586,     3020,     3035,     3034,     3019,     3017,     3032,     3031,     3016
    2587,     3033,     3036,     3021,     3018,     2339,     2340,     2335,     2334
    2588,     3034,     3037,     3022,     3019,     3033,     3036,     3021,     3018
    2589,     3023,     3038,     3037,     3022,     3020,     3035,     3034,     3019
    2590,     3036,     3039,     3024,     3021,     2340,     2341,     2336,     2335
    2591,     3037,     3040,     3025,     3022,     3036,     3039,     3024,     3021
    2592,     3026,     3041,     3040,     3025,     3023,     3038,     3037,     3022
    2593,     3039,     3042,     3027,     3024,     2341,     2342,     2337,     2336
    2594,     3040,     3043,     3028,     3025,     3039,     3042,     3027,     3024
    2595,     3029,     3044,     3043,     3028,     3026,     3041,     3040,     3025
    2596,     3042,     2409,     2388,     3027,     2342,     2131,     2124,     2337
    2597,     3043,     2410,     2389,     3028,     3042,     2409,     2388,     3027
    2598,     2410,     2411,     3044,     3043,     2389,     2390,     3029,     3028
    2599,     2868,     3045,     3030,     2850,     2284,     2343,     2338,     2278
    2600,     2869,     3046,     3031,     2851,     2868,     3045,     3030,     2850
    2601,     3032,     3047,     3046,     3031,     2852,     2870,     2869,     2851
    2602,     3045,     3048,     3033,     3030,     2343,     2344,     2339,     2338
    2603,     3046,     3049,     3034,     3031,     3045,     3048,     3033,     3030
    2604,     3035,     3050,     3049,     3034,     3032,     3047,     3046,     3031
    2605,     3048,     3051,     3036,     3033,     2344,     2345,     2340,     2339
    2606,     3049,     3052,     3037,     3034,     3048,     3051,     3036,     3033
    2607,     3038,     3053,     3052,     3037,     3035,     3050,     3049,     3034
    2608,     3051,     3054,     3039,     3036,     2345,     2346,     2341,     2340
    2609,     3052,     3055,     3040,     3037,     3051,     3054,     3039,     3036
    2610,     3041,     3056,     3055,     3040,     3038,     3053,     3052,     3037
    2611,     3054,     3057,     3042,     3039,     2346,     2347,     2342,     2341
    2612,     3055,     3058,     3043,     3040,     3054,     3057,     3042,     3039
    2613,     3044,     3059,     3058,     3043,     3041,     3056,     3055,     3040
    2614,     3057,     2430,     2409,     3042,     2347,     2138,     2131,     2342
    2615,     3058,     2431,     2410,     3043,     3057,     2430,     2409,     3042
    2616,     2431,     2432,     3059,     3058,     2410,     2411,     3044,     3043
    2617,     2886,     3060,     3045,     2868,     2290,     2348,     2343,     2284
    2618,     2887,     3061,     3046,     2869,     2886,     3060,     3045,     2868
    2619,     3047,     3062,     3061,     3046,     2870,     2888,     2887,     2869
    2620,     3060,     3063,     3048,     3045,     2348,     2349,     2344,     2343
    2621,     3061,     3064,     3049,     3046,     3060,     3063,     3048,     3045
    2622,     3050,     3065,     3064,     3049,     3047,     3062,     3061,     3046
    2623,     3063,     3066,     3051,     3048,     2349,     2350,     2345,     2344
    2624,     3064,     3067,     3052,     3049,     3063,     3066,     3051,     3048
    2625,     3053,     3068,     3067,     3052,     3050,     3065,     3064,     3049
    2626,     3066,     3069,     3054,     3051,     2350,     2351,     2346,     2345
    2627,     3067,     3070,     3055,     3052,     3066,     3069,     3054,     3051
    2628,     3056,     3071,     3070,     3055,     3053,     3068,     3067,     3052
    2629,     3069,     3072,     3057,     3054,     2351,     2352,     2347,     2346
    2630,     3070,     3073,     3058,     3055,     3069,     3072,     3057,     3054
    2631,     3059,     3074,     3073,     3058,     3056,     3071,     3070,     3055
    2632,     3072,     2451,     2430,     3057,     2352,     2145,     2138,     2347
    2633,     3073,     2452,     2431,     3058,     3072,     2451,     2430,     3057
    2634,     2452,     2453,     3074,     3073,     2431,     2432,     3059,     3058
    2635,     2904,     3075,     3060,     2886,     2296,     2353,     2348,     2290
    2636,     2905,     3076,     3061,     2887,     2904,     3075,     3060,     2886
    2637,     3062,     3077,     3076,     3061,     2888,     2906,     2905,     2887
    2638,     3075,     3078,     3063,     3060,     2353,     2354,     2349,     2348
    2639,     3076,     3079,     3064,     3061,     3075,     3078,     3063,     3060
    2640,     3065,     3080,     3079,     3064,     3062,     3077,     3076,     3061
    2641,     3078,     3081,     3066,     3063,     2354,     2355,     2350,     2349
    2642,     3079,     3082,     3067,     3064,     3078,     3081,     3066,     3063
    2643,     3068,     3083,     3082,     3067,     3065,     3080,     3079,     3064
    2644,     3081,     3084,     3069,     3066,     2355,     2356,     2351,     2350
    2645,     3082,     3085,     3070,     3067,     3081,     3084,     3069,     3066
    2646,     3071,     3086,     3085,     3070,     3068,     3083,     3082,     3067
    2647,     3084,     3087,     3072,     3069,     2356,     2357,     2352,     2351
    2648,     3085,     3088,     3073,     3070,     3084,     3087,     3072,     3069
    2649,     3074,     3089,     3088,     3073,     3071,     3086,     3085,     3070
    2650,     3087,     2472,     2451,     3072,     2357,     2152,     2145,     2352
    2651,     3088,     2473,     2452,     3073,     3087,     2472,     2451,     3072
    2652,     2473,     2474,     3089,     3088,     2452,     2453,     3074,     3073
    2653,     2922,     3090,     3075,     2904,     2302,     2358,     2353,     2296
    2654,     2923,     3091,     3076,     2905,     2922,     3090,     3075,     2904
    2655,     3077,     3092,     3091,     3076,     2906,     2924,     2923,     2905
    2656,     3090,     3093,     3078,     3075,     2358,     2359,     2354,     2353
    2657,     3091,     3094,     3079,     3076,     3090,     3093,     3078,     3075
    2658,     3080,     3095,     3094,     3079,     3077,     3092,     3091,     3076
    2659,     3093,     3096,     3081,     3078,     2359,     2360,     2355,     2354
    2660,     3094,     3097,     3082,     3079,     3093,     3096,     3081,     3078
    2661,     3083,     3098,     3097,     3082,     3080,     3095,     3094,     3079
    2662,     3096,     3099,     3084,     3081,     2360,     2361,     2356,     2355
    2663,     3097,     3100,     3085,     3082,     3096,     3099,     3084,     3081
    2664,     3086,     3101,     3100,     3085,     3083,     3098,     3097,     3082
    2665,     3099,     3102,     3087,     3084,     2361,     2362,     2357,     2356
    2666,     3100,     3103,     3088,     3085,     3099,     3102,     3087,     3084
    2667,     3089,     3104,     3103,     3088,     3086,     3101,     3100,     3085
    2668,     3102,     2493,     2472,     3087,     2362,     2159,     2152,     2357
    2669,     3103,     2494,     2473,     3088,     3102,     2493,     2472,     3087
    2670,     2494,     2495,     3104,     3103,     2473,     2474,     3089,     3088
    2671,     2940,     3105,     3090,     2922,     2308,     2363,     2358,     2302
    2672,     2941,     3106,     3091,     2923,     2940,     3105,     3090,     2922
    2673,     3092,     3107,     3106,     3091,     2924,     2942,     2941,     2923
    2674,     3105,     3108,     3093,     3090,     2363,     2364,     2359,     2358
    2675,     3106,     3109,     3094,     3091,     3105,     3108,     3093,     3090
    2676,     3095,     3110,     3109,     3094,     3092,     3107,     3106,     3091
    2677,     3108,     3111,     3096,     3093,     2364,     2365,     2360,     2359
    2678,     3109,     3112,     3097,     3094,     3108,     3111,     3096,     3093
    2679,     3098,     3113,     3112,     3097,     3095,     3110,     3109,     3094
    2680,     3111,     3114,     3099,     3096,     2365,     2366,     2361,     2360
    2681,     3112,     3115,     3100,     3097,     3111,     3114,     3099,     3096
    2682,     3101,     3116,     3115,     3100,     3098,     3113,     3112,     3097
    2683,     3114,     3117,     3102,     3099,     2366,     2367,     2362,     2361
    2684,     3115,     3118,     3103,     3100,     3114,     3117,     3102,     3099
    2685,     3104,     3119,     3118,     3103,     3101,     3116,     3115,     3100
    2686,     3117,     2514,     2493,     3102,     2367,     2166,     2159,     2362
    2687,     3118,     2515,     2494,     3103,     3117,     2514,     2493,     3102
    2688,     2515,     2516,     3119,     3118,     2494,     2495,     3104,     3103
    2689,     2958,     3120,     3105,     2940,     2314,     2368,     2363,     2308
    2690,     2959,     3121,     3106,     2941,     2958,     3120,     3105,     2940
    2691,     3107,     3122,     3121,     3106,     2942,     2960,     2959,     2941
    2692,     3120,     3123,     3108,     3105,     2368,     2369,     2364,     2363
    2693,     3121,     3124,     3109,     3106,     3120,     3123,     3108,     3105
    2694,     3110,     3125,     3124,     3109,     3107,     3122,     3121,     3106
    2695,     3123,     3126,     3111,     3108,     2369,     2370,     2365,     2364
    2696,     3124,     3127,     3112,     3109,     3123,     3126,     3111,     3108
    2697,     3113,     3128,     3127,     3112,     3110,     3125,     3124,     3109
    2698,     3126,     3129,     3114,     3111,     2370,     2371,     2366,     2365
    2699,     3127,     3130,     3115,     3112,     3126,     3129,     3114,     3111
    2700,     3116,     3131,     3130,     3115,     3113,     3128,     3127,     3112
    2701,     3129,     3132,     3117,     3114,     2371,     2372,     2367,     2366
    2702,     3130,     3133,     3118,     3115,     3129,     3132,     3117,     3114
    2703,     3119,     3134,     3133,     3118,     3116,     3131,     3130,     3115
    2704,     3132,     2535,     2514,     3117,     2372,     2173,     2166,     2367
    2705,     3133,     2536,     2515,     3118,     3132,     2535,     2514,     3117
    2706,     2536,     2537,     3134,     3133,     2515,     2516,     3119,     3118
    2707,     2976,     3135,     3120,     2958,     2320,     2373,     2368,     2314
    2708,     2977,     3136,     3121,     2959,     2976,     3135,     3120,     2958
    2709,     3122,     3137,     3136,     3121,     2960,     2978,     2977,     2959
    2710,     3135,     3138,     3123,     3120,     2373,     2374,     2369,     2368
    2711,     3136,     3139,     3124,     3121,     3135,     3138,     3123,     3120
    2712,     3125,     3140,     3139,     3124,     3122,     3137,     3136,     3121
    2713,     3138,     3141,     3126,     3123,     2374,     2375,     2370,     2369
    2714,     3139,     3142,     3127,     3124,     3138,     3141,     3126,     3123
    2715,     3128,     3143,     3142,     3127,     3125,     3140,     3139,     3124
    2716,     3141,     3144,     3129,     3126,     2375,     2376,     2371,     2370
    2717,     3142,     3145,     3130,     3127,     3141,     3144,     3129,     3126
    2718,     3131,     3146,     3145,     3130,     3128,     3143,     3142,     3127
    2719,     3144,     3147,     3132,     3129,     2376,     2377,     2372,     2371
    2720,     3145,     3148,     3133,     3130,     3144,     3147,     3132,     3129
    2721,     3134,     3149,     3148,     3133,     3131,     3146,     3145,     3130
    2722,     3147,     2556,     2535,     3132,     2377,     2180,     2173,     2372
    2723,     3148,     2557,     2536,     3133,     3147,     2556,     2535,     3132
    2724,     2557,     2558,     3149,     3148,     2536,     2537,     3134,     3133
    2725,     2994,     3150,     3135,     2976,     2326,     2378,     2373,     2320
    2726,     2995,     3151,     3136,     2977,     2994,     3150,     3135,     2976
    2727,     3137,     3152,     3151,     3136,     2978,     2996,     2995,     2977
    2728,     3150,     3153,     3138,     3135,     2378,     2379,     2374,     2373
    2729,     3151,     3154,     3139,     3136,     3150,     3153,     3138,     3135
    2730,     3140,     3155,     3154,     3139,     3137,     3152,     3151,     3136
    2731,     3153,     3156,     3141,     3138,     2379,     2380,     2375,     2374
    2732,     3154,     3157,     3142,     3139,     3153,     3156,     3141,     3138
    2733,     3143,     3158,     3157,     3142,     3140,     3155,     3154,     3139
    2734,     3156,     3159,     3144,     3141,     2380,     2381,     2376,     2375
    2735,     3157,     3160,     3145,     3142,     3156,     3159,     3144,     3141
    2736,     3146,     3161,     3160,     3145,     3143,     3158,     3157,     3142
    2737,     3159,     3162,     3147,     3144,     2381,     2382,     2377,     2376
    2738,     3160,     3163,     3148,     3145,     3159,     3162,     3147,     3144
    2739,     3149,     3164,     3163,     3148,     3146,     3161,     3160,     3145
    2740,     3162,     2577,     2556,     3147,     2382,     2187,     2180,     2377
    2741,     3163,     2578,     2557,     3148,     3162,     2577,     2556,     3147
    2742,     2578,     2579,     3164,     3163,     2557,     2558,     3149,     3148
    2743,     3012,     3165,     3150,     2994,     2332,     2383,     2378,     2326
    2744,     3013,     3166,     3151,     2995,     3012,     3165,     3150,     2994
    2745,     3152,     3167,     3166,     3151,     2996,     3014,     3013,     2995
    2746,     3165,     3168,     3153,     3150,     2383,     2384,     2379,     2378
    2747,     3166,     3169,     3154,     3151,     3165,     3168,     3153,     3150
    2748,     3155,     3170,     3169,     3154,     3152,     3167,     3166,     3151
    2749,     3168,     3171,     3156,     3153,     2384,     2385,     2380,     2379
    2750,     3169,     3172,     3157,     3154,     3168,     3171,     3156,     3153
    2751,     3158,     3173,     3172,     3157,     3155,     3170,     3169,     3154
    2752,     3171,     3174,     3159,     3156,     2385,     2386,     2381,     2380
    2753,     3172,     3175,     3160,     3157,     3171,     3174,     3159,     3156
    2754,     3161,     3176,     3175,     3160,     3158,     3173,     3172,     3157
    2755,     3174,     3177,     3162,     3159,     2386,     2387,     2382,     2381
    2756,     3175,     3178,     3163,     3160,     3174,     3177,     3162,     3159
    2757,     3164,     3179,     3178,     3163,     3161,     3176,     3175,     3160
    2758,     3177,     2598,     2577,     3162,     2387,     2194,     2187,     2382
    2759,     3178,     2599,     2578,     3163,     3177,     2598,     2577,     3162
    2760,     3179,     2600,     2579,     3164,     3178,     2599,     2578,     3163
    2761,     3201,     3204,     3183,     3180,     2411,     2414,     2393,     2390
    2762,     3202,     3205,     3184,     3181,     3201,     3204,     3183,     3180
    2763,     3185,     3206,     3205,     3184,     3182,     3203,     3202,     3181
    2764,     3204,     3207,     3186,     3183,     2414,     2417,     2396,     2393
    2765,     3205,     3208,     3187,     3184,     3204,     3207,     3186,     3183
    2766,     3188,     3209,     3208,     3187,     3185,     3206,     3205,     3184
    2767,     3207,     3210,     3189,     3186,     2417,     2420,     2399,     2396
    2768,     3208,     3211,     3190,     3187,     3207,     3210,     3189,     3186
    2769,     3191,     3212,     3211,     3190,     3188,     3209,     3208,     3187
    2770,     3210,     3213,     3192,     3189,     2420,     2423,     2402,     2399
    2771,     3211,     3214,     3193,     3190,     3210,     3213,     3192,     3189
    2772,     3194,     3215,     3214,     3193,     3191,     3212,     3211,     3190
    2773,     3213,     3216,     3195,     3192,     2423,     2426,     2405,     2402
    2774,     3214,     3217,     3196,     3193,     3213,     3216,     3195,     3192
    2775,     3197,     3218,     3217,     3196,     3194,     3215,     3214,     3193
    2776,     3216,     3219,     3198,     3195,     2426,     2429,     2408,     2405
    2777,     3217,     3220,     3199,     3196,     3216,     3219,     3198,     3195
    2778,     3220,     3221,     3218,     3217,     3199,     3200,     3197,     3196
    2779,     3222,     3225,     3204,     3201,     2432,     2435,     2414,     2411
    2780,     3223,     3226,     3205,     3202,     3222,     3225,     3204,     3201
    2781,     3206,     3227,     3226,     3205,     3203,     3224,     3223,     3202
    2782,     3225,     3228,     3207,     3204,     2435,     2438,     2417,     2414
    2783,     3226,     3229,     3208,     3205,     3225,     3228,     3207,     3204
    2784,     3209,     3230,     3229,     3208,     3206,     3227,     3226,     3205
    2785,     3228,     3231,     3210,     3207,     2438,     2441,     2420,     2417
    2786,     3229,     3232,     3211,     3208,     3228,     3231,     3210,     3207
    2787,     3212,     3233,     3232,     3211,     3209,     3230,     3229,     3208
    2788,     3231,     3234,     3213,     3210,     2441,     2444,     2423,     2420
    2789,     3232,     3235,     3214,     3211,     3231,     3234,     3213,     3210
    2790,     3215,     3236,     3235,     3214,     3212,     3233,     3232,     3211
    2791,     3234,     3237,     3216,     3213,     2444,     2447,     2426,     2423
    2792,     3235,     3238,     3217,     3214,     3234,     3237,     3216,     3213
    2793,     3218,     3239,     3238,     3217,     3215,     3236,     3235,     3214
    2794,     3237,     3240,     3219,     3216,     2447,     2450,     2429,     2426
    2795,     3238,     3241,     3220,     3217,     3237,     3240,     3219,     3216
    2796,     3241,     3242,     3239,     3238,     3220,     3221,     3218,     3217
    2797,     3243,     3246,     3225,     3222,     2453,     2456,     2435,     2432
    2798,     3244,     3247,     3226,     3223,     3243,     3246,     3225,     3222
    2799,     3227,     3248,     3247,     3226,     3224,     3245,     3244,     3223
    2800,     3246,     3249,     3228,     3225,     2456,     2459,     2438,     2435
    2801,     3247,     3250,     3229,     3226,     3246,     3249,     3228,     3225
    2802,     3230,     3251,     3250,     3229,     3227,     3248,     3247,     3226
    2803,     3249,     3252,     3231,     3228,     2459,     2462,     2441,     2438
    2804,     3250,     3253,     3232,     3229,     3249,     3252,     3231,     3228
    2805,     3233,     3254,     3253,     3232,     3230,     3251,     3250,     3229
    2806,     3252,     3255,     3234,     3231,     2462,     2465,     2444,     2441
    2807,     3253,     3256,     3235,     3232,     3252,     3255,     3234,     3231
    2808,     3236,     3257,     3256,     3235,     3233,     3254,     3253,     3232
    2809,     3255,     3258,     3237,     3234,     2465,     2468,     2447,     2444
    2810,     3256,     3259,     3238,     3235,     3255,     3258,     3237,     3234
    2811,     3239,     3260,     3259,     3238,     3236,     3257,     3256,     3235
    2812,     3258,     3261,     3240,     3237,     2468,     2471,     2450,     2447
    2813,     3259,     3262,     3241,     3238,     3258,     3261,     3240,     3237
    2814,     3262,     3263,     3260,     3259,     3241,     3242,     3239,     3238
    2815,     3264,     3267,     3246,     3243,     2474,     2477,     2456,     2453
    2816,     3265,     3268,     3247,     3244,     3264,     3267,     3246,     3243
    2817,     3248,     3269,     3268,     3247,     3245,     3266,     3265,     3244
    2818,     3267,     3270,     3249,     3246,     2477,     2480,     2459,     2456
    2819,     3268,     3271,     3250,     3247,     3267,     3270,     3249,     3246
    2820,     3251,     3272,     3271,     3250,     3248,     3269,     3268,     3247
    2821,     3270,     3273,     3252,     3249,     2480,     2483,     2462,     2459
    2822,     3271,     3274,     3253,     3250,     3270,     3273,     3252,     3249
    2823,     3254,     3275,     3274,     3253,     3251,     3272,     3271,     3250
    2824,     3273,     3276,     3255,     3252,     2483,     2486,     2465,     2462
    2825,     3274,     3277,     3256,     3253,     3273,     3276,     3255,     3252
    2826,     3257,     3278,     3277,     3256,     3254,     3275,     3274,     3253
    2827,     3276,     3279,     3258,     3255,     2486,     2489,     2468,     2465
    2828,     3277,     3280,     3259,     3256,     3276,     3279,     3258,     3255
    2829,     3260,     3281,     3280,     3259,     3257,     3278,     3277,     3256
    2830,     3279,     3282,     3261,     3258,     2489,     2492,     2471,     2468
    2831,     3280,     3283,     3262,     3259,     3279,     3282,     3261,     3258
    2832,     3283,     3284,     3281,     3280,     3262,     3263,     3260,     3259
    2833,     3285,     3288,     3267,     3264,     2495,     2498,     2477,     2474
    2834,     3286,     3289,     3268,     3265,     3285,     3288,     3267,     3264
    2835,     3269,     3290,     3289,     3268,     3266,     3287,     3286,     3265
    2836,     3288,     3291,     3270,     3267,     2498,     2501,     2480,     2477
    2837,     3289,     3292,     3271,     3268,     3288,     3291,     3270,     3267
    2838,     3272,     3293,     3292,     3271,     3269,     3290,     3289,     3268
    2839,     3291,     3294,     3273,     3270,     2501,     2504,     2483,     2480
    2840,     3292,     3295,     3274,     3271,     3291,     3294,     3273,     3270
    2841,     3275,     3296,     3295,     3274,     3272,     3293,     3292,     3271
    2842,     3294,     3297,     3276,     3273,     2504,     2507,     2486,     2483
    2843,     3295,     3298,     3277,     3274,     3294,     3297,     3276,     3273
    2844,     3278,     3299,     3298,     3277,     3275,     3296,     3295,     3274
    2845,     3297,     3300,     3279,     3276,     2507,     2510,     2489,     2486
    2846,     3298,     3301,     3280,     3277,     3297,     3300,     3279,     3276
    2847,     3281,     3302,     3301,     3280,     3278,     3299,     3298,     3277
    2848,     3300,     3303,     3282,     3279,     2510,     2513,     2492,     2489
    2849,     3301,     3304,     3283,     3280,     3300,     3303,     3282,     3279
    2850,     3304,     3305,     3302,     3301,     3283,     3284,     3281,     3280
    2851,     3306,     3309,     3288,     3285,     2516,     2519,     2498,     2495
    2852,     3307,     3310,     3289,     3286,     3306,     3309,     3288,     3285
    2853,     3290,     3311,     3310,     3289,     3287,     3308,     3307,     3286
    2854,     3309,     3312,     3291,     3288,     2519,     2522,     2501,     2498
    2855,     3310,     3313,     3292,     3289,     3309,     3312,     3291,     3288
    2856,     3293,     3314,     3313,     3292,     3290,     3311,     3310,     3289
    2857,     3312,     3315,     3294,     3291,     2522,     2525,     2504,     2501
    2858,     3313,     3316,     3295,     3292,     3312,     3315,     3294,     3291
    2859,     3296,     3317,     3316,     3295,     3293,     3314,     3313,     3292
    2860,     3315,     3318,     3297,     3294,     2525,     2528,     2507,     2504
    2861,     3316,     3319,     3298,     3295,     3315,     3318,     3297,     3294
    2862,     3299,     3320,     3319,     3298,     3296,     3317,     3316,     3295
    2863,     3318,     3321,     3300,     3297,     2528,     2531,     2510,     2507
    2864,     3319,     3322,     3301,     3298,     3318,     3321,     3300,     3297
    2865,     3302,     3323,     3322,     3301,     3299,     3320,     3319,     3298
    2866,     3321,     3324,     3303,     3300,     2531,     2534,     2513,     2510
    2867,     3322,     3325,     3304,     3301,     3321,     3324,     3303,     3300
    2868,     3325,     3326,     3323,     3322,     3304,     3305,     3302,     3301
    2869,     3327,     3330,     3309,     3306,     2537,     2540,     2519,     2516
    2870,     3328,     3331,     3310,     3307,     3327,     3330,     3309,     3306
    2871,     3311,     3332,     3331,     3310,     3308,     3329,     3328,     3307
    2872,     3330,     3333,     3312,     3309,     2540,     2543,     2522,     2519
    2873,     3331,     3334,     3313,     3310,     3330,     3333,     3312,     3309
    2874,     3314,     3335,     3334,     3313,     3311,     3332,     3331,     3310
    2875,     3333,     3336,     3315,     3312,     2543,     2546,     2525,     2522
    2876,     3334,     3337,     3316,     3313,     3333,     3336,     3315,     3312
    2877,     3317,     3338,     3337,     3316,     3314,     3335,     3334,     3313
    2878,     3336,     3339,     3318,     3315,     2546,     2549,     2528,     2525
    2879,     3337,     3340,     3319,     3316,     3336,     3339,     3318,     3315
    2880,     3320,     3341,     3340,     3319,     3317,     3338,     3337,     3316
    2881,     3339,     3342,     3321,     3318,     2549,     2552,     2531,     2528
    2882,     3340,     3343,     3322,     3319,     3339,     3342,     3321,     3318
    2883,     3323,     3344,     3343,     3322,     3320,     3341,     3340,     3319
    2884,     3342,     3345,     3324,     3321,     2552,     2555,     2534,     2531
    2885,     3343,     3346,     3325,     3322,     3342,     3345,     3324,     3321
    2886,     3346,     3347,     3344,     3343,     3325,     3326,     3323,     3322
    2887,     3348,     3351,     3330,     3327,     2558,     2561,     2540,     2537
    2888,     3349,     3352,     3331,     3328,     3348,     3351,     3330,     3327
    2889,     3332,     3353,     3352,     3331,     3329,     3350,     3349,     3328
    2890,     3351,     3354,     3333,     3330,     2561,     2564,     2543,     2540
    2891,     3352,     3355,     3334,     3331,     3351,     3354,     3333,     3330
    2892,     3335,     3356,     3355,     3334,     3332,     3353,     3352,     3331
    2893,     3354,     3357,     3336,     3333,     2564,     2567,     2546,     2543
    2894,     3355,     3358,     3337,     3334,     3354,     3357,     3336,     3333
    2895,     3338,     3359,     3358,     3337,     3335,     3356,     3355,     3334
    2896,     3357,     3360,     3339,     3336,     2567,     2570,     2549,     2546
    2897,     3358,     3361,     3340,     3337,     3357,     3360,     3339,     3336
    2898,     3341,     3362,     3361,     3340,     3338,     3359,     3358,     3337
    2899,     3360,     3363,     3342,     3339,     2570,     2573,     2552,     2549
    2900,     3361,     3364,     3343,     3340,     3360,     3363,     3342,     3339
    2901,     3344,     3365,     3364,     3343,     3341,     3362,     3361,     3340
    2902,     3363,     3366,     3345,     3342,     2573,     2576,     2555,     2552
    2903,     3364,     3367,     3346,     3343,     3363,     3366,     3345,     3342
    2904,     3367,     3368,     3365,     3364,     3346,     3347,     3344,     3343
    2905,     3369,     3372,     3351,     3348,     2579,     2582,     2561,     2558
    2906,     3370,     3373,     3352,     3349,     3369,     3372,     3351,     3348
    2907,     3353,     3374,     3373,     3352,     3350,     3371,     3370,     3349
    2908,     3372,     3375,     3354,     3351,     2582,     2585,     2564,     2561
    2909,     3373,     3376,     3355,     3352,     3372,     3375,     3354,     3351
    2910,     3356,     3377,     3376,     3355,     3353,     3374,     3373,     3352
    2911,     3375,     3378,     3357,     3354,     2585,     2588,     2567,     2564
    2912,     3376,     3379,     3358,     3355,     3375,     3378,     3357,     3354
    2913,     3359,     3380,     3379,     3358,     3356,     3377,     3376,     3355
    2914,     3378,     3381,     3360,     3357,     2588,     2591,     2570,     2567
    2915,     3379,     3382,     3361,     3358,     3378,     3381,     3360,     3357
    2916,     3362,     3383,     3382,     3361,     3359,     3380,     3379,     3358
    2917,     3381,     3384,     3363,     3360,     2591,     2594,     2573,     2570
    2918,     3382,     3385,     3364,     3361,     3381,     3384,     3363,     3360
    2919,     3365,     3386,     3385,     3364,     3362,     3383,     3382,     3361
    2920,     3384,     3387,     3366,     3363,     2594,     2597,     2576,     2573
    2921,     3385,     3388,     3367,     3364,     3384,     3387,     3366,     3363
    2922,     3388,     3389,     3386,     3385,     3367,     3368,     3365,     3364
    2923,     3390,     3393,     3372,     3369,     2600,     2603,     2582,     2579
    2924,     3391,     3394,     3373,     3370,     3390,     3393,     3372,     3369
    2925,     3374,     3395,     3394,     3373,     3371,     3392,     3391,     3370
    2926,     3393,     3396,     3375,     3372,     2603,     2606,     2585,     2582
    2927,     3394,     3397,     3376,     3373,     3393,     3396,     3375,     3372
    2928,     3377,     3398,     3397,     3376,     3374,     3395,     3394,     3373
    2929,     3396,     3399,     3378,     3375,     2606,     2609,     2588,     2585
    2930,     3397,     3400,     3379,     3376,     3396,     3399,     3378,     3375
    2931,     3380,     3401,     3400,     3379,     3377,     3398,     3397,     3376
    2932,     3399,     3402,     3381,     3378,     2609,     2612,     2591,     2588
    2933,     3400,     3403,     3382,     3379,     3399,     3402,     3381,     3378
    2934,     3383,     3404,     3403,     3382,     3380,     3401,     3400,     3379
    2935,     3402,     3405,     3384,     3381,     2612,     2615,     2594,     2591
    2936,     3403,     3406,     3385,     3382,     3402,     3405,     3384,     3381
    2937,     3386,     3407,     3406,     3385,     3383,     3404,     3403,     3382
    2938,     3405,     3408,     3387,     3384,     2615,     2618,     2597,     2594
    2939,     3406,     3409,     3388,     3385,     3405,     3408,     3387,     3384
    2940,     3389,     3410,     3409,     3388,     3386,     3407,     3406,     3385
    2941,     3219,     3429,     3411,     3198,     2429,     2639,     2621,     2408
    2942,     3220,     3430,     3412,     3199,     3219,     3429,     3411,     3198
    2943,     3413,     3431,     3430,     3412,     3200,     3221,     3220,     3199
    2944,     3429,     3432,     3414,     3411,     2639,     2642,     2624,     2621
    2945,     3430,     3433,     3415,     3412,     3429,     3432,     3414,     3411
    2946,     3416,     3434,     3433,     3415,     3413,     3431,     3430,     3412
    2947,     3432,     3435,     3417,     3414,     2642,     2645,     2627,     2624
    2948,     3433,     3436,     3418,     3415,     3432,     3435,     3417,     3414
    2949,     3419,     3437,     3436,     3418,     3416,     3434,     3433,     3415
    2950,     3435,     3438,     3420,     3417,     2645,     2648,     2630,     2627
    2951,     3436,     3439,     3421,     3418,     3435,     3438,     3420,     3417
    2952,     3422,     3440,     3439,     3421,     3419,     3437,     3436,     3418
    2953,     3438,     3441,     3423,     3420,     2648,     2651,     2633,     2630
    2954,     3439,     3442,     3424,     3421,     3438,     3441,     3423,     3420
    2955,     3425,     3443,     3442,     3424,     3422,     3440,     3439,     3421
    2956,     3441,     3444,     3426,     3423,     2651,     2654,     2636,     2633
    2957,     3442,     3445,     3427,     3424,     3441,     3444,     3426,     3423
    2958,     3445,     3446,     3443,     3442,     3427,     3428,     3425,     3424
    2959,     3240,     3447,     3429,     3219,     2450,     2657,     2639,     2429
    2960,     3241,     3448,     3430,     3220,     3240,     3447,     3429,     3219
    2961,     3431,     3449,     3448,     3430,     3221,     3242,     3241,     3220
    2962,     3447,     3450,     3432,     3429,     2657,     2660,     2642,     2639
    2963,     3448,     3451,     3433,     3430,     3447,     3450,     3432,     3429
    2964,     3434,     3452,     3451,     3433,     3431,     3449,     3448,     3430
    2965,     3450,     3453,     3435,     3432,     2660,     2663,     2645,     2642
    2966,     3451,     3454,     3436,     3433,     3450,     3453,     3435,     3432
    2967,     3437,     3455,     3454,     3436,     3434,     3452,     3451,     3433
    2968,     3453,     3456,     3438,     3435,     2663,     2666,     2648,     2645
    2969,     3454,     3457,     3439,     3436,     3453,     3456,     3438,     3435
    2970,     3440,     3458,     3457,     3439,     3437,     3455,     3454,     3436
    2971,     3456,     3459,     3441,     3438,     2666,     2669,     2651,     2648
    2972,     3457,     3460,     3442,     3439,     3456,     3459,     3441,     3438
    2973,     3443,     3461,     3460,     3442,     3440,     3458,     3457,     3439
    2974,     3459,     3462,     3444,     3441,     2669,     2672,     2654,     2651
    2975,     3460,     3463,     3445,     3442,     3459,     3462,     3444,     3441
    2976,     3463,     3464,     3461,     3460,     3445,     3446,     3443,     3442
    2977,     3261,     3465,     3447,     3240,     2471,     2675,     2657,     2450
    2978,     3262,     3466,     3448,     3241,     3261,     3465,     3447,     3240
    2979,     3449,     3467,     3466,     3448,     3242,     3263,     3262,     3241
    2980,     3465,     3468,     3450,     3447,     2675,     2678,     2660,     2657
    2981,     3466,     3469,     3451,     3448,     3465,     3468,     3450,     3447
    2982,     3452,     3470,     3469,     3451,     3449,     3467,     3466,     3448
    2983,     3468,     3471,     3453,     3450,     2678,     2681,     2663,     2660
    2984,     3469,     3472,     3454,     3451,     3468,     3471,     3453,     3450
    2985,     3455,     3473,     3472,     3454,     3452,     3470,     3469,     3451
    2986,     3471,     3474,     3456,     3453,     2681,     2684,     2666,     2663
    2987,     3472,     3475,     3457,     3454,     3471,     3474,     3456,     3453
    2988,     3458,     3476,     3475,     3457,     3455,     3473,     3472,     3454
    2989,     3474,     3477,     3459,     3456,     2684,     2687,     2669,     2666
    2990,     3475,     3478,     3460,     3457,     3474,     3477,     3459,     3456
    2991,     3461,     3479,     3478,     3460,     3458,     3476,     3475,     3457
    2992,     3477,     3480,     3462,     3459,     2687,     2690,     2672,     2669
    2993,     3478,     3481,     3463,     3460,     3477,     3480,     3462,     3459
    2994,     3481,     3482,     3479,     3478,     3463,     3464,     3461,     3460
    2995,     3282,     3483,     3465,     3261,     2492,     2693,     2675,     2471
    2996,     3283,     3484,     3466,     3262,     3282,     3483,     3465,     3261
    2997,     3467,     3485,     3484,     3466,     3263,     3284,     3283,     3262
    2998,     3483,     3486,     3468,     3465,     2693,     2696,     2678,     2675
    2999,     3484,     3487,     3469,     3466,     3483,     3486,     3468,     3465
    3000,     3470,     3488,     3487,     3469,     3467,     3485,     3484,     3466
    3001,     3486,     3489,     3471,     3468,     2696,     2699,     2681,     2678
    3002,     3487,     3490,     3472,     3469,     3486,     3489,     3471,     3468
    3003,     3473,     3491,     3490,     3472,     3470,     3488,     3487,     3469
    3004,     3489,     3492,     3474,     3471,     2699,     2702,     2684,     2681
    3005,     3490,     3493,     3475,     3472,     3489,     3492,     3474,     3471
    3006,     3476,     3494,     3493,     3475,     3473,     3491,     3490,     3472
    3007,     3492,     3495,     3477,     3474,     2702,     2705,     2687,     2684
    3008,     3493,     3496,     3478,     3475,     3492,     3495,     3477,     3474
    3009,     3479,     3497,     3496,     3478,     3476,     3494,     3493,     3475
    3010,     3495,     3498,     3480,     3477,     2705,     2708,     2690,     2687
    3011,     3496,     3499,     3481,     3478,     3495,     3498,     3480,     3477
    3012,     3499,     3500,     3497,     3496,     3481,     3482,     3479,     3478
    3013,     3303,     3501,     3483,     3282,     2513,     2711,     2693,     2492
    3014,     3304,     3502,     3484,     3283,     3303,     3501,     3483,     3282
    3015,     3485,     3503,     3502,     3484,     3284,     3305,     3304,     3283
    3016,     3501,     3504,     3486,     3483,     2711,     2714,     2696,     2693
    3017,     3502,     3505,     3487,     3484,     3501,     3504,     3486,     3483
    3018,     3488,     3506,     3505,     3487,     3485,     3503,     3502,     3484
    3019,     3504,     3507,     3489,     3486,     2714,     2717,     2699,     2696
    3020,     3505,     3508,     3490,     3487,     3504,     3507,     3489,     3486
    3021,     3491,     3509,     3508,     3490,     3488,     3506,     3505,     3487
    3022,     3507,     3510,     3492,     3489,     2717,     2720,     2702,     2699
    3023,     3508,     3511,     3493,     3490,     3507,     3510,     3492,     3489
    3024,     3494,     3512,     3511,     3493,     3491,     3509,     3508,     3490
    3025,     3510,     3513,     3495,     3492,     2720,     2723,     2705,     2702
    3026,     3511,     3514,     3496,     3493,     3510,     3513,     3495,     3492
    3027,     3497,     3515,     3514,     3496,     3494,     3512,     3511,     3493
    3028,     3513,     3516,     3498,     3495,     2723,     2726,     2708,     2705
    3029,     3514,     3517,     3499,     3496,     3513,     3516,     3498,     3495
    3030,     3517,     3518,     3515,     3514,     3499,     3500,     3497,     3496
    3031,     3324,     3519,     3501,     3303,     2534,     2729,     2711,     2513
    3032,     3325,     3520,     3502,     3304,     3324,     3519,     3501,     3303
    3033,     3503,     3521,     3520,     3502,     3305,     3326,     3325,     3304
    3034,     3519,     3522,     3504,     3501,     2729,     2732,     2714,     2711
    3035,     3520,     3523,     3505,     3502,     3519,     3522,     3504,     3501
    3036,     3506,     3524,     3523,     3505,     3503,     3521,     3520,     3502
    3037,     3522,     3525,     3507,     3504,     2732,     2735,     2717,     2714
    3038,     3523,     3526,     3508,     3505,     3522,     3525,     3507,     3504
    3039,     3509,     3527,     3526,     3508,     3506,     3524,     3523,     3505
    3040,     3525,     3528,     3510,     3507,     2735,     2738,     2720,     2717
    3041,     3526,     3529,     3511,     3508,     3525,     3528,     3510,     3507
    3042,     3512,     3530,     3529,     3511,     3509,     3527,     3526,     3508
    3043,     3528,     3531,     3513,     3510,     2738,     2741,     2723,     2720
    3044,     3529,     3532,     3514,     3511,     3528,     3531,     3513,     3510
    3045,     3515,     3533,     3532,     3514,     3512,     3530,     3529,     3511
    3046,     3531,     3534,     3516,     3513,     2741,     2744,     2726,     2723
    3047,     3532,     3535,     3517,     3514,     3531,     3534,     3516,     3513
    3048,     3535,     3536,     3533,     3532,     3517,     3518,     3515,     3514
    3049,     3345,     3537,     3519,     3324,     2555,     2747,     2729,     2534
    3050,     3346,     3538,     3520,     3325,     3345,     3537,     3519,     3324
    3051,     3521,     3539,     3538,     3520,     3326,     3347,     3346,     3325
    3052,     3537,     3540,     3522,     3519,     2747,     2750,     2732,     2729
    3053,     3538,     3541,     3523,     3520,     3537,     3540,     3522,     3519
    3054,     3524,     3542,     3541,     3523,     3521,     3539,     3538,     3520
    3055,     3540,     3543,     3525,     3522,     2750,     2753,     2735,     2732
    3056,     3541,     3544,     3526,     3523,     3540,     3543,     3525,     3522
    3057,     3527,     3545,     3544,     3526,     3524,     3542,     3541,     3523
    3058,     3543,     3546,     3528,     3525,     2753,     2756,     2738,     2735
    3059,     3544,     3547,     3529,     3526,     3543,     3546,     3528,     3525
    3060,     3530,     3548,     3547,     3529,     3527,     3545,     3544,     3526
    3061,     3546,     3549,     3531,     3528,     2756,     2759,     2741,     2738
    3062,     3547,     3550,     3532,     3529,     3546,     3549,     3531,     3528
    3063,     3533,     3551,     3550,     3532,     3530,     3548,     3547,     3529
    3064,     3549,     3552,     3534,     3531,     2759,     2762,     2744,     2741
    3065,     3550,     3553,     3535,     3532,     3549,     3552,     3534,     3531
    3066,     3553,     3554,     3551,     3550,     3535,     3536,     3533,     3532
    3067,     3366,     3555,     3537,     3345,     2576,     2765,     2747,     2555
    3068,     3367,     3556,     3538,     3346,     3366,     3555,     3537,     3345
    3069,     3539,     3557,     3556,     3538,     3347,     3368,     3367,     3346
    3070,     3555,     3558,     3540,     3537,     2765,     2768,     2750,     2747
    3071,     3556,     3559,     3541,     3538,     3555,     3558,     3540,     3537
    3072,     3542,     3560,     3559,     3541,     3539,     3557,     3556,     3538
    3073,     3558,     3561,     3543,     3540,     2768,     2771,     2753,     2750
    3074,     3559,     3562,     3544,     3541,     3558,     3561,     3543,     3540
    3075,     3545,     3563,     3562,     3544,     3542,     3560,     3559,     3541
    3076,     3561,     3564,     3546,     3543,     2771,     2774,     2756,     2753
    3077,     3562,     3565,     3547,     3544,     3561,     3564,     3546,     3543
    3078,     3548,     3566,     3565,     3547,     3545,     3563,     3562,     3544
    3079,     3564,     3567,     3549,     3546,     2774,     2777,     2759,     2756
    3080,     3565,     3568,     3550,     3547,     3564,     3567,     3549,     3546
    3081,     3551,     3569,     3568,     3550,     3548,     3566,     3565,     3547
    3082,     3567,     3570,     3552,     3549,     2777,     2780,     2762,     2759
    3083,     3568,     3571,     3553,     3550,     3567,     3570,     3552,     3549
    3084,     3571,     3572,     3569,     3568,     3553,     3554,     3551,     3550
    3085,     3387,     3573,     3555,     3366,     2597,     2783,     2765,     2576
    3086,     3388,     3574,     3556,     3367,     3387,     3573,     3555,     3366
    3087,     3557,     3575,     3574,     3556,     3368,     3389,     3388,     3367
    3088,     3573,     3576,     3558,     3555,     2783,     2786,     2768,     2765
    3089,     3574,     3577,     3559,     3556,     3573,     3576,     3558,     3555
    3090,     3560,     3578,     3577,     3559,     3557,     3575,     3574,     3556
    3091,     3576,     3579,     3561,     3558,     2786,     2789,     2771,     2768
    3092,     3577,     3580,     3562,     3559,     3576,     3579,     3561,     3558
    3093,     3563,     3581,     3580,     3562,     3560,     3578,     3577,     3559
    3094,     3579,     3582,     3564,     3561,     2789,     2792,     2774,     2771
    3095,     3580,     3583,     3565,     3562,     3579,     3582,     3564,     3561
    3096,     3566,     3584,     3583,     3565,     3563,     3581,     3580,     3562
    3097,     3582,     3585,     3567,     3564,     2792,     2795,     2777,     2774
    3098,     3583,     3586,     3568,     3565,     3582,     3585,     3567,     3564
    3099,     3569,     3587,     3586,     3568,     3566,     3584,     3583,     3565
    3100,     3585,     3588,     3570,     3567,     2795,     2798,     2780,     2777
    3101,     3586,     3589,     3571,     3568,     3585,     3588,     3570,     3567
    3102,     3589,     3590,     3587,     3586,     3571,     3572,     3569,     3568
    3103,     3408,     3591,     3573,     3387,     2618,     2801,     2783,     2597
    3104,     3409,     3592,     3574,     3388,     3408,     3591,     3573,     3387
    3105,     3575,     3593,     3592,     3574,     3389,     3410,     3409,     3388
    3106,     3591,     3594,     3576,     3573,     2801,     2804,     2786,     2783
    3107,     3592,     3595,     3577,     3574,     3591,     3594,     3576,     3573
    3108,     3578,     3596,     3595,     3577,     3575,     3593,     3592,     3574
    3109,     3594,     3597,     3579,     3576,     2804,     2807,     2789,     2786
    3110,     3595,     3598,     3580,     3577,     3594,     3597,     3579,     3576
    3111,     3581,     3599,     3598,     3580,     3578,     3596,     3595,     3577
    3112,     3597,     3600,     3582,     3579,     2807,     2810,     2792,     2789
    3113,     3598,     3601,     3583,     3580,     3597,     3600,     3582,     3579
    3114,     3584,     3602,     3601,     3583,     3581,     3599,     3598,     3580
    3115,     3600,     3603,     3585,     3582,     2810,     2813,     2795,     2792
    3116,     3601,     3604,     3586,     3583,     3600,     3603,     3585,     3582
    3117,     3587,     3605,     3604,     3586,     3584,     3602,     3601,     3583
    3118,     3603,     3606,     3588,     3585,     2813,     2816,     2798,     2795
    3119,     3604,     3607,     3589,     3586,     3603,     3606,     3588,     3585
    3120,     3590,     3608,     3607,     3589,     3587,     3605,     3604,     3586
    3121,     3444,     3627,     3609,     3426,     2654,     2837,     2819,     2636
    3122,     3445,     3628,     3610,     3427,     3444,     3627,     3609,     3426
    3123,     3611,     3629,     3628,     3610,     3428,     3446,     3445,     3427
    3124,     3627,     3630,     3612,     3609,     2837,     2840,     2822,     2819
    3125,     3628,     3631,     3613,     3610,     3627,     3630,     3612,     3609
    3126,     3614,     3632,     3631,     3613,     3611,     3629,     3628,     3610
    3127,     3630,     3633,     3615,     3612,     2840,     2843,     2825,     2822
    3128,     3631,     3634,     3616,     3613,     3630,     3633,     3615,     3612
    3129,     3617,     3635,     3634,     3616,     3614,     3632,     3631,     3613
    3130,     3633,     3636,     3618,     3615,     2843,     2846,     2828,     2825
    3131,     3634,     3637,     3619,     3616,     3633,     3636,     3618,     3615
    3132,     3620,     3638,     3637,     3619,     3617,     3635,     3634,     3616
    3133,     3636,     3639,     3621,     3618,     2846,     2849,     2831,     2828
    3134,     3637,     3640,     3622,     3619,     3636,     3639,     3621,     3618
    3135,     3623,     3641,     3640,     3622,     3620,     3638,     3637,     3619
    3136,     3639,     3642,     3624,     3621,     2849,     2852,     2834,     2831
    3137,     3640,     3643,     3625,     3622,     3639,     3642,     3624,     3621
    3138,     3643,     3644,     3641,     3640,     3625,     3626,     3623,     3622
    3139,     3462,     3645,     3627,     3444,     2672,     2855,     2837,     2654
    3140,     3463,     3646,     3628,     3445,     3462,     3645,     3627,     3444
    3141,     3629,     3647,     3646,     3628,     3446,     3464,     3463,     3445
    3142,     3645,     3648,     3630,     3627,     2855,     2858,     2840,     2837
    3143,     3646,     3649,     3631,     3628,     3645,     3648,     3630,     3627
    3144,     3632,     3650,     3649,     3631,     3629,     3647,     3646,     3628
    3145,     3648,     3651,     3633,     3630,     2858,     2861,     2843,     2840
    3146,     3649,     3652,     3634,     3631,     3648,     3651,     3633,     3630
    3147,     3635,     3653,     3652,     3634,     3632,     3650,     3649,     3631
    3148,     3651,     3654,     3636,     3633,     2861,     2864,     2846,     2843
    3149,     3652,     3655,     3637,     3634,     3651,     3654,     3636,     3633
    3150,     3638,     3656,     3655,     3637,     3635,     3653,     3652,     3634
    3151,     3654,     3657,     3639,     3636,     2864,     2867,     2849,     2846
    3152,     3655,     3658,     3640,     3637,     3654,     3657,     3639,     3636
    3153,     3641,     3659,     3658,     3640,     3638,     3656,     3655,     3637
    3154,     3657,     3660,     3642,     3639,     2867,     2870,     2852,     2849
    3155,     3658,     3661,     3643,     3640,     3657,     3660,     3642,     3639
    3156,     3661,     3662,     3659,     3658,     3643,     3644,     3641,     3640
    3157,     3480,     3663,     3645,     3462,     2690,     2873,     2855,     2672
    3158,     3481,     3664,     3646,     3463,     3480,     3663,     3645,     3462
    3159,     3647,     3665,     3664,     3646,     3464,     3482,     3481,     3463
    3160,     3663,     3666,     3648,     3645,     2873,     2876,     2858,     2855
    3161,     3664,     3667,     3649,     3646,     3663,     3666,     3648,     3645
    3162,     3650,     3668,     3667,     3649,     3647,     3665,     3664,     3646
    3163,     3666,     3669,     3651,     3648,     2876,     2879,     2861,     2858
    3164,     3667,     3670,     3652,     3649,     3666,     3669,     3651,     3648
    3165,     3653,     3671,     3670,     3652,     3650,     3668,     3667,     3649
    3166,     3669,     3672,     3654,     3651,     2879,     2882,     2864,     2861
    3167,     3670,     3673,     3655,     3652,     3669,     3672,     3654,     3651
    3168,     3656,     3674,     3673,     3655,     3653,     3671,     3670,     3652
    3169,     3672,     3675,     3657,     3654,     2882,     2885,     2867,     2864
    3170,     3673,     3676,     3658,     3655,     3672,     3675,     3657,     3654
    3171,     3659,     3677,     3676,     3658,     3656,     3674,     3673,     3655
    3172,     3675,     3678,     3660,     3657,     2885,     2888,     2870,     2867
    3173,     3676,     3679,     3661,     3658,     3675,     3678,     3660,     3657
    3174,     3679,     3680,     3677,     3676,     3661,     3662,     3659,     3658
    3175,     3498,     3681,     3663,     3480,     2708,     2891,     2873,     2690
    3176,     3499,     3682,     3664,     3481,     3498,     3681,     3663,     3480
    3177,     3665,     3683,     3682,     3664,     3482,     3500,     3499,     3481
    3178,     3681,     3684,     3666,     3663,     2891,     2894,     2876,     2873
    3179,     3682,     3685,     3667,     3664,     3681,     3684,     3666,     3663
    3180,     3668,     3686,     3685,     3667,     3665,     3683,     3682,     3664
    3181,     3684,     3687,     3669,     3666,     2894,     2897,     2879,     2876
    3182,     3685,     3688,     3670,     3667,     3684,     3687,     3669,     3666
    3183,     3671,     3689,     3688,     3670,     3668,     3686,     3685,     3667
    3184,     3687,     3690,     3672,     3669,     2897,     2900,     2882,     2879
    3185,     3688,     3691,     3673,     3670,     3687,     3690,     3672,     3669
    3186,     3674,     3692,     3691,     3673,     3671,     3689,     3688,     3670
    3187,     3690,     3693,     3675,     3672,     2900,     2903,     2885,     2882
    3188,     3691,     3694,     3676,     3673,     3690,     3693,     3675,     3672
    3189,     3677,     3695,     3694,     3676,     3674,     3692,     3691,     3673
    3190,     3693,     3696,     3678,     3675,     2903,     2906,     2888,     2885
    3191,     3694,     3697,     3679,     3676,     3693,     3696,     3678,     3675
    3192,     3697,     3698,     3695,     3694,     3679,     3680,     3677,     3676
    3193,     3516,     3699,     3681,     3498,     2726,     2909,     2891,     2708
    3194,     3517,     3700,     3682,     3499,     3516,     3699,     3681,     3498
    3195,     3683,     3701,     3700,     3682,     3500,     3518,     3517,     3499
    3196,     3699,     3702,     3684,     3681,     2909,     2912,     2894,     2891
    3197,     3700,     3703,     3685,     3682,     3699,     3702,     3684,     3681
    3198,     3686,     3704,     3703,     3685,     3683,     3701,     3700,     3682
    3199,     3702,     3705,     3687,     3684,     2912,     2915,     2897,     2894
    3200,     3703,     3706,     3688,     3685,     3702,     3705,     3687,     3684
    3201,     3689,     3707,     3706,     3688,     3686,     3704,     3703,     3685
    3202,     3705,     3708,     3690,     3687,     2915,     2918,     2900,     2897
    3203,     3706,     3709,     3691,     3688,     3705,     3708,     3690,     3687
    3204,     3692,     3710,     3709,     3691,     3689,     3707,     3706,     3688
    3205,     3708,     3711,     3693,     3690,     2918,     2921,     2903,     2900
    3206,     3709,     3712,     3694,     3691,     3708,     3711,     3693,     3690
    3207,     3695,     3713,     3712,     3694,     3692,     3710,     3709,     3691
    3208,     3711,     3714,     3696,     3693,     2921,     2924,     2906,     2903
    3209,     3712,     3715,     3697,     3694,     3711,     3714,     3696,     3693
    3210,     3715,     3716,     3713,     3712,     3697,     3698,     3695,     3694
    3211,     3534,     3717,     3699,     3516,     2744,     2927,     2909,     2726
    3212,     3535,     3718,     3700,     3517,     3534,     3717,     3699,     3516
    3213,     3701,     3719,     3718,     3700,     3518,     3536,     3535,     3517
    3214,     3717,     3720,     3702,     3699,     2927,     2930,     2912,     2909
    3215,     3718,     3721,     3703,     3700,     3717,     3720,     3702,     3699
    3216,     3704,     3722,     3721,     3703,     3701,     3719,     3718,     3700
    3217,     3720,     3723,     3705,     3702,     2930,     2933,     2915,     2912
    3218,     3721,     3724,     3706,     3703,     3720,     3723,     3705,     3702
    3219,     3707,     3725,     3724,     3706,     3704,     3722,     3721,     3703
    3220,     3723,     3726,     3708,     3705,     2933,     2936,     2918,     2915
    3221,     3724,     3727,     3709,     3706,     3723,     3726,     3708,     3705
    3222,     3710,     3728,     3727,     3709,     3707,     3725,     3724,     3706
    3223,     3726,     3729,     3711,     3708,     2936,     2939,     2921,     2918
    3224,     3727,     3730,     3712,     3709,     3726,     3729,     3711,     3708
    3225,     3713,     3731,     3730,     3712,     3710,     3728,     3727,     3709
    3226,     3729,     3732,     3714,     3711,     2939,     2942,     2924,     2921
    3227,     3730,     3733,     3715,     3712,     3729,     3732,     3714,     3711
    3228,     3733,     3734,     3731,     3730,     3715,     3716,     3713,     3712
    3229,     3552,     3735,     3717,     3534,     2762,     2945,     2927,     2744
    3230,     3553,     3736,     3718,     3535,     3552,     3735,     3717,     3534
    3231,     3719,     3737,     3736,     3718,     3536,     3554,     3553,     3535
    3232,     3735,     3738,     3720,     3717,     2945,     2948,     2930,     2927
    3233,     3736,     3739,     3721,     3718,     3735,     3738,     3720,     3717
    3234,     3722,     3740,     3739,     3721,     3719,     3737,     3736,     3718
    3235,     3738,     3741,     3723,     3720,     2948,     2951,     2933,     2930
    3236,     3739,     3742,     3724,     3721,     3738,     3741,     3723,     3720
    3237,     3725,     3743,     3742,     3724,     3722,     3740,     3739,     3721
    3238,     3741,     3744,     3726,     3723,     2951,     2954,     2936,     2933
    3239,     3742,     3745,     3727,     3724,     3741,     3744,     3726,     3723
    3240,     3728,     3746,     3745,     3727,     3725,     3743,     3742,     3724
    3241,     3744,     3747,     3729,     3726,     2954,     2957,     2939,     2936
    3242,     3745,     3748,     3730,     3727,     3744,     3747,     3729,     3726
    3243,     3731,     3749,     3748,     3730,     3728,     3746,     3745,     3727
    3244,     3747,     3750,     3732,     3729,     2957,     2960,     2942,     2939
    3245,     3748,     3751,     3733,     3730,     3747,     3750,     3732,     3729
    3246,     3751,     3752,     3749,     3748,     3733,     3734,     3731,     3730
    3247,     3570,     3753,     3735,     3552,     2780,     2963,     2945,     2762
    3248,     3571,     3754,     3736,     3553,     3570,     3753,     3735,     3552
    3249,     3737,     3755,     3754,     3736,     3554,     3572,     3571,     3553
    3250,     3753,     3756,     3738,     3735,     2963,     2966,     2948,     2945
    3251,     3754,     3757,     3739,     3736,     3753,     3756,     3738,     3735
    3252,     3740,     3758,     3757,     3739,     3737,     3755,     3754,     3736
    3253,     3756,     3759,     3741,     3738,     2966,     2969,     2951,     2948
    3254,     3757,     3760,     3742,     3739,     3756,     3759,     3741,     3738
    3255,     3743,     3761,     3760,     3742,     3740,     3758,     3757,     3739
    3256,     3759,     3762,     3744,     3741,     2969,     2972,     2954,     2951
    3257,     3760,     3763,     3745,     3742,     3759,     3762,     3744,     3741
    3258,     3746,     3764,     3763,     3745,     3743,     3761,     3760,     3742
    3259,     3762,     3765,     3747,     3744,     2972,     2975,     2957,     2954
    3260,     3763,     3766,     3748,     3745,     3762,     3765,     3747,     3744
    3261,     3749,     3767,     3766,     3748,     3746,     3764,     3763,     3745
    3262,     3765,     3768,     3750,     3747,     2975,     2978,     2960,     2957
    3263,     3766,     3769,     3751,     3748,     3765,     3768,     3750,     3747
    3264,     3769,     3770,     3767,     3766,     3751,     3752,     3749,     3748
    3265,     3588,     3771,     3753,     3570,     2798,     2981,     2963,     2780
    3266,     3589,     3772,     3754,     3571,     3588,     3771,     3753,     3570
    3267,     3755,     3773,     3772,     3754,     3572,     3590,     3589,     3571
    3268,     3771,     3774,     3756,     3753,     2981,     2984,     2966,     2963
    3269,     3772,     3775,     3757,     3754,     3771,     3774,     3756,     3753
    3270,     3758,     3776,     3775,     3757,     3755,     3773,     3772,     3754
    3271,     3774,     3777,     3759,     3756,     2984,     2987,     2969,     2966
    3272,     3775,     3778,     3760,     3757,     3774,     3777,     3759,     3756
    3273,     3761,     3779,     3778,     3760,     3758,     3776,     3775,     3757
    3274,     3777,     3780,     3762,     3759,     2987,     2990,     2972,     2969
    3275,     3778,     3781,     3763,     3760,     3777,     3780,     3762,     3759
    3276,     3764,     3782,     3781,     3763,     3761,     3779,     3778,     3760
    3277,     3780,     3783,     3765,     3762,     2990,     2993,     2975,     2972
    3278,     3781,     3784,     3766,     3763,     3780,     3783,     3765,     3762
    3279,     3767,     3785,     3784,     3766,     3764,     3782,     3781,     3763
    3280,     3783,     3786,     3768,     3765,     2993,     2996,     2978,     2975
    3281,     3784,     3787,     3769,     3766,     3783,     3786,     3768,     3765
    3282,     3787,     3788,     3785,     3784,     3769,     3770,     3767,     3766
    3283,     3606,     3789,     3771,     3588,     2816,     2999,     2981,     2798
    3284,     3607,     3790,     3772,     3589,     3606,     3789,     3771,     3588
    3285,     3773,     3791,     3790,     3772,     3590,     3608,     3607,     3589
    3286,     3789,     3792,     3774,     3771,     2999,     3002,     2984,     2981
    3287,     3790,     3793,     3775,     3772,     3789,     3792,     3774,     3771
    3288,     3776,     3794,     3793,     3775,     3773,     3791,     3790,     3772
    3289,     3792,     3795,     3777,     3774,     3002,     3005,     2987,     2984
    3290,     3793,     3796,     3778,     3775,     3792,     3795,     3777,     3774
    3291,     3779,     3797,     3796,     3778,     3776,     3794,     3793,     3775
    3292,     3795,     3798,     3780,     3777,     3005,     3008,     2990,     2987
    3293,     3796,     3799,     3781,     3778,     3795,     3798,     3780,     3777
    3294,     3782,     3800,     3799,     3781,     3779,     3797,     3796,     3778
    3295,     3798,     3801,     3783,     3780,     3008,     3011,     2993,     2990
    3296,     3799,     3802,     3784,     3781,     3798,     3801,     3783,     3780
    3297,     3785,     3803,     3802,     3784,     3782,     3800,     3799,     3781
    3298,     3801,     3804,     3786,     3783,     3011,     3014,     2996,     2993
    3299,     3802,     3805,     3787,     3784,     3801,     3804,     3786,     3783
    3300,     3788,     3806,     3805,     3787,     3785,     3803,     3802,     3784
    3301,     3642,     3822,     3807,     3624,     2852,     3032,     3017,     2834
    3302,     3643,     3823,     3808,     3625,     3642,     3822,     3807,     3624
    3303,     3809,     3824,     3823,     3808,     3626,     3644,     3643,     3625
    3304,     3822,     3825,     3810,     3807,     3032,     3035,     3020,     3017
    3305,     3823,     3826,     3811,     3808,     3822,     3825,     3810,     3807
    3306,     3812,     3827,     3826,     3811,     3809,     3824,     3823,     3808
    3307,     3825,     3828,     3813,     3810,     3035,     3038,     3023,     3020
    3308,     3826,     3829,     3814,     3811,     3825,     3828,     3813,     3810
    3309,     3815,     3830,     3829,     3814,     3812,     3827,     3826,     3811
    3310,     3828,     3831,     3816,     3813,     3038,     3041,     3026,     3023
    3311,     3829,     3832,     3817,     3814,     3828,     3831,     3816,     3813
    3312,     3818,     3833,     3832,     3817,     3815,     3830,     3829,     3814
    3313,     3831,     3834,     3819,     3816,     3041,     3044,     3029,     3026
    3314,     3832,     3835,     3820,     3817,     3831,     3834,     3819,     3816
    3315,     3821,     3836,     3835,     3820,     3818,     3833,     3832,     3817
    3316,     3834,     3201,     3180,     3819,     3044,     2411,     2390,     3029
    3317,     3835,     3202,     3181,     3820,     3834,     3201,     3180,     3819
    3318,     3202,     3203,     3836,     3835,     3181,     3182,     3821,     3820
    3319,     3660,     3837,     3822,     3642,     2870,     3047,     3032,     2852
    3320,     3661,     3838,     3823,     3643,     3660,     3837,     3822,     3642
    3321,     3824,     3839,     3838,     3823,     3644,     3662,     3661,     3643
    3322,     3837,     3840,     3825,     3822,     3047,     3050,     3035,     3032
    3323,     3838,     3841,     3826,     3823,     3837,     3840,     3825,     3822
    3324,     3827,     3842,     3841,     3826,     3824,     3839,     3838,     3823
    3325,     3840,     3843,     3828,     3825,     3050,     3053,     3038,     3035
    3326,     3841,     3844,     3829,     3826,     3840,     3843,     3828,     3825
    3327,     3830,     3845,     3844,     3829,     3827,     3842,     3841,     3826
    3328,     3843,     3846,     3831,     3828,     3053,     3056,     3041,     3038
    3329,     3844,     3847,     3832,     3829,     3843,     3846,     3831,     3828
    3330,     3833,     3848,     3847,     3832,     3830,     3845,     3844,     3829
    3331,     3846,     3849,     3834,     3831,     3056,     3059,     3044,     3041
    3332,     3847,     3850,     3835,     3832,     3846,     3849,     3834,     3831
    3333,     3836,     3851,     3850,     3835,     3833,     3848,     3847,     3832
    3334,     3849,     3222,     3201,     3834,     3059,     2432,     2411,     3044
    3335,     3850,     3223,     3202,     3835,     3849,     3222,     3201,     3834
    3336,     3223,     3224,     3851,     3850,     3202,     3203,     3836,     3835
    3337,     3678,     3852,     3837,     3660,     2888,     3062,     3047,     2870
    3338,     3679,     3853,     3838,     3661,     3678,     3852,     3837,     3660
    3339,     3839,     3854,     3853,     3838,     3662,     3680,     3679,     3661
    3340,     3852,     3855,     3840,     3837,     3062,     3065,     3050,     3047
    3341,     3853,     3856,     3841,     3838,     3852,     3855,     3840,     3837
    3342,     3842,     3857,     3856,     3841,     3839,     3854,     3853,     3838
    3343,     3855,     3858,     3843,     3840,     3065,     3068,     3053,     3050
    3344,     3856,     3859,     3844,     3841,     3855,     3858,     3843,     3840
    3345,     3845,     3860,     3859,     3844,     3842,     3857,     3856,     3841
    3346,     3858,     3861,     3846,     3843,     3068,     3071,     3056,     3053
    3347,     3859,     3862,     3847,     3844,     3858,     3861,     3846,     3843
    3348,     3848,     3863,     3862,     3847,     3845,     3860,     3859,     3844
    3349,     3861,     3864,     3849,     3846,     3071,     3074,     3059,     3056
    3350,     3862,     3865,     3850,     3847,     3861,     3864,     3849,     3846
    3351,     3851,     3866,     3865,     3850,     3848,     3863,     3862,     3847
    3352,     3864,     3243,     3222,     3849,     3074,     2453,     2432,     3059
    3353,     3865,     3244,     3223,     3850,     3864,     3243,     3222,     3849
    3354,     3244,     3245,     3866,     3865,     3223,     3224,     3851,     3850
    3355,     3696,     3867,     3852,     3678,     2906,     3077,     3062,     2888
    3356,     3697,     3868,     3853,     3679,     3696,     3867,     3852,     3678
    3357,     3854,     3869,     3868,     3853,     3680,     3698,     3697,     3679
    3358,     3867,     3870,     3855,     3852,     3077,     3080,     3065,     3062
    3359,     3868,     3871,     3856,     3853,     3867,     3870,     3855,     3852
    3360,     3857,     3872,     3871,     3856,     3854,     3869,     3868,     3853
    3361,     3870,     3873,     3858,     3855,     3080,     3083,     3068,     3065
    3362,     3871,     3874,     3859,     3856,     3870,     3873,     3858,     3855
    3363,     3860,     3875,     3874,     3859,     3857,     3872,     3871,     3856
    3364,     3873,     3876,     3861,     3858,     3083,     3086,     3071,     3068
    3365,     3874,     3877,     3862,     3859,     3873,     3876,     3861,     3858
    3366,     3863,     3878,     3877,     3862,     3860,     3875,     3874,     3859
    3367,     3876,     3879,     3864,     3861,     3086,     3089,     3074,     3071
    3368,     3877,     3880,     3865,     3862,     3876,     3879,     3864,     3861
    3369,     3866,     3881,     3880,     3865,     3863,     3878,     3877,     3862
    3370,     3879,     3264,     3243,     3864,     3089,     2474,     2453,     3074
    3371,     3880,     3265,     3244,     3865,     3879,     3264,     3243,     3864
    3372,     3265,     3266,     3881,     3880,     3244,     3245,     3866,     3865
    3373,     3714,     3882,     3867,     3696,     2924,     3092,     3077,     2906
    3374,     3715,     3883,     3868,     3697,     3714,     3882,     3867,     3696
    3375,     3869,     3884,     3883,     3868,     3698,     3716,     3715,     3697
    3376,     3882,     3885,     3870,     3867,     3092,     3095,     3080,     3077
    3377,     3883,     3886,     3871,     3868,     3882,     3885,     3870,     3867
    3378,     3872,     3887,     3886,     3871,     3869,     3884,     3883,     3868
    3379,     3885,     3888,     3873,     3870,     3095,     3098,     3083,     3080
    3380,     3886,     3889,     3874,     3871,     3885,     3888,     3873,     3870
    3381,     3875,     3890,     3889,     3874,     3872,     3887,     3886,     3871
    3382,     3888,     3891,     3876,     3873,     3098,     3101,     3086,     3083
    3383,     3889,     3892,     3877,     3874,     3888,     3891,     3876,     3873
    3384,     3878,     3893,     3892,     3877,     3875,     3890,     3889,     3874
    3385,     3891,     3894,     3879,     3876,     3101,     3104,     3089,     3086
    3386,     3892,     3895,     3880,     3877,     3891,     3894,     3879,     3876
    3387,     3881,     3896,     3895,     3880,     3878,     3893,     3892,     3877
    3388,     3894,     3285,     3264,     3879,     3104,     2495,     2474,     3089
    3389,     3895,     3286,     3265,     3880,     3894,     3285,     3264,     3879
    3390,     3286,     3287,     3896,     3895,     3265,     3266,     3881,     3880
    3391,     3732,     3897,     3882,     3714,     2942,     3107,     3092,     2924
    3392,     3733,     3898,     3883,     3715,     3732,     3897,     3882,     3714
    3393,     3884,     3899,     3898,     3883,     3716,     3734,     3733,     3715
    3394,     3897,     3900,     3885,     3882,     3107,     3110,     3095,     3092
    3395,     3898,     3901,     3886,     3883,     3897,     3900,     3885,     3882
    3396,     3887,     3902,     3901,     3886,     3884,     3899,     3898,     3883
    3397,     3900,     3903,     3888,     3885,     3110,     3113,     3098,     3095
    3398,     3901,     3904,     3889,     3886,     3900,     3903,     3888,     3885
    3399,     3890,     3905,     3904,     3889,     3887,     3902,     3901,     3886
    3400,     3903,     3906,     3891,     3888,     3113,     3116,     3101,     3098
    3401,     3904,     3907,     3892,     3889,     3903,     3906,     3891,     3888
    3402,     3893,     3908,     3907,     3892,     3890,     3905,     3904,     3889
    3403,     3906,     3909,     3894,     3891,     3116,     3119,     3104,     3101
    3404,     3907,     3910,     3895,     3892,     3906,     3909,     3894,     3891
    3405,     3896,     3911,     3910,     3895,     3893,     3908,     3907,     3892
    3406,     3909,     3306,     3285,     3894,     3119,     2516,     2495,     3104
    3407,     3910,     3307,     3286,     3895,     3909,     3306,     3285,     3894
    3408,     3307,     3308,     3911,     3910,     3286,     3287,     3896,     3895
    3409,     3750,     3912,     3897,     3732,     2960,     3122,     3107,     2942
    3410,     3751,     3913,     3898,     3733,     3750,     3912,     3897,     3732
    3411,     3899,     3914,     3913,     3898,     3734,     3752,     3751,     3733
    3412,     3912,     3915,     3900,     3897,     3122,     3125,     3110,     3107
    3413,     3913,     3916,     3901,     3898,     3912,     3915,     3900,     3897
    3414,     3902,     3917,     3916,     3901,     3899,     3914,     3913,     3898
    3415,     3915,     3918,     3903,     3900,     3125,     3128,     3113,     3110
    3416,     3916,     3919,     3904,     3901,     3915,     3918,     3903,     3900
    3417,     3905,     3920,     3919,     3904,     3902,     3917,     3916,     3901
    3418,     3918,     3921,     3906,     3903,     3128,     3131,     3116,     3113
    3419,     3919,     3922,     3907,     3904,     3918,     3921,     3906,     3903
    3420,     3908,     3923,     3922,     3907,     3905,     3920,     3919,     3904
    3421,     3921,     3924,     3909,     3906,     3131,     3134,     3119,     3116
    3422,     3922,     3925,     3910,     3907,     3921,     3924,     3909,     3906
    3423,     3911,     3926,     3925,     3910,     3908,     3923,     3922,     3907
    3424,     3924,     3327,     3306,     3909,     3134,     2537,     2516,     3119
    3425,     3925,     3328,     3307,     3910,     3924,     3327,     3306,     3909
    3426,     3328,     3329,     3926,     3925,     3307,     3308,     3911,     3910
    3427,     3768,     3927,     3912,     3750,     2978,     3137,     3122,     2960
    3428,     3769,     3928,     3913,     3751,     3768,     3927,     3912,     3750
    3429,     3914,     3929,     3928,     3913,     3752,     3770,     3769,     3751
    3430,     3927,     3930,     3915,     3912,     3137,     3140,     3125,     3122
    3431,     3928,     3931,     3916,     3913,     3927,     3930,     3915,     3912
    3432,     3917,     3932,     3931,     3916,     3914,     3929,     3928,     3913
    3433,     3930,     3933,     3918,     3915,     3140,     3143,     3128,     3125
    3434,     3931,     3934,     3919,     3916,     3930,     3933,     3918,     3915
    3435,     3920,     3935,     3934,     3919,     3917,     3932,     3931,     3916
    3436,     3933,     3936,     3921,     3918,     3143,     3146,     3131,     3128
    3437,     3934,     3937,     3922,     3919,     3933,     3936,     3921,     3918
    3438,     3923,     3938,     3937,     3922,     3920,     3935,     3934,     3919
    3439,     3936,     3939,     3924,     3921,     3146,     3149,     3134,     3131
    3440,     3937,     3940,     3925,     3922,     3936,     3939,     3924,     3921
    3441,     3926,     3941,     3940,     3925,     3923,     3938,     3937,     3922
    3442,     3939,     3348,     3327,     3924,     3149,     2558,     2537,     3134
    3443,     3940,     3349,     3328,     3925,     3939,     3348,     3327,     3924
    3444,     3349,     3350,     3941,     3940,     3328,     3329,     3926,     3925
    3445,     3786,     3942,     3927,     3768,     2996,     3152,     3137,     2978
    3446,     3787,     3943,     3928,     3769,     3786,     3942,     3927,     3768
    3447,     3929,     3944,     3943,     3928,     3770,     3788,     3787,     3769
    3448,     3942,     3945,     3930,     3927,     3152,     3155,     3140,     3137
    3449,     3943,     3946,     3931,     3928,     3942,     3945,     3930,     3927
    3450,     3932,     3947,     3946,     3931,     3929,     3944,     3943,     3928
    3451,     3945,     3948,     3933,     3930,     3155,     3158,     3143,     3140
    3452,     3946,     3949,     3934,     3931,     3945,     3948,     3933,     3930
    3453,     3935,     3950,     3949,     3934,     3932,     3947,     3946,     3931
    3454,     3948,     3951,     3936,     3933,     3158,     3161,     3146,     3143
    3455,     3949,     3952,     3937,     3934,     3948,     3951,     3936,     3933
    3456,     3938,     3953,     3952,     3937,     3935,     3950,     3949,     3934
    3457,     3951,     3954,     3939,     3936,     3161,     3164,     3149,     3146
    3458,     3952,     3955,     3940,     3937,     3951,     3954,     3939,     3936
    3459,     3941,     3956,     3955,     3940,     3938,     3953,     3952,     3937
    3460,     3954,     3369,     3348,     3939,     3164,     2579,     2558,     3149
    3461,     3955,     3370,     3349,     3940,     3954,     3369,     3348,     3939
    3462,     3370,     3371,     3956,     3955,     3349,     3350,     3941,     3940
    3463,     3804,     3957,     3942,     3786,     3014,     3167,     3152,     2996
    3464,     3805,     3958,     3943,     3787,     3804,     3957,     3942,     3786
    3465,     3944,     3959,     3958,     3943,     3788,     3806,     3805,     3787
    3466,     3957,     3960,     3945,     3942,     3167,     3170,     3155,     3152
    3467,     3958,     3961,     3946,     3943,     3957,     3960,     3945,     3942
    3468,     3947,     3962,     3961,     3946,     3944,     3959,     3958,     3943
    3469,     3960,     3963,     3948,     3945,     3170,     3173,     3158,     3155
    3470,     3961,     3964,     3949,     3946,     3960,     3963,     3948,     3945
    3471,     3950,     3965,     3964,     3949,     3947,     3962,     3961,     3946
    3472,     3963,     3966,     3951,     3948,     3173,     3176,     3161,     3158
    3473,     3964,     3967,     3952,     3949,     3963,     3966,     3951,     3948
    3474,     3953,     3968,     3967,     3952,     3950,     3965,     3964,     3949
    3475,     3966,     3969,     3954,     3951,     3176,     3179,     3164,     3161
    3476,     3967,     3970,     3955,     3952,     3966,     3969,     3954,     3951
    3477,     3956,     3971,     3970,     3955,     3953,     3968,     3967,     3952
    3478,     3969,     3390,     3369,     3954,     3179,     2600,     2579,     3164
    3479,     3970,     3391,     3370,     3955,     3969,     3390,     3369,     3954
    3480,     3971,     3392,     3371,     3956,     3970,     3391,     3370,     3955
*ELEMENT, TYPE=C3D8I, ELSET=DURA
    3481,     3986,     3988,     3974,     3972,     3203,     3206,     3185,     3182
    3482,     3975,     3989,     3988,     3974,     3973,     3987,     3986,     3972
    3483,     3988,     3990,     3976,     3974,     3206,     3209,     3188,     3185
    3484,     3977,     3991,     3990,     3976,     3975,     3989,     3988,     3974
    3485,     3990,     3992,     3978,     3976,     3209,     3212,     3191,     3188
    3486,     3979,     3993,     3992,     3978,     3977,     3991,     3990,     3976
    3487,     3992,     3994,     3980,     3978,     3212,     3215,     3194,     3191
    3488,     3981,     3995,     3994,     3980,     3979,     3993,     3992,     3978
    3489,     3994,     3996,     3982,     3980,     3215,     3218,     3197,     3194
    3490,     3983,     3997,     3996,     3982,     3981,     3995,     3994,     3980
    3491,     3996,     3998,     3984,     3982,     3218,     3221,     3200,     3197
    3492,     3998,     3999,     3997,     3996,     3984,     3985,     3983,     3982
    3493,     4000,     4002,     3988,     3986,     3224,     3227,     3206,     3203
    3494,     3989,     4003,     4002,     3988,     3987,     4001,     4000,     3986
    3495,     4002,     4004,     3990,     3988,     3227,     3230,     3209,     3206
    3496,     3991,     4005,     4004,     3990,     3989,     4003,     4002,     3988
    3497,     4004,     4006,     3992,     3990,     3230,     3233,     3212,     3209
    3498,     3993,     4007,     4006,     3992,     3991,     4005,     4004,     3990
    3499,     4006,     4008,     3994,     3992,     3233,     3236,     3215,     3212
    3500,     3995,     4009,     4008,     3994,     3993,     4007,     4006,     3992
    3501,     4008,     4010,     3996,     3994,     3236,     3239,     3218,     3215
    3502,     3997,     4011,     4010,     3996,     3995,     4009,     4008,     3994
    3503,     4010,     4012,     3998,     3996,     3239,     3242,     3221,     3218
    3504,     4012,     4013,     4011,     4010,     3998,     3999,     3997,     3996
    3505,     4014,     4016,     4002,     4000,     3245,     3248,     3227,     3224
    3506,     4003,     4017,     4016,     4002,     4001,     4015,     4014,     4000
    3507,     4016,     4018,     4004,     4002,     3248,     3251,     3230,     3227
    3508,     4005,     4019,     4018,     4004,     4003,     4017,     4016,     4002
    3509,     4018,     4020,     4006,     4004,     3251,     3254,     3233,     3230
    3510,     4007,     4021,     4020,     4006,     4005,     4019,     4018,     4004
    3511,     4020,     4022,     4008,     4006,     3254,     3257,     3236,     3233
    3512,     4009,     4023,     4022,     4008,     4007,     4021,     4020,     4006
    3513,     4022,     4024,     4010,     4008,     3257,     3260,     3239,     3236
    3514,     4011,     4025,     4024,     4010,     4009,     4023,     4022,     4008
    3515,     4024,     4026,     4012,     4010,     3260,     3263,     3242,     3239
    3516,     4026,     4027,     4025,     4024,     4012,     4013,     4011,     4010
    3517,     4028,     4030,     4016,     4014,     3266,     3269,     3248,     3245
    3518,     4017,     4031,     4030,     4016,     4015,     4029,     4028,     4014
    3519,     4030,     4032,     4018,     4016,     3269,     3272,     3251,     3248
    3520,     4019,     4033,     4032,     4018,     4017,     4031,     4030,     4016
    3521,     4032,     4034,     4020,     4018,     3272,     3275,     3254,     3251
    3522,     4021,     4035,     4034,     4020,     4019,     4033,     4032,     4018
    3523,     4034,     4036,     4022,     4020,     3275,     3278,     3257,     3254
    3524,     4023,     4037,     4036,     4022,     4021,     4035,     4034,     4020
    3525,     4036,     4038,     4024,     4022,     3278,     3281,     3260,     3257
    3526,     4025,     4039,     4038,     4024,     4023,     4037,     4036,     4022
    3527,     4038,     4040,     4026,     4024,     3281,     3284,     3263,     3260
    3528,     4040,     4041,     4039,     4038,     4026,     4027,     4025,     4024
    3529,     4042,     4044,     4030,     4028,     3287,     3290,     3269,     3266
    3530,     4031,     4045,     4044,     4030,     4029,     4043,     4042,     4028
    3531,     4044,     4046,     4032,     4030,     3290,     3293,     3272,     3269
    3532,     4033,     4047,     4046,     4032,     4031,     4045,     4044,     4030
    3533,     4046,     4048,     4034,     4032,     3293,     3296,     3275,     3272
    3534,     4035,     4049,     4048,     4034,     4033,     4047,     4046,     4032
    3535,     4048,     4050,     4036,     4034,     3296,     3299,     3278,     3275
    3536,     4037,     4051,     4050,     4036,     4035,     4049,     4048,     4034
    3537,     4050,     4052,     4038,     4036,     3299,     3302,     3281,     3278
    3538,     4039,     4053,     4052,     4038,     4037,     4051,     4050,     4036
    3539,     4052,     4054,     4040,     4038,     3302,     3305,     3284,     3281
    3540,     4054,     4055,     4053,     4052,     4040,     4041,     4039,     4038
    3541,     4056,     4058,     4044,     4042,     3308,     3311,     3290,     3287
    3542,     4045,     4059,     4058,     4044,     4043,     4057,     4056,     4042
    3543,     4058,     4060,     4046,     4044,     3311,     3314,     3293,     3290
    3544,     4047,     4061,     4060,     4046,     4045,     4059,     4058,     4044
    3545,     4060,     4062,     4048,     4046,     3314,     3317,     3296,     3293
    3546,     4049,     4063,     4062,     4048,     4047,     4061,     4060,     4046
    3547,     4062,     4064,     4050,     4048,     3317,     3320,     3299,     3296
    3548,     4051,     4065,     4064,     4050,     4049,     4063,     4062,     4048
    3549,     4064,     4066,     4052,     4050,     3320,     3323,     3302,     3299
    3550,     4053,     4067,     4066,     4052,     4051,     4065,     4064,     4050
    3551,     4066,     4068,     4054,     4052,     3323,     3326,     3305,     3302
    3552,     4068,     4069,     4067,     4066,     4054,     4055,     4053,     4052
    3553,     4070,     4072,     4058,     4056,     3329,     3332,     3311,     3308
    3554,     4059,     4073,     4072,     4058,     4057,     4071,     4070,     4056
    3555,     4072,     4074,     4060,     4058,     3332,     3335,     3314,     3311
    3556,     4061,     4075,     4074,     4060,     4059,     4073,     4072,     4058
    3557,     4074,     4076,     4062,     4060,     3335,     3338,     3317,     3314
    3558,     4063,     4077,     4076,     4062,     4061,     4075,     4074,     4060
    3559,     4076,     4078,     4064,     4062,     3338,     3341,     3320,     3317
    3560,     4065,     4079,     4078,     4064,     4063,     4077,     4076,     4062
    3561,     4078,     4080,     4066,     4064,     3341,     3344,     3323,     3320
    3562,     4067,     4081,     4080,     4066,     4065,     4079,     4078,     4064
    3563,     4080,     4082,     4068,     4066,     3344,     3347,     3326,     3323
    3564,     4082,     4083,     4081,     4080,     4068,     4069,     4067,     4066
    3565,     4084,     4086,     4072,     4070,     3350,     3353,     3332,     3329
    3566,     4073,     4087,     4086,     4072,     4071,     4085,     4084,     4070
    3567,     4086,     4088,     4074,     4072,     3353,     3356,     3335,     3332
    3568,     4075,     4089,     4088,     4074,     4073,     4087,     4086,     4072
    3569,     4088,     4090,     4076,     4074,     3356,     3359,     3338,     3335
    3570,     4077,     4091,     4090,     4076,     4075,     4089,     4088,     4074
    3571,     4090,     4092,     4078,     4076,     3359,     3362,     3341,     3338
    3572,     4079,     4093,     4092,     4078,     4077,     4091,     4090,     4076
    3573,     4092,     4094,     4080,     4078,     3362,     3365,     3344,     3341
    3574,     4081,     4095,     4094,     4080,     4079,     4093,     4092,     4078
    3575,     4094,     4096,     4082,     4080,     3365,     3368,     3347,     3344
    3576,     4096,     4097,     4095,     4094,     4082,     4083,     4081,     4080
    3577,     4098,     4100,     4086,     4084,     3371,     3374,     3353,     3350
    3578,     4087,     4101,     4100,     4086,     4085,     4099,     4098,     4084
    3579,     4100,     4102,     4088,     4086,     3374,     3377,     3356,     3353
    3580,     4089,     4103,     4102,     4088,     4087,     4101,     4100,     4086
    3581,     4102,     4104,     4090,     4088,     3377,     3380,     3359,     3356
    3582,     4091,     4105,     4104,     4090,     4089,     4103,     4102,     4088
    3583,     4104,     4106,     4092,     4090,     3380,     3383,     3362,     3359
    3584,     4093,     4107,     4106,     4092,     4091,     4105,     4104,     4090
    3585,     4106,     4108,     4094,     4092,     3383,     3386,     3365,     3362
    3586,     4095,     4109,     4108,     4094,     4093,     4107,     4106,     4092
    3587,     4108,     4110,     4096,     4094,     3386,     3389,     3368,     3365
    3588,     4110,     4111,     4109,     4108,     4096,     4097,     4095,     4094
    3589,     4112,     4114,     4100,     4098,     3392,     3395,     3374,     3371
    3590,     4101,     4115,     4114,     4100,     4099,     4113,     4112,     4098
    3591,     4114,     4116,     4102,     4100,     3395,     3398,     3377,     3374
    3592,     4103,     4117,     4116,     4102,     4101,     4115,     4114,     4100
    3593,     4116,     4118,     4104,     4102,     3398,     3401,     3380,     3377
    3594,     4105,     4119,     4118,     4104,     4103,     4117,     4116,     4102
    3595,     4118,     4120,     4106,     4104,     3401,     3404,     3383,     3380
    3596,     4107,     4121,     4120,     4106,     4105,     4119,     4118,     4104
    3597,     4120,     4122,     4108,     4106,     3404,     3407,     3386,     3383
    3598,     4109,     4123,     4122,     4108,     4107,     4121,     4120,     4106
    3599,     4122,     4124,     4110,     4108,     3407,     3410,     3389,     3386
    3600,     4111,     4125,     4124,     4110,     4109,     4123,     4122,     4108
    3601,     3998,     4138,     4126,     3984,     3221,     3431,     3413,     3200
    3602,     4127,     4139,     4138,     4126,     3985,     3999,     3998,     3984
    3603,     4138,     4140,     4128,     4126,     3431,     3434,     3416,     3413
    3604,     4129,     4141,     4140,     4128,     4127,     4139,     4138,     4126
    3605,     4140,     4142,     4130,     4128,     3434,     3437,     3419,     3416
    3606,     4131,     4143,     4142,     4130,     4129,     4141,     4140,     4128
    3607,     4142,     4144,     4132,     4130,     3437,     3440,     3422,     3419
    3608,     4133,     4145,     4144,     4132,     4131,     4143,     4142,     4130
    3609,     4144,     4146,     4134,     4132,     3440,     3443,     3425,     3422
    3610,     4135,     4147,     4146,     4134,     4133,     4145,     4144,     4132
    3611,     4146,     4148,     4136,     4134,     3443,     3446,     3428,     3425
    3612,     4148,     4149,     4147,     4146,     4136,     4137,     4135,     4134
    3613,     4012,     4150,     4138,     3998,     3242,     3449,     3431,     3221
    3614,     4139,     4151,     4150,     4138,     3999,     4013,     4012,     3998
    3615,     4150,     4152,     4140,     4138,     3449,     3452,     3434,     3431
    3616,     4141,     4153,     4152,     4140,     4139,     4151,     4150,     4138
    3617,     4152,     4154,     4142,     4140,     3452,     3455,     3437,     3434
    3618,     4143,     4155,     4154,     4142,     4141,     4153,     4152,     4140
    3619,     4154,     4156,     4144,     4142,     3455,     3458,     3440,     3437
    3620,     4145,     4157,     4156,     4144,     4143,     4155,     4154,     4142
    3621,     4156,     4158,     4146,     4144,     3458,     3461,     3443,     3440
    3622,     4147,     4159,     4158,     4146,     4145,     4157,     4156,     4144
    3623,     4158,     4160,     4148,     4146,     3461,     3464,     3446,     3443
    3624,     4160,     4161,     4159,     4158,     4148,     4149,     4147,     4146
    3625,     4026,     4162,     4150,     4012,     3263,     3467,     3449,     3242
    3626,     4151,     4163,     4162,     4150,     4013,     4027,     4026,     4012
    3627,     4162,     4164,     4152,     4150,     3467,     3470,     3452,     3449
    3628,     4153,     4165,     4164,     4152,     4151,     4163,     4162,     4150
    3629,     4164,     4166,     4154,     4152,     3470,     3473,     3455,     3452
    3630,     4155,     4167,     4166,     4154,     4153,     4165,     4164,     4152
    3631,     4166,     4168,     4156,     4154,     3473,     3476,     3458,     3455
    3632,     4157,     4169,     4168,     4156,     4155,     4167,     4166,     4154
    3633,     4168,     4170,     4158,     4156,     3476,     3479,     3461,     3458
    3634,     4159,     4171,     4170,     4158,     4157,     4169,     4168,     4156
    3635,     4170,     4172,     4160,     4158,     3479,     3482,     3464,     3461
    3636,     4172,     4173,     4171,     4170,     4160,     4161,     4159,     4158
    3637,     4040,     4174,     4162,     4026,     3284,     3485,     3467,     3263
    3638,     4163,     4175,     4174,     4162,     4027,     4041,     4040,     4026
    3639,     4174,     4176,     4164,     4162,     3485,     3488,     3470,     3467
    3640,     4165,     4177,     4176,     4164,     4163,     4175,     4174,     4162
    3641,     4176,     4178,     4166,     4164,     3488,     3491,     3473,     3470
    3642,     4167,     4179,     4178,     4166,     4165,     4177,     4176,     4164
    3643,     4178,     4180,     4168,     4166,     3491,     3494,     3476,     3473
    3644,     4169,     4181,     4180,     4168,     4167,     4179,     4178,     4166
    3645,     4180,     4182,     4170,     4168,     3494,     3497,     3479,     3476
    3646,     4171,     4183,     4182,     4170,     4169,     4181,     4180,     4168
    3647,     4182,     4184,     4172,     4170,     3497,     3500,     3482,     3479
    3648,     4184,     4185,     4183,     4182,     4172,     4173,     4171,     4170
    3649,     4054,     4186,     4174,     4040,     3305,     3503,     3485,     3284
    3650,     4175,     4187,     4186,     4174,     4041,     4055,     4054,     4040
    3651,     4186,     4188,     4176,     4174,     3503,     3506,     3488,     3485
    3652,     4177,     4189,     4188,     4176,     4175,     4187,     4186,     4174
    3653,     4188,     4190,     4178,     4176,     3506,     3509,     3491,     3488
    3654,     4179,     4191,     4190,     4178,     4177,     4189,     4188,     4176
    3655,     4190,     4192,     4180,     4178,     3509,     3512,     3494,     3491
    3656,     4181,     4193,     4192,     4180,     4179,     4191,     4190,     4178
    3657,     4192,     4194,     4182,     4180,     3512,     3515,     3497,     3494
    3658,     4183,     4195,     4194,     4182,     4181,     4193,     4192,     4180
    3659,     4194,     4196,     4184,     4182,     3515,     3518,     3500,     3497
    3660,     4196,     4197,     4195,     4194,     4184,     4185,     4183,     4182
    3661,     4068,     4198,     4186,     4054,     3326,     3521,     3503,     3305
    3662,     4187,     4199,     4198,     4186,     4055,     4069,     4068,     4054
    3663,     4198,     4200,     4188,     4186,     3521,     3524,     3506,     3503
    3664,     4189,     4201,     4200,     4188,     4187,     4199,     4198,     4186
    3665,     4200,     4202,     4190,     4188,     3524,     3527,     3509,     3506
    3666,     4191,     4203,     4202,     4190,     4189,     4201,     4200,     4188
    3667,     4202,     4204,     4192,     4190,     3527,     3530,     3512,     3509
    3668,     4193,     4205,     4204,     4192,     4191,     4203,     4202,     4190
    3669,     4204,     4206,     4194,     4192,     3530,     3533,     3515,     3512
    3670,     4195,     4207,     4206,     4194,     4193,     4205,     4204,     4192
    3671,     4206,     4208,     4196,     4194,     3533,     3536,     3518,     3515
    3672,     4208,     4209,     4207,     4206,     4196,     4197,     4195,     4194
    3673,     4082,     4210,     4198,     4068,     3347,     3539,     3521,     3326
    3674,     4199,     4211,     4210,     4198,     4069,     4083,     4082,     4068
    3675,     4210,     4212,     4200,     4198,     3539,     3542,     3524,     3521
    3676,     4201,     4213,     4212,     4200,     4199,     4211,     4210,     4198
    3677,     4212,     4214,     4202,     4200,     3542,     3545,     3527,     3524
    3678,     4203,     4215,     4214,     4202,     4201,     4213,     4212,     4200
    3679,     4214,     4216,     4204,     4202,     3545,     3548,     3530,     3527
    3680,     4205,     4217,     4216,     4204,     4203,     4215,     4214,     4202
    3681,     4216,     4218,     4206,     4204,     3548,     3551,     3533,     3530
    3682,     4207,     4219,     4218,     4206,     4205,     4217,     4216,     4204
    3683,     4218,     4220,     4208,     4206,     3551,     3554,     3536,     3533
    3684,     4220,     4221,     4219,     4218,     4208,     4209,     4207,     4206
    3685,     4096,     4222,     4210,     4082,     3368,     3557,     3539,     3347
    3686,     4211,     4223,     4222,     4210,     4083,     4097,     4096,     4082
    3687,     4222,     4224,     4212,     4210,     3557,     3560,     3542,     3539
    3688,     4213,     4225,     4224,     4212,     4211,     4223,     4222,     4210
    3689,     4224,     4226,     4214,     4212,     3560,     3563,     3545,     3542
    3690,     4215,     4227,     4226,     4214,     4213,     4225,     4224,     4212
    3691,     4226,     4228,     4216,     4214,     3563,     3566,     3548,     3545
    3692,     4217,     4229,     4228,     4216,     4215,     4227,     4226,     4214
    3693,     4228,     4230,     4218,     4216,     3566,     3569,     3551,     3548
    3694,     4219,     4231,     4230,     4218,     4217,     4229,     4228,     4216
    3695,     4230,     4232,     4220,     4218,     3569,     3572,     3554,     3551
    3696,     4232,     4233,     4231,     4230,     4220,     4221,     4219,     4218
    3697,     4110,     4234,     4222,     4096,     3389,     3575,     3557,     3368
    3698,     4223,     4235,     4234,     4222,     4097,     4111,     4110,     4096
    3699,     4234,     4236,     4224,     4222,     3575,     3578,     3560,     3557
    3700,     4225,     4237,     4236,     4224,     4223,     4235,     4234,     4222
    3701,     4236,     4238,     4226,     4224,     3578,     3581,     3563,     3560
    3702,     4227,     4239,     4238,     4226,     4225,     4237,     4236,     4224
    3703,     4238,     4240,     4228,     4226,     3581,     3584,     3566,     3563
    3704,     4229,     4241,     4240,     4228,     4227,     4239,     4238,     4226
    3705,     4240,     4242,     4230,     4228,     3584,     3587,     3569,     3566
    3706,     4231,     4243,     4242,     4230,     4229,     4241,     4240,     4228
    3707,     4242,     4244,     4232,     4230,     3587,     3590,     3572,     3569
    3708,     4244,     4245,     4243,     4242,     4232,     4233,     4231,     4230
    3709,     4124,     4246,     4234,     4110,     3410,     3593,     3575,     3389
    3710,     4235,     4247,     4246,     4234,     4111,     4125,     4124,     4110
    3711,     4246,     4248,     4236,     4234,     3593,     3596,     3578,     3575
    3712,     4237,     4249,     4248,     4236,     4235,     4247,     4246,     4234
    3713,     4248,     4250,     4238,     4236,     3596,     3599,     3581,     3578
    3714,     4239,     4251,     4250,     4238,     4237,     4249,     4248,     4236
    3715,     4250,     4252,     4240,     4238,     3599,     3602,     3584,     3581
    3716,     4241,     4253,     4252,     4240,     4239,     4251,     4250,     4238
    3717,     4252,     4254,     4242,     4240,     3602,     3605,     3587,     3584
    3718,     4243,     4255,     4254,     4242,     4241,     4253,     4252,     4240
    3719,     4254,     4256,     4244,     4242,     3605,     3608,     3590,     3587
    3720,     4245,     4257,     4256,     4244,     4243,     4255,     4254,     4242
    3721,     4148,     4270,     4258,     4136,     3446,     3629,     3611,     3428
    3722,     4259,     4271,     4270,     4258,     4137,     4149,     4148,     4136
    3723,     4270,     4272,     4260,     4258,     3629,     3632,     3614,     3611
    3724,     4261,     4273,     4272,     4260,     4259,     4271,     4270,     4258
    3725,     4272,     4274,     4262,     4260,     3632,     3635,     3617,     3614
    3726,     4263,     4275,     4274,     4262,     4261,     4273,     4272,     4260
    3727,     4274,     4276,     4264,     4262,     3635,     3638,     3620,     3617
    3728,     4265,     4277,     4276,     4264,     4263,     4275,     4274,     4262
    3729,     4276,     4278,     4266,     4264,     3638,     3641,     3623,     3620
    3730,     4267,     4279,     4278,     4266,     4265,     4277,     4276,     4264
    3731,     4278,     4280,     4268,     4266,     3641,     3644,     3626,     3623
    3732,     4280,     4281,     4279,     4278,     4268,     4269,     4267,     4266
    3733,     4160,     4282,     4270,     4148,     3464,     3647,     3629,     3446
    3734,     4271,     4283,     4282,     4270,     4149,     4161,     4160,     4148
    3735,     4282,     4284,     4272,     4270,     3647,     3650,     3632,     3629
    3736,     4273,     4285,     4284,     4272,     4271,     4283,     4282,     4270
    3737,     4284,     4286,     4274,     4272,     3650,     3653,     3635,     3632
    3738,     4275,     4287,     4286,     4274,     4273,     4285,     4284,     4272
    3739,     4286,     4288,     4276,     4274,     3653,     3656,     3638,     3635
    3740,     4277,     4289,     4288,     4276,     4275,     4287,     4286,     4274
    3741,     4288,     4290,     4278,     4276,     3656,     3659,     3641,     3638
    3742,     4279,     4291,     4290,     4278,     4277,     4289,     4288,     4276
    3743,     4290,     4292,     4280,     4278,     3659,     3662,     3644,     3641
    3744,     4292,     4293,     4291,     4290,     4280,     4281,     4279,     4278
    3745,     4172,     4294,     4282,     4160,     3482,     3665,     3647,     3464
    3746,     4283,     4295,     4294,     4282,     4161,     4173,     4172,     4160
    3747,     4294,     4296,     4284,     4282,     3665,     3668,     3650,     3647
    3748,     4285,     4297,     4296,     4284,     4283,     4295,     4294,     4282
    3749,     4296,     4298,     4286,     4284,     3668,     3671,     3653,     3650
    3750,     4287,     4299,     4298,     4286,     4285,     4297,     4296,     4284
    3751,     4298,     4300,     4288,     4286,     3671,     3674,     3656,     3653
    3752,     4289,     4301,     4300,     4288,     4287,     4299,     4298,     4286
    3753,     4300,     4302,     4290,     4288,     3674,     3677,     3659,     3656
    3754,     4291,     4303,     4302,     4290,     4289,     4301,     4300,     4288
    3755,     4302,     4304,     4292,     4290,     3677,     3680,     3662,     3659
    3756,     4304,     4305,     4303,     4302,     4292,     4293,     4291,     4290
    3757,     4184,     4306,     4294,     4172,     3500,     3683,     3665,     3482
    3758,     4295,     4307,     4306,     4294,     4173,     4185,     4184,     4172
    3759,     4306,     4308,     4296,     4294,     3683,     3686,     3668,     3665
    3760,     4297,     4309,     4308,     4296,     4295,     4307,     4306,     4294
    3761,     4308,     4310,     4298,     4296,     3686,     3689,     3671,     3668
    3762,     4299,     4311,     4310,     4298,     4297,     4309,     4308,     4296
    3763,     4310,     4312,     4300,     4298,     3689,     3692,     3674,     3671
    3764,     4301,     4313,     4312,     4300,     4299,     4311,     4310,     4298
    3765,     4312,     4314,     4302,     4300,     3692,     3695,     3677,     3674
    3766,     4303,     4315,     4314,     4302,     4301,     4313,     4312,     4300
    3767,     4314,     4316,     4304,     4302,     3695,     3698,     3680,     3677
    3768,     4316,     4317,     4315,     4314,     4304,     4305,     4303,     4302
    3769,     4196,     4318,     4306,     4184,     3518,     3701,     3683,     3500
    3770,     4307,     4319,     4318,     4306,     4185,     4197,     4196,     4184
    3771,     4318,     4320,     4308,     4306,     3701,     3704,     3686,     3683
    3772,     4309,     4321,     4320,     4308,     4307,     4319,     4318,     4306
    3773,     4320,     4322,     4310,     4308,     3704,     3707,     3689,     3686
    3774,     4311,     4323,     4322,     4310,     4309,     4321,     4320,     4308
    3775,     4322,     4324,     4312,     4310,     3707,     3710,     3692,     3689
    3776,     4313,     4325,     4324,     4312,     4311,     4323,     4322,     4310
    3777,     4324,     4326,     4314,     4312,     3710,     3713,     3695,     3692
    3778,     4315,     4327,     4326,     4314,     4313,     4325,     4324,     4312
    3779,     4326,     4328,     4316,     4314,     3713,     3716,     3698,     3695
    3780,     4328,     4329,     4327,     4326,     4316,     4317,     4315,     4314
    3781,     4208,     4330,     4318,     4196,     3536,     3719,     3701,     3518
    3782,     4319,     4331,     4330,     4318,     4197,     4209,     4208,     4196
    3783,     4330,     4332,     4320,     4318,     3719,     3722,     3704,     3701
    3784,     4321,     4333,     4332,     4320,     4319,     4331,     4330,     4318
    3785,     4332,     4334,     4322,     4320,     3722,     3725,     3707,     3704
    3786,     4323,     4335,     4334,     4322,     4321,     4333,     4332,     4320
    3787,     4334,     4336,     4324,     4322,     3725,     3728,     3710,     3707
    3788,     4325,     4337,     4336,     4324,     4323,     4335,     4334,     4322
    3789,     4336,     4338,     4326,     4324,     3728,     3731,     3713,     3710
    3790,     4327,     4339,     4338,     4326,     4325,     4337,     4336,     4324
    3791,     4338,     4340,     4328,     4326,     3731,     3734,     3716,     3713
    3792,     4340,     4341,     4339,     4338,     4328,     4329,     4327,     4326
    3793,     4220,     4342,     4330,     4208,     3554,     3737,     3719,     3536
    3794,     4331,     4343,     4342,     4330,     4209,     4221,     4220,     4208
    3795,     4342,     4344,     4332,     4330,     3737,     3740,     3722,     3719
    3796,     4333,     4345,     4344,     4332,     4331,     4343,     4342,     4330
    3797,     4344,     4346,     4334,     4332,     3740,     3743,     3725,     3722
    3798,     4335,     4347,     4346,     4334,     4333,     4345,     4344,     4332
    3799,     4346,     4348,     4336,     4334,     3743,     3746,     3728,     3725
    3800,     4337,     4349,     4348,     4336,     4335,     4347,     4346,     4334
    3801,     4348,     4350,     4338,     4336,     3746,     3749,     3731,     3728
    3802,     4339,     4351,     4350,     4338,     4337,     4349,     4348,     4336
    3803,     4350,     4352,     4340,     4338,     3749,     3752,     3734,     3731
    3804,     4352,     4353,     4351,     4350,     4340,     4341,     4339,     4338
    3805,     4232,     4354,     4342,     4220,     3572,     3755,     3737,     3554
    3806,     4343,     4355,     4354,     4342,     4221,     4233,     4232,     4220
    3807,     4354,     4356,     4344,     4342,     3755,     3758,     3740,     3737
    3808,     4345,     4357,     4356,     4344,     4343,     4355,     4354,     4342
    3809,     4356,     4358,     4346,     4344,     3758,     3761,     3743,     3740
    3810,     4347,     4359,     4358,     4346,     4345,     4357,     4356,     4344
    3811,     4358,     4360,     4348,     4346,     3761,     3764,     3746,     3743
    3812,     4349,     4361,     4360,     4348,     4347,     4359,     4358,     4346
    3813,     4360,     4362,     4350,     4348,     3764,     3767,     3749,     3746
    3814,     4351,     4363,     4362,     4350,     4349,     4361,     4360,     4348
    3815,     4362,     4364,     4352,     4350,     3767,     3770,     3752,     3749
    3816,     4364,     4365,     4363,     4362,     4352,     4353,     4351,     4350
    3817,     4244,     4366,     4354,     4232,     3590,     3773,     3755,     3572
    3818,     4355,     4367,     4366,     4354,     4233,     4245,     4244,     4232
    3819,     4366,     4368,     4356,     4354,     3773,     3776,     3758,     3755
    3820,     4357,     4369,     4368,     4356,     4355,     4367,     4366,     4354
    3821,     4368,     4370,     4358,     4356,     3776,     3779,     3761,     3758
    3822,     4359,     4371,     4370,     4358,     4357,     4369,     4368,     4356
    3823,     4370,     4372,     4360,     4358,     3779,     3782,     3764,     3761
    3824,     4361,     4373,     4372,     4360,     4359,     4371,     4370,     4358
    3825,     4372,     4374,     4362,     4360,     3782,     3785,     3767,     3764
    3826,     4363,     4375,     4374,     4362,     4361,     4373,     4372,     4360
    3827,     4374,     4376,     4364,     4362,     3785,     3788,     3770,     3767
    3828,     4376,     4377,     4375,     4374,     4364,     4365,     4363,     4362
    3829,     4256,     4378,     4366,     4244,     3608,     3791,     3773,     3590
    3830,     4367,     4379,     4378,     4366,     4245,     4257,     4256,     4244
    3831,     4378,     4380,     4368,     4366,     3791,     3794,     3776,     3773
    3832,     4369,     4381,     4380,     4368,     4367,     4379,     4378,     4366
    3833,     4380,     4382,     4370,     4368,     3794,     3797,     3779,     3776
    3834,     4371,     4383,     4382,     4370,     4369,     4381,     4380,     4368
    3835,     4382,     4384,     4372,     4370,     3797,     3800,     3782,     3779
    3836,     4373,     4385,     4384,     4372,     4371,     4383,     4382,     4370
    3837,     4384,     4386,     4374,     4372,     3800,     3803,     3785,     3782
    3838,     4375,     4387,     4386,     4374,     4373,     4385,     4384,     4372
    3839,     4386,     4388,     4376,     4374,     3803,     3806,     3788,     3785
    3840,     4377,     4389,     4388,     4376,     4375,     4387,     4386,     4374
    3841,     4280,     4400,     4390,     4268,     3644,     3824,     3809,     3626
    3842,     4391,     4401,     4400,     4390,     4269,     4281,     4280,     4268
    3843,     4400,     4402,     4392,     4390,     3824,     3827,     3812,     3809
    3844,     4393,     4403,     4402,     4392,     4391,     4401,     4400,     4390
    3845,     4402,     4404,     4394,     4392,     3827,     3830,     3815,     3812
    3846,     4395,     4405,     4404,     4394,     4393,     4403,     4402,     4392
    3847,     4404,     4406,     4396,     4394,     3830,     3833,     3818,     3815
    3848,     4397,     4407,     4406,     4396,     4395,     4405,     4404,     4394
    3849,     4406,     4408,     4398,     4396,     3833,     3836,     3821,     3818
    3850,     4399,     4409,     4408,     4398,     4397,     4407,     4406,     4396
    3851,     4408,     3986,     3972,     4398,     3836,     3203,     3182,     3821
    3852,     3986,     3987,     4409,     4408,     3972,     3973,     4399,     4398
    3853,     4292,     4410,     4400,     4280,     3662,     3839,     3824,     3644
    3854,     4401,     4411,     4410,     4400,     4281,     4293,     4292,     4280
    3855,     4410,     4412,     4402,     4400,     3839,     3842,     3827,     3824
    3856,     4403,     4413,     4412,     4402,     4401,     4411,     4410,     4400
    3857,     4412,     4414,     4404,     4402,     3842,     3845,     3830,     3827
    3858,     4405,     4415,     4414,     4404,     4403,     4413,     4412,     4402
    3859,     4414,     4416,     4406,     4404,     3845,     3848,     3833,     3830
    3860,     4407,     4417,     4416,     4406,     4405,     4415,     4414,     4404
    3861,     4416,     4418,     4408,     4406,     3848,     3851,     3836,     3833
    3862,     4409,     4419,     4418,     4408,     4407,     4417,     4416,     4406
    3863,     4418,     4000,     3986,     4408,     3851,     3224,     3203,     3836
    3864,     4000,     4001,     4419,     4418,     3986,     3987,     4409,     4408
    3865,     4304,     4420,     4410,     4292,     3680,     3854,     3839,     3662
    3866,     4411,     4421,     4420,     4410,     4293,     4305,     4304,     4292
    3867,     4420,     4422,     4412,     4410,     3854,     3857,     3842,     3839
    3868,     4413,     4423,     4422,     4412,     4411,     4421,     4420,     4410
    3869,     4422,     4424,     4414,     4412,     3857,     3860,     3845,     3842
    3870,     4415,     4425,     4424,     4414,     4413,     4423,     4422,     4412
    3871,     4424,     4426,     4416,     4414,     3860,     3863,     3848,     3845
    3872,     4417,     4427,     4426,     4416,     4415,     4425,     4424,     4414
    3873,     4426,     4428,     4418,     4416,     3863,     3866,     3851,     3848
    3874,     4419,     4429,     4428,     4418,     4417,     4427,     4426,     4416
    3875,     4428,     4014,     4000,     4418,     3866,     3245,     3224,     3851
    3876,     4014,     4015,     4429,     4428,     4000,     4001,     4419,     4418
    3877,     4316,     4430,     4420,     4304,     3698,     3869,     3854,     3680
    3878,     4421,     4431,     4430,     4420,     4305,     4317,     4316,     4304
    3879,     4430,     4432,     4422,     4420,     3869,     3872,     3857,     3854
    3880,     4423,     4433,     4432,     4422,     4421,     4431,     4430,     4420
    3881,     4432,     4434,     4424,     4422,     3872,     3875,     3860,     3857
    3882,     4425,     4435,     4434,     4424,     4423,     4433,     4432,     4422
    3883,     4434,     4436,     4426,     4424,     3875,     3878,     3863,     3860
    3884,     4427,     4437,     4436,     4426,     4425,     4435,     4434,     4424
    3885,     4436,     4438,     4428,     4426,     3878,     3881,     3866,     3863
    3886,     4429,     4439,     4438,     4428,     4427,     4437,     4436,     4426
    3887,     4438,     4028,     4014,     4428,     3881,     3266,     3245,     3866
    3888,     4028,     4029,     4439,     4438,     4014,     4015,     4429,     4428
    3889,     4328,     4440,     4430,     4316,     3716,     3884,     3869,     3698
    3890,     4431,     4441,     4440,     4430,     4317,     4329,     4328,     4316
    3891,     4440,     4442,     4432,     4430,     3884,     3887,     3872,     3869
    3892,     4433,     4443,     4442,     4432,     4431,     4441,     4440,     4430
    3893,     4442,     4444,     4434,     4432,     3887,     3890,     3875,     3872
    3894,     4435,     4445,     4444,     4434,     4433,     4443,     4442,     4432
    3895,     4444,     4446,     4436,     4434,     3890,     3893,     3878,     3875
    3896,     4437,     4447,     4446,     4436,     4435,     4445,     4444,     4434
    3897,     4446,     4448,     4438,     4436,     3893,     3896,     3881,     3878
    3898,     4439,     4449,     4448,     4438,     4437,     4447,     4446,     4436
    3899,     4448,     4042,     4028,     4438,     3896,     3287,     3266,     3881
    3900,     4042,     4043,     4449,     4448,     4028,     4029,     4439,     4438
    3901,     4340,     4450,     4440,     4328,     3734,     3899,     3884,     3716
    3902,     4441,     4451,     4450,     4440,     4329,     4341,     4340,     4328
    3903,     4450,     4452,     4442,     4440,     3899,     3902,     3887,     3884
    3904,     4443,     4453,     4452,     4442,     4441,     4451,     4450,     4440
    3905,     4452,     4454,     4444,     4442,     3902,     3905,     3890,     3887
    3906,     4445,     4455,     4454,     4444,     4443,     4453,     4452,     4442
    3907,     4454,     4456,     4446,     4444,     3905,     3908,     3893,     3890
    3908,     4447,     4457,     4456,     4446,     4445,     4455,     4454,     4444
    3909,     4456,     4458,     4448,     4446,     3908,     3911,     3896,     3893
    3910,     4449,     4459,     4458,     4448,     4447,     4457,     4456,     4446
    3911,     4458,     4056,     4042,     4448,     3911,     3308,     3287,     3896
    3912,     4056,     4057,     4459,     4458,     4042,     4043,     4449,     4448
    3913,     4352,     4460,     4450,     4340,     3752,     3914,     3899,     3734
    3914,     4451,     4461,     4460,     4450,     4341,     4353,     4352,     4340
    3915,     4460,     4462,     4452,     4450,     3914,     3917,     3902,     3899
    3916,     4453,     4463,     4462,     4452,     4451,     4461,     4460,     4450
    3917,     4462,     4464,     4454,     4452,     3917,     3920,     3905,     3902
    3918,     4455,     4465,     4464,     4454,     4453,     4463,     4462,     4452
    3919,     4464,     4466,     4456,     4454,     3920,     3923,     3908,     3905
    3920,     4457,     4467,     4466,     4456,     4455,     4465,     4464,     4454
    3921,     4466,     4468,     4458,     4456,     3923,     3926,     3911,     3908
    3922,     4459,     4469,     4468,     4458,     4457,     4467,     4466,     4456
    3923,     4468,     4070,     4056,     4458,     3926,     3329,     3308,     3911
    3924,     4070,     4071,     4469,     4468,     4056,     4057,     4459,     4458
    3925,     4364,     4470,     4460,     4352,     3770,     3929,     3914,     3752
    3926,     4461,     4471,     4470,     4460,     4353,     4365,     4364,     4352
    3927,     4470,     4472,     4462,     4460,     3929,     3932,     3917,     3914
    3928,     4463,     4473,     4472,     4462,     4461,     4471,     4470,     4460
    3929,     4472,     4474,     4464,     4462,     3932,     3935,     3920,     3917
    3930,     4465,     4475,     4474,     4464,     4463,     4473,     4472,     4462
    3931,     4474,     4476,     4466,     4464,     3935,     3938,     3923,     3920
    3932,     4467,     4477,     4476,     4466,     4465,     4475,     4474,     4464
    3933,     4476,     4478,     4468,     4466,     3938,     3941,     3926,     3923
    3934,     4469,     4479,     4478,     4468,     4467,     4477,     4476,     4466
    3935,     4478,     4084,     4070,     4468,     3941,     3350,     3329,     3926
    3936,     4084,     4085,     4479,     4478,     4070,     4071,     4469,     4468
    3937,     4376,     4480,     4470,     4364,     3788,     3944,     3929,     3770
    3938,     4471,     4481,     4480,     4470,     4365,     4377,     4376,     4364
    3939,     4480,     4482,     4472,     4470,     3944,     3947,     3932,     3929
    3940,     4473,     4483,     4482,     4472,     4471,     4481,     4480,     4470
    3941,     4482,     4484,     4474,     4472,     3947,     3950,     3935,     3932
    3942,     4475,     4485,     4484,     4474,     4473,     4483,     4482,     4472
    3943,     4484,     4486,     4476,     4474,     3950,     3953,     3938,     3935
    3944,     4477,     4487,     4486,     4476,     4475,     4485,     4484,     4474
    3945,     4486,     4488,     4478,     4476,     3953,     3956,     3941,     3938
    3946,     4479,     4489,     4488,     4478,     4477,     4487,     4486,     4476
    3947,     4488,     4098,     4084,     4478,     3956,     3371,     3350,     3941
    3948,     4098,     4099,     4489,     4488,     4084,     4085,     4479,     4478
    3949,     4388,     4490,     4480,     4376,     3806,     3959,     3944,     3788
    3950,     4481,     4491,     4490,     4480,     4377,     4389,     4388,     4376
    3951,     4490,     4492,     4482,     4480,     3959,     3962,     3947,     3944
    3952,     4483,     4493,     4492,     4482,     4481,     4491,     4490,     4480
    3953,     4492,     4494,     4484,     4482,     3962,     3965,     3950,     3947
    3954,     4485,     4495,     4494,     4484,     4483,     4493,     4492,     4482
    3955,     4494,     4496,     4486,     4484,     3965,     3968,     3953,     3950
    3956,     4487,     4497,     4496,     4486,     4485,     4495,     4494,     4484
    3957,     4496,     4498,     4488,     4486,     3968,     3971,     3956,     3953
    3958,     4489,     4499,     4498,     4488,     4487,     4497,     4496,     4486
    3959,     4498,     4112,     4098,     4488,     3971,     3392,     3371,     3956
    3960,     4112,     4113,     4499,     4498,     4098,     4099,     4489,     4488
*ELEMENT, TYPE=C3D8I, ELSET=LC
    3961,     4501,     4508,      499,      492,     4500,     4507,      498,      491
    3962,     4502,     4509,      500,      493,     4501,     4508,      499,      492
    3963,     4503,     4510,      501,      494,     4502,     4509,      500,      493
    3964,     4504,     4511,      502,      495,     4503,     4510,      501,      494
    3965,     4505,     4512,      503,      496,     4504,     4511,      502,      495
    3966,      504,     4513,     4512,      503,      497,     4506,     4505,      496
    3967,     4508,     4515,      506,      499,     4507,     4514,      505,      498
    3968,     4509,     4516,      507,      500,     4508,     4515,      506,      499
    3969,     4510,     4517,      508,      501,     4509,     4516,      507,      500
    3970,     4511,     4518,      509,      502,     4510,     4517,      508,      501
    3971,     4512,     4519,      510,      503,     4511,     4518,      509,      502
    3972,      511,     4520,     4519,      510,      504,     4513,     4512,      503
    3973,     4515,     4522,      513,      506,     4514,     4521,      512,      505
    3974,     4516,     4523,      514,      507,     4515,     4522,      513,      506
    3975,     4517,     4524,      515,      508,     4516,     4523,      514,      507
    3976,     4518,     4525,      516,      509,     4517,     4524,      515,      508
    3977,     4519,     4526,      517,      510,     4518,     4525,      516,      509
    3978,      518,     4527,     4526,      517,      511,     4520,     4519,      510
    3979,     4522,     4529,      520,      513,     4521,     4528,      519,      512
    3980,     4523,     4530,      521,      514,     4522,     4529,      520,      513
    3981,     4524,     4531,      522,      515,     4523,     4530,      521,      514
    3982,     4525,     4532,      523,      516,     4524,     4531,      522,      515
    3983,     4526,     4533,      524,      517,     4525,     4532,      523,      516
    3984,      525,     4534,     4533,      524,      518,     4527,     4526,      517
    3985,     4529,     4536,      527,      520,     4528,     4535,      526,      519
    3986,     4530,     4537,      528,      521,     4529,     4536,      527,      520
    3987,     4531,     4538,      529,      522,     4530,     4537,      528,      521
    3988,     4532,     4539,      530,      523,     4531,     4538,      529,      522
    3989,     4533,     4540,      531,      524,     4532,     4539,      530,      523
    3990,      532,     4541,     4540,      531,      525,     4534,     4533,      524
    3991,     4536,     4543,      534,      527,     4535,     4542,      533,      526
    3992,     4537,     4544,      535,      528,     4536,     4543,      534,      527
    3993,     4538,     4545,      536,      529,     4537,     4544,      535,      528
    3994,     4539,     4546,      537,      530,     4538,     4545,      536,      529
    3995,     4540,     4547,      538,      531,     4539,     4546,      537,      530
    3996,     4541,     4548,      539,      532,     4540,     4547,      538,      531
    3997,     4549,     4555,      966,      960,     4542,     4535,      526,      533
    3998,     4550,     4556,      967,      961,     4549,     4555,      966,      960
    3999,     4551,     4557,      968,      962,     4550,     4556,      967,      961
    4000,     4552,     4558,      969,      963,     4551,     4557,      968,      962
    4001,     4553,     4559,      970,      964,     4552,     4558,      969,      963
    4002,      971,     4560,     4559,      970,      965,     4554,     4553,      964
    4003,     4555,     4561,      972,      966,     4535,     4528,      519,      526
    4004,     4556,     4562,      973,      967,     4555,     4561,      972,      966
    4005,     4557,     4563,      974,      968,     4556,     4562,      973,      967
    4006,     4558,     4564,      975,      969,     4557,     4563,      974,      968
    4007,     4559,     4565,      976,      970,     4558,     4564,      975,      969
    4008,      977,     4566,     4565,      976,      971,     4560,     4559,      970
    4009,     4561,     4567,      978,      972,     4528,     4521,      512,      519
    4010,     4562,     4568,      979,      973,     4561,     4567,      978,      972
    4011,     4563,     4569,      980,      974,     4562,     4568,      979,      973
    4012,     4564,     4570,      981,      975,     4563,     4569,      980,      974
    4013,     4565,     4571,      982,      976,     4564,     4570,      981,      975
    4014,      983,     4572,     4571,      982,      977,     4566,     4565,      976
    4015,     4567,     4573,      984,      978,     4521,     4514,      505,      512
    4016,     4568,     4574,      985,      979,     4567,     4573,      984,      978
    4017,     4569,     4575,      986,      980,     4568,     4574,      985,      979
    4018,     4570,     4576,      987,      981,     4569,     4575,      986,      980
    4019,     4571,     4577,      988,      982,     4570,     4576,      987,      981
    4020,      989,     4578,     4577,      988,      983,     4572,     4571,      982
    4021,     4573,     4579,      990,      984,     4514,     4507,      498,      505
    4022,     4574,     4580,      991,      985,     4573,     4579,      990,      984
    4023,     4575,     4581,      992,      986,     4574,     4580,      991,      985
    4024,     4576,     4582,      993,      987,     4575,     4581,      992,      986
    4025,     4577,     4583,      994,      988,     4576,     4582,      993,      987
    4026,      995,     4584,     4583,      994,      989,     4578,     4577,      988
    4027,     4579,     4585,      996,      990,     4507,     4500,      491,      498
    4028,     4580,     4586,      997,      991,     4579,     4585,      996,      990
    4029,     4581,     4587,      998,      992,     4580,     4586,      997,      991
    4030,     4582,     4588,      999,      993,     4581,     4587,      998,      992
    4031,     4583,     4589,     1000,      994,     4582,     4588,      999,      993
    4032,     1001,     4590,     4589,     1000,      995,     4584,     4583,      994
    4033,     4585,     4591,     1362,      996,     4500,     4501,      492,      491
    4034,     4586,     4592,     1363,      997,     4585,     4591,     1362,      996
    4035,     4587,     4593,     1364,      998,     4586,     4592,     1363,      997
    4036,     4588,     4594,     1365,      999,     4587,     4593,     1364,      998
    4037,     4589,     4595,     1366,     1000,     4588,     4594,     1365,      999
    4038,     1367,     4596,     4595,     1366,     1001,     4590,     4589,     1000
    4039,     4591,     4597,     1368,     1362,     4501,     4502,      493,      492
    4040,     4592,     4598,     1369,     1363,     4591,     4597,     1368,     1362
    4041,     4593,     4599,     1370,     1364,     4592,     4598,     1369,     1363
    4042,     4594,     4600,     1371,     1365,     4593,     4599,     1370,     1364
    4043,     4595,     4601,     1372,     1366,     4594,     4600,     1371,     1365
    4044,     1373,     4602,     4601,     1372,     1367,     4596,     4595,     1366
    4045,     4597,     4603,     1374,     1368,     4502,     4503,      494,      493
    4046,     4598,     4604,     1375,     1369,     4597,     4603,     1374,     1368
    4047,     4599,     4605,     1376,     1370,     4598,     4604,     1375,     1369
    4048,     4600,     4606,     1377,     1371,     4599,     4605,     1376,     1370
    4049,     4601,     4607,     1378,     1372,     4600,     4606,     1377,     1371
    4050,     1379,     4608,     4607,     1378,     1373,     4602,     4601,     1372
    4051,     4603,     4609,     1380,     1374,     4503,     4504,      495,      494
    4052,     4604,     4610,     1381,     1375,     4603,     4609,     1380,     1374
    4053,     4605,     4611,     1382,     1376,     4604,     4610,     1381,     1375
    4054,     4606,     4612,     1383,     1377,     4605,     4611,     1382,     1376
    4055,     4607,     4613,     1384,     1378,     4606,     4612,     1383,     1377
    4056,     1385,     4614,     4613,     1384,     1379,     4608,     4607,     1378
    4057,     4609,     4615,     1386,     1380,     4504,     4505,      496,      495
    4058,     4610,     4616,     1387,     1381,     4609,     4615,     1386,     1380
    4059,     4611,     4617,     1388,     1382,     4610,     4616,     1387,     1381
    4060,     4612,     4618,     1389,     1383,     4611,     4617,     1388,     1382
    4061,     4613,     4619,     1390,     1384,     4612,     4618,     1389,     1383
    4062,     1391,     4620,     4619,     1390,     1385,     4614,     4613,     1384
    4063,     4615,     4621,     1392,     1386,     4505,     4506,      497,      496
    4064,     4616,     4622,     1393,     1387,     4615,     4621,     1392,     1386
    4065,     4617,     4623,     1394,     1388,     4616,     4622,     1393,     1387
    4066,     4618,     4624,     1395,     1389,     4617,     4623,     1394,     1388
    4067,     4619,     4625,     1396,     1390,     4618,     4624,     1395,     1389
    4068,     1397,     4626,     4625,     1396,     1391,     4620,     4619,     1390
    4069,     4621,     4627,     1758,     1392,     4506,     4513,      504,      497
    4070,     4622,     4628,     1759,     1393,     4621,     4627,     1758,     1392
    4071,     4623,     4629,     1760,     1394,     4622,     4628,     1759,     1393
    4072,     4624,     4630,     1761,     1395,     4623,     4629,     1760,     1394
    4073,     4625,     4631,     1762,     1396,     4624,     4630,     1761,     1395
    4074,     1763,     4632,     4631,     1762,     1397,     4626,     4625,     1396
    4075,     4627,     4633,     1764,     1758,     4513,     4520,      511,      504
    4076,     4628,     4634,     1765,     1759,     4627,     4633,     1764,     1758
    4077,     4629,     4635,     1766,     1760,     4628,     4634,     1765,     1759
    4078,     4630,     4636,     1767,     1761,     4629,     4635,     1766,     1760
    4079,     4631,     4637,     1768,     1762,     4630,     4636,     1767,     1761
    4080,     1769,     4638,     4637,     1768,     1763,     4632,     4631,     1762
    4081,     4633,     4639,     1770,     1764,     4520,     4527,      518,      511
    4082,     4634,     4640,     1771,     1765,     4633,     4639,     1770,     1764
    4083,     4635,     4641,     1772,     1766,     4634,     4640,     1771,     1765
    4084,     4636,     4642,     1773,     1767,     4635,     4641,     1772,     1766
    4085,     4637,     4643,     1774,     1768,     4636,     4642,     1773,     1767
    4086,     1775,     4644,     4643,     1774,     1769,     4638,     4637,     1768
    4087,     4639,     4645,     1776,     1770,     4527,     4534,      525,      518
    4088,     4640,     4646,     1777,     1771,     4639,     4645,     1776,     1770
    4089,     4641,     4647,     1778,     1772,     4640,     4646,     1777,     1771
    4090,     4642,     4648,     1779,     1773,     4641,     4647,     1778,     1772
    4091,     4643,     4649,     1780,     1774,     4642,     4648,     1779,     1773
    4092,     1781,     4650,     4649,     1780,     1775,     4644,     4643,     1774
    4093,     4645,     4651,     1782,     1776,     4534,     4541,      532,      525
    4094,     4646,     4652,     1783,     1777,     4645,     4651,     1782,     1776
    4095,     4647,     4653,     1784,     1778,     4646,     4652,     1783,     1777
    4096,     4648,     4654,     1785,     1779,     4647,     4653,     1784,     1778
    4097,     4649,     4655,     1786,     1780,     4648,     4654,     1785,     1779
    4098,     1787,     4656,     4655,     1786,     1781,     4650,     4649,     1780
    4099,     4651,     4657,     1788,     1782,     4541,     4548,      539,      532
    4100,     4652,     4658,     1789,     1783,     4651,     4657,     1788,     1782
    4101,     4653,     4659,     1790,     1784,     4652,     4658,     1789,     1783
    4102,     4654,     4660,     1791,     1785,     4653,     4659,     1790,     1784
    4103,     4655,     4661,     1792,     1786,     4654,     4660,     1791,     1785
    4104,     1793,     4662,     4661,     1792,     1787,     4656,     4655,     1786
    4105,     4657,     4663,     2094,     1788,     4548,     4547,      538,      539
    4106,     4658,     4664,     2095,     1789,     4657,     4663,     2094,     1788
    4107,     4659,     4665,     2096,     1790,     4658,     4664,     2095,     1789
    4108,     4660,     4666,     2097,     1791,     4659,     4665,     2096,     1790
    4109,     4661,     4667,     2098,     1792,     4660,     4666,     2097,     1791
    4110,     2099,     4668,     4667,     2098,     1793,     4662,     4661,     1792
    4111,     4663,     4669,     2100,     2094,     4547,     4546,      537,      538
    4112,     4664,     4670,     2101,     2095,     4663,     4669,     2100,     2094
    4113,     4665,     4671,     2102,     2096,     4664,     4670,     2101,     2095
    4114,     4666,     4672,     2103,     2097,     4665,     4671,     2102,     2096
    4115,     4667,     4673,     2104,     2098,     4666,     4672,     2103,     2097
    4116,     2105,     4674,     4673,     2104,     2099,     4668,     4667,     2098
    4117,     4669,     4675,     2106,     2100,     4546,     4545,      536,      537
    4118,     4670,     4676,     2107,     2101,     4669,     4675,     2106,     2100
    4119,     4671,     4677,     2108,     2102,     4670,     4676,     2107,     2101
    4120,     4672,     4678,     2109,     2103,     4671,     4677,     2108,     2102
    4121,     4673,     4679,     2110,     2104,     4672,     4678,     2109,     2103
    4122,     2111,     4680,     4679,     2110,     2105,     4674,     4673,     2104
    4123,     4675,     4681,     2112,     2106,     4545,     4544,      535,      536
    4124,     4676,     4682,     2113,     2107,     4675,     4681,     2112,     2106
    4125,     4677,     4683,     2114,     2108,     4676,     4682,     2113,     2107
    4126,     4678,     4684,     2115,     2109,     4677,     4683,     2114,     2108
    4127,     4679,     4685,     2116,     2110,     4678,     4684,     2115,     2109
    4128,     2117,     4686,     4685,     2116,     2111,     4680,     4679,     2110
    4129,     4681,     4687,     2118,     2112,     4544,     4543,      534,      535
    4130,     4682,     4688,     2119,     2113,     4681,     4687,     2118,     2112
    4131,     4683,     4689,     2120,     2114,     4682,     4688,     2119,     2113
    4132,     4684,     4690,     2121,     2115,     4683,     4689,     2120,     2114
    4133,     4685,     4691,     2122,     2116,     4684,     4690,     2121,     2115
    4134,     2123,     4692,     4691,     2122,     2117,     4686,     4685,     2116
    4135,     4687,     4549,      960,     2118,     4543,     4542,      533,      534
    4136,     4688,     4550,      961,     2119,     4687,     4549,      960,     2118
    4137,     4689,     4551,      962,     2120,     4688,     4550,      961,     2119
    4138,     4690,     4552,      963,     2121,     4689,     4551,      962,     2120
    4139,     4691,     4553,      964,     2122,     4690,     4552,      963,     2121
    4140,     4692,     4554,      965,     2123,     4691,     4553,      964,     2122
*ELEMENT, TYPE=C3D8I, ELSET=SCLERA_PERI
    4141,     2195,     4694,     4560,      971,     2194,     4693,     4554,      965
    4142,     2196,     4695,     4566,      977,     2195,     4694,     4560,      971
    4143,     2197,     4696,     4572,      983,     2196,     4695,     4566,      977
    4144,     2198,     4697,     4578,      989,     2197,     4696,     4572,      983
    4145,     2199,     4698,     4584,      995,     2198,     4697,     4578,      989
    4146,     2200,     4699,     4590,     1001,     2199,     4698,     4584,      995
    4147,     2261,     4700,     4596,     1367,     2200,     4699,     4590,     1001
    4148,     2262,     4701,     4602,     1373,     2261,     4700,     4596,     1367
    4149,     2263,     4702,     4608,     1379,     2262,     4701,     4602,     1373
    4150,     2264,     4703,     4614,     1385,     2263,     4702,     4608,     1379
    4151,     2265,     4704,     4620,     1391,     2264,     4703,     4614,     1385
    4152,     2266,     4705,     4626,     1397,     2265,     4704,     4620,     1391
    4153,     2327,     4706,     4632,     1763,     2266,     4705,     4626,     1397
    4154,     2328,     4707,     4638,     1769,     2327,     4706,     4632,     1763
    4155,     2329,     4708,     4644,     1775,     2328,     4707,     4638,     1769
    4156,     2330,     4709,     4650,     1781,     2329,     4708,     4644,     1775
    4157,     2331,     4710,     4656,     1787,     2330,     4709,     4650,     1781
    4158,     2332,     4711,     4662,     1793,     2331,     4710,     4656,     1787
    4159,     2383,     4712,     4668,     2099,     2332,     4711,     4662,     1793
    4160,     2384,     4713,     4674,     2105,     2383,     4712,     4668,     2099
    4161,     2385,     4714,     4680,     2111,     2384,     4713,     4674,     2105
    4162,     2386,     4715,     4686,     2117,     2385,     4714,     4680,     2111
    4163,     2387,     4716,     4692,     2123,     2386,     4715,     4686,     2117
    4164,     4716,     4693,     2194,     2387,     4692,     4554,      965,     2123
    4165,     4717,     4720,     2601,     2598,     4693,     4694,     2195,     2194
    4166,     4718,     4721,     2602,     2599,     4717,     4720,     2601,     2598
    4167,     2603,     4722,     4721,     2602,     2600,     4719,     4718,     2599
    4168,     4720,     4723,     2604,     2601,     4694,     4695,     2196,     2195
    4169,     4721,     4724,     2605,     2602,     4720,     4723,     2604,     2601
    4170,     2606,     4725,     4724,     2605,     2603,     4722,     4721,     2602
    4171,     4723,     4726,     2607,     2604,     4695,     4696,     2197,     2196
    4172,     4724,     4727,     2608,     2605,     4723,     4726,     2607,     2604
    4173,     2609,     4728,     4727,     2608,     2606,     4725,     4724,     2605
    4174,     4726,     4729,     2610,     2607,     4696,     4697,     2198,     2197
    4175,     4727,     4730,     2611,     2608,     4726,     4729,     2610,     2607
    4176,     2612,     4731,     4730,     2611,     2609,     4728,     4727,     2608
    4177,     4729,     4732,     2613,     2610,     4697,     4698,     2199,     2198
    4178,     4730,     4733,     2614,     2611,     4729,     4732,     2613,     2610
    4179,     2615,     4734,     4733,     2614,     2612,     4731,     4730,     2611
    4180,     4732,     4735,     2616,     2613,     4698,     4699,     2200,     2199
    4181,     4733,     4736,     2617,     2614,     4732,     4735,     2616,     2613
    4182,     2618,     4737,     4736,     2617,     2615,     4734,     4733,     2614
    4183,     4735,     4738,     2799,     2616,     4699,     4700,     2261,     2200
    4184,     4736,     4739,     2800,     2617,     4735,     4738,     2799,     2616
    4185,     2801,     4740,     4739,     2800,     2618,     4737,     4736,     2617
    4186,     4738,     4741,     2802,     2799,     4700,     4701,     2262,     2261
    4187,     4739,     4742,     2803,     2800,     4738,     4741,     2802,     2799
    4188,     2804,     4743,     4742,     2803,     2801,     4740,     4739,     2800
    4189,     4741,     4744,     2805,     2802,     4701,     4702,     2263,     2262
    4190,     4742,     4745,     2806,     2803,     4741,     4744,     2805,     2802
    4191,     2807,     4746,     4745,     2806,     2804,     4743,     4742,     2803
    4192,     4744,     4747,     2808,     2805,     4702,     4703,     2264,     2263
    4193,     4745,     4748,     2809,     2806,     4744,     4747,     2808,     2805
    4194,     2810,     4749,     4748,     2809,     2807,     4746,     4745,     2806
    4195,     4747,     4750,     2811,     2808,     4703,     4704,     2265,     2264
    4196,     4748,     4751,     2812,     2809,     4747,     4750,     2811,     2808
    4197,     2813,     4752,     4751,     2812,     2810,     4749,     4748,     2809
    4198,     4750,     4753,     2814,     2811,     4704,     4705,     2266,     2265
    4199,     4751,     4754,     2815,     2812,     4750,     4753,     2814,     2811
    4200,     2816,     4755,     4754,     2815,     2813,     4752,     4751,     2812
    4201,     4753,     4756,     2997,     2814,     4705,     4706,     2327,     2266
    4202,     4754,     4757,     2998,     2815,     4753,     4756,     2997,     2814
    4203,     2999,     4758,     4757,     2998,     2816,     4755,     4754,     2815
    4204,     4756,     4759,     3000,     2997,     4706,     4707,     2328,     2327
    4205,     4757,     4760,     3001,     2998,     4756,     4759,     3000,     2997
    4206,     3002,     4761,     4760,     3001,     2999,     4758,     4757,     2998
    4207,     4759,     4762,     3003,     3000,     4707,     4708,     2329,     2328
    4208,     4760,     4763,     3004,     3001,     4759,     4762,     3003,     3000
    4209,     3005,     4764,     4763,     3004,     3002,     4761,     4760,     3001
    4210,     4762,     4765,     3006,     3003,     4708,     4709,     2330,     2329
    4211,     4763,     4766,     3007,     3004,     4762,     4765,     3006,     3003
    4212,     3008,     4767,     4766,     3007,     3005,     4764,     4763,     3004
    4213,     4765,     4768,     3009,     3006,     4709,     4710,     2331,     2330
    4214,     4766,     4769,     3010,     3007,     4765,     4768,     3009,     3006
    4215,     3011,     4770,     4769,     3010,     3008,     4767,     4766,     3007
    4216,     4768,     4771,     3012,     3009,     4710,     4711,     2332,     2331
    4217,     4769,     4772,     3013,     3010,     4768,     4771,     3012,     3009
    4218,     3014,     4773,     4772,     3013,     3011,     4770,     4769,     3010
    4219,     4771,     4774,     3165,     3012,     4711,     4712,     2383,     2332
    4220,     4772,     4775,     3166,     3013,     4771,     4774,     3165,     3012
    4221,     3167,     4776,     4775,     3166,     3014,     4773,     4772,     3013
    4222,     4774,     4777,     3168,     3165,     4712,     4713,     2384,     2383
    4223,     4775,     4778,     3169,     3166,     4774,     4777,     3168,     3165
    4224,     3170,     4779,     4778,     3169,     3167,     4776,     4775,     3166
    4225,     4777,     4780,     3171,     3168,     4713,     4714,     2385,     2384
    4226,     4778,     4781,     3172,     3169,     4777,     4780,     3171,     3168
    4227,     3173,     4782,     4781,     3172,     3170,     4779,     4778,     3169
    4228,     4780,     4783,     3174,     3171,     4714,     4715,     2386,     2385
    4229,     4781,     4784,     3175,     3172,     4780,     4783,     3174,     3171
    4230,     3176,     4785,     4784,     3175,     3173,     4782,     4781,     3172
    4231,     4783,     4786,     3177,     3174,     4715,     4716,     2387,     2386
    4232,     4784,     4787,     3178,     3175,     4783,     4786,     3177,     3174
    4233,     3179,     4788,     4787,     3178,     3176,     4785,     4784,     3175
    4234,     4786,     4717,     2598,     3177,     4716,     4693,     2194,     2387
    4235,     4787,     4718,     2599,     3178,     4786,     4717,     2598,     3177
    4236,     4788,     4719,     2600,     3179,     4787,     4718,     2599,     3178
*ELEMENT, TYPE=C3D8I, ELSET=SCLERA_RING
    4237,     4789,     4792,     3393,     3390,     4719,     4722,     2603,     2600
    4238,     4790,     4793,     3394,     3391,     4789,     4792,     3393,     3390
    4239,     3395,     4794,     4793,     3394,     3392,     4791,     4790,     3391
    4240,     4792,     4795,     3396,     3393,     4722,     4725,     2606,     2603
    4241,     4793,     4796,     3397,     3394,     4792,     4795,     3396,     3393
    4242,     3398,     4797,     4796,     3397,     3395,     4794,     4793,     3394
    4243,     4795,     4798,     3399,     3396,     4725,     4728,     2609,     2606
    4244,     4796,     4799,     3400,     3397,     4795,     4798,     3399,     3396
    4245,     3401,     4800,     4799,     3400,     3398,     4797,     4796,     3397
    4246,     4798,     4801,     3402,     3399,     4728,     4731,     2612,     2609
    4247,     4799,     4802,     3403,     3400,     4798,     4801,     3402,     3399
    4248,     3404,     4803,     4802,     3403,     3401,     4800,     4799,     3400
    4249,     4801,     4804,     3405,     3402,     4731,     4734,     2615,     2612
    4250,     4802,     4805,     3406,     3403,     4801,     4804,     3405,     3402
    4251,     3407,     4806,     4805,     3406,     3404,     4803,     4802,     3403
    4252,     4804,     4807,     3408,     3405,     4734,     4737,     2618,     2615
    4253,     4805,     4808,     3409,     3406,     4804,     4807,     3408,     3405
    4254,     3410,     4809,     4808,     3409,     3407,     4806,     4805,     3406
    4255,     4807,     4810,     3591,     3408,     4737,     4740,     2801,     2618
    4256,     4808,     4811,     3592,     3409,     4807,     4810,     3591,     3408
    4257,     3593,     4812,     4811,     3592,     3410,     4809,     4808,     3409
    4258,     4810,     4813,     3594,     3591,     4740,     4743,     2804,     2801
    4259,     4811,     4814,     3595,     3592,     4810,     4813,     3594,     3591
    4260,     3596,     4815,     4814,     3595,     3593,     4812,     4811,     3592
    4261,     4813,     4816,     3597,     3594,     4743,     4746,     2807,     2804
    4262,     4814,     4817,     3598,     3595,     4813,     4816,     3597,     3594
    4263,     3599,     4818,     4817,     3598,     3596,     4815,     4814,     3595
    4264,     4816,     4819,     3600,     3597,     4746,     4749,     2810,     2807
    4265,     4817,     4820,     3601,     3598,     4816,     4819,     3600,     3597
    4266,     3602,     4821,     4820,     3601,     3599,     4818,     4817,     3598
    4267,     4819,     4822,     3603,     3600,     4749,     4752,     2813,     2810
    4268,     4820,     4823,     3604,     3601,     4819,     4822,     3603,     3600
    4269,     3605,     4824,     4823,     3604,     3602,     4821,     4820,     3601
    4270,     4822,     4825,     3606,     3603,     4752,     4755,     2816,     2813
    4271,     4823,     4826,     3607,     3604,     4822,     4825,     3606,     3603
    4272,     3608,     4827,     4826,     3607,     3605,     4824,     4823,     3604
    4273,     4825,     4828,     3789,     3606,     4755,     4758,     2999,     2816
    4274,     4826,     4829,     3790,     3607,     4825,     4828,     3789,     3606
    4275,     3791,     4830,     4829,     3790,     3608,     4827,     4826,     3607
    4276,     4828,     4831,     3792,     3789,     4758,     4761,     3002,     2999
    4277,     4829,     4832,     3793,     3790,     4828,     4831,     3792,     3789
    4278,     3794,     4833,     4832,     3793,     3791,     4830,     4829,     3790
    4279,     4831,     4834,     3795,     3792,     4761,     4764,     3005,     3002
    4280,     4832,     4835,     3796,     3793,     4831,     4834,     3795,     3792
    4281,     3797,     4836,     4835,     3796,     3794,     4833,     4832,     3793
    4282,     4834,     4837,     3798,     3795,     4764,     4767,     3008,     3005
    4283,     4835,     4838,     3799,     3796,     4834,     4837,     3798,     3795
    4284,     3800,     4839,     4838,     3799,     3797,     4836,     4835,     3796
    4285,     4837,     4840,     3801,     3798,     4767,     4770,     3011,     3008
    4286,     4838,     4841,     3802,     3799,     4837,     4840,     3801,     3798
    4287,     3803,     4842,     4841,     3802,     3800,     4839,     4838,     3799
    4288,     4840,     4843,     3804,     3801,     4770,     4773,     3014,     3011
    4289,     4841,     4844,     3805,     3802,     4840,     4843,     3804,     3801
    4290,     3806,     4845,     4844,     3805,     3803,     4842,     4841,     3802
    4291,     4843,     4846,     3957,     3804,     4773,     4776,     3167,     3014
    4292,     4844,     4847,     3958,     3805,     4843,     4846,     3957,     3804
    4293,     3959,     4848,     4847,     3958,     3806,     4845,     4844,     3805
    4294,     4846,     4849,     3960,     3957,     4776,     4779,     3170,     3167
    4295,     4847,     4850,     3961,     3958,     4846,     4849,     3960,     3957
    4296,     3962,     4851,     4850,     3961,     3959,     4848,     4847,     3958
    4297,     4849,     4852,     3963,     3960,     4779,     4782,     3173,     3170
    4298,     4850,     4853,     3964,     3961,     4849,     4852,     3963,     3960
    4299,     3965,     4854,     4853,     3964,     3962,     4851,     4850,     3961
    4300,     4852,     4855,     3966,     3963,     4782,     4785,     3176,     3173
    4301,     4853,     4856,     3967,     3964,     4852,     4855,     3966,     3963
    4302,     3968,     4857,     4856,     3967,     3965,     4854,     4853,     3964
    4303,     4855,     4858,     3969,     3966,     4785,     4788,     3179,     3176
    4304,     4856,     4859,     3970,     3967,     4855,     4858,     3969,     3966
    4305,     3971,     4860,     4859,     3970,     3968,     4857,     4856,     3967
    4306,     4858,     4789,     3390,     3969,     4788,     4719,     2600,     3179
    4307,     4859,     4790,     3391,     3970,     4858,     4789,     3390,     3969
    4308,     4860,     4791,     3392,     3971,     4859,     4790,     3391,     3970
    4309,     4861,     4863,     4114,     4112,     4791,     4794,     3395,     3392
    4310,     4115,     4864,     4863,     4114,     4113,     4862,     4861,     4112
    4311,     4863,     4865,     4116,     4114,     4794,     4797,     3398,     3395
    4312,     4117,     4866,     4865,     4116,     4115,     4864,     4863,     4114
    4313,     4865,     4867,     4118,     4116,     4797,     4800,     3401,     3398
    4314,     4119,     4868,     4867,     4118,     4117,     4866,     4865,     4116
    4315,     4867,     4869,     4120,     4118,     4800,     4803,     3404,     3401
    4316,     4121,     4870,     4869,     4120,     4119,     4868,     4867,     4118
    4317,     4869,     4871,     4122,     4120,     4803,     4806,     3407,     3404
    4318,     4123,     4872,     4871,     4122,     4121,     4870,     4869,     4120
    4319,     4871,     4873,     4124,     4122,     4806,     4809,     3410,     3407
    4320,     4125,     4874,     4873,     4124,     4123,     4872,     4871,     4122
    4321,     4873,     4875,     4246,     4124,     4809,     4812,     3593,     3410
    4322,     4247,     4876,     4875,     4246,     4125,     4874,     4873,     4124
    4323,     4875,     4877,     4248,     4246,     4812,     4815,     3596,     3593
    4324,     4249,     4878,     4877,     4248,     4247,     4876,     4875,     4246
    4325,     4877,     4879,     4250,     4248,     4815,     4818,     3599,     3596
    4326,     4251,     4880,     4879,     4250,     4249,     4878,     4877,     4248
    4327,     4879,     4881,     4252,     4250,     4818,     4821,     3602,     3599
    4328,     4253,     4882,     4881,     4252,     4251,     4880,     4879,     4250
    4329,     4881,     4883,     4254,     4252,     4821,     4824,     3605,     3602
    4330,     4255,     4884,     4883,     4254,     4253,     4882,     4881,     4252
    4331,     4883,     4885,     4256,     4254,     4824,     4827,     3608,     3605
    4332,     4257,     4886,     4885,     4256,     4255,     4884,     4883,     4254
    4333,     4885,     4887,     4378,     4256,     4827,     4830,     3791,     3608
    4334,     4379,     4888,     4887,     4378,     4257,     4886,     4885,     4256
    4335,     4887,     4889,     4380,     4378,     4830,     4833,     3794,     3791
    4336,     4381,     4890,     4889,     4380,     4379,     4888,     4887,     4378
    4337,     4889,     4891,     4382,     4380,     4833,     4836,     3797,     3794
    4338,     4383,     4892,     4891,     4382,     4381,     4890,     4889,     4380
    4339,     4891,     4893,     4384,     4382,     4836,     4839,     3800,     3797
    4340,     4385,     4894,     4893,     4384,     4383,     4892,     4891,     4382
    4341,     4893,     4895,     4386,     4384,     4839,     4842,     3803,     3800
    4342,     4387,     4896,     4895,     4386,     4385,     4894,     4893,     4384
    4343,     4895,     4897,     4388,     4386,     4842,     4845,     3806,     3803
    4344,     4389,     4898,     4897,     4388,     4387,     4896,     4895,     4386
    4345,     4897,     4899,     4490,     4388,     4845,     4848,     3959,     3806
    4346,     4491,     4900,     4899,     4490,     4389,     4898,     4897,     4388
    4347,     4899,     4901,     4492,     4490,     4848,     4851,     3962,     3959
    4348,     4493,     4902,     4901,     4492,     4491,     4900,     4899,     4490
    4349,     4901,     4903,     4494,     4492,     4851,     4854,     3965,     3962
    4350,     4495,     4904,     4903,     4494,     4493,     4902,     4901,     4492
    4351,     4903,     4905,     4496,     4494,     4854,     4857,     3968,     3965
    4352,     4497,     4906,     4905,     4496,     4495,     4904,     4903,     4494
    4353,     4905,     4907,     4498,     4496,     4857,     4860,     3971,     3968
    4354,     4499,     4908,     4907,     4498,     4497,     4906,     4905,     4496
    4355,     4907,     4861,     4112,     4498,     4860,     4791,     3392,     3971
    4356,     4861,     4862,     4908,     4907,     4112,     4113,     4499,     4498
*ELEMENT, TYPE=C3D8I, ELSET=GLOBO
    4357,     4910,     4917,     4508,     4501,     4909,     4916,     4507,     4500
    4358,     4911,     4918,     4509,     4502,     4910,     4917,     4508,     4501
    4359,     4912,     4919,     4510,     4503,     4911,     4918,     4509,     4502
    4360,     4913,     4920,     4511,     4504,     4912,     4919,     4510,     4503
    4361,     4914,     4921,     4512,     4505,     4913,     4920,     4511,     4504
    4362,     4513,     4922,     4921,     4512,     4506,     4915,     4914,     4505
    4363,     4917,     4924,     4515,     4508,     4916,     4923,     4514,     4507
    4364,     4918,     4925,     4516,     4509,     4917,     4924,     4515,     4508
    4365,     4919,     4926,     4517,     4510,     4918,     4925,     4516,     4509
    4366,     4920,     4927,     4518,     4511,     4919,     4926,     4517,     4510
    4367,     4921,     4928,     4519,     4512,     4920,     4927,     4518,     4511
    4368,     4520,     4929,     4928,     4519,     4513,     4922,     4921,     4512
    4369,     4924,     4931,     4522,     4515,     4923,     4930,     4521,     4514
    4370,     4925,     4932,     4523,     4516,     4924,     4931,     4522,     4515
    4371,     4926,     4933,     4524,     4517,     4925,     4932,     4523,     4516
    4372,     4927,     4934,     4525,     4518,     4926,     4933,     4524,     4517
    4373,     4928,     4935,     4526,     4519,     4927,     4934,     4525,     4518
    4374,     4527,     4936,     4935,     4526,     4520,     4929,     4928,     4519
    4375,     4931,     4938,     4529,     4522,     4930,     4937,     4528,     4521
    4376,     4932,     4939,     4530,     4523,     4931,     4938,     4529,     4522
    4377,     4933,     4940,     4531,     4524,     4932,     4939,     4530,     4523
    4378,     4934,     4941,     4532,     4525,     4933,     4940,     4531,     4524
    4379,     4935,     4942,     4533,     4526,     4934,     4941,     4532,     4525
    4380,     4534,     4943,     4942,     4533,     4527,     4936,     4935,     4526
    4381,     4938,     4945,     4536,     4529,     4937,     4944,     4535,     4528
    4382,     4939,     4946,     4537,     4530,     4938,     4945,     4536,     4529
    4383,     4940,     4947,     4538,     4531,     4939,     4946,     4537,     4530
    4384,     4941,     4948,     4539,     4532,     4940,     4947,     4538,     4531
    4385,     4942,     4949,     4540,     4533,     4941,     4948,     4539,     4532
    4386,     4541,     4950,     4949,     4540,     4534,     4943,     4942,     4533
    4387,     4945,     4952,     4543,     4536,     4944,     4951,     4542,     4535
    4388,     4946,     4953,     4544,     4537,     4945,     4952,     4543,     4536
    4389,     4947,     4954,     4545,     4538,     4946,     4953,     4544,     4537
    4390,     4948,     4955,     4546,     4539,     4947,     4954,     4545,     4538
    4391,     4949,     4956,     4547,     4540,     4948,     4955,     4546,     4539
    4392,     4950,     4957,     4548,     4541,     4949,     4956,     4547,     4540
    4393,     4958,     4964,     4555,     4549,     4951,     4944,     4535,     4542
    4394,     4959,     4965,     4556,     4550,     4958,     4964,     4555,     4549
    4395,     4960,     4966,     4557,     4551,     4959,     4965,     4556,     4550
    4396,     4961,     4967,     4558,     4552,     4960,     4966,     4557,     4551
    4397,     4962,     4968,     4559,     4553,     4961,     4967,     4558,     4552
    4398,     4560,     4969,     4968,     4559,     4554,     4963,     4962,     4553
    4399,     4964,     4970,     4561,     4555,     4944,     4937,     4528,     4535
    4400,     4965,     4971,     4562,     4556,     4964,     4970,     4561,     4555
    4401,     4966,     4972,     4563,     4557,     4965,     4971,     4562,     4556
    4402,     4967,     4973,     4564,     4558,     4966,     4972,     4563,     4557
    4403,     4968,     4974,     4565,     4559,     4967,     4973,     4564,     4558
    4404,     4566,     4975,     4974,     4565,     4560,     4969,     4968,     4559
    4405,     4970,     4976,     4567,     4561,     4937,     4930,     4521,     4528
    4406,     4971,     4977,     4568,     4562,     4970,     4976,     4567,     4561
    4407,     4972,     4978,     4569,     4563,     4971,     4977,     4568,     4562
    4408,     4973,     4979,     4570,     4564,     4972,     4978,     4569,     4563
    4409,     4974,     4980,     4571,     4565,     4973,     4979,     4570,     4564
    4410,     4572,     4981,     4980,     4571,     4566,     4975,     4974,     4565
    4411,     4976,     4982,     4573,     4567,     4930,     4923,     4514,     4521
    4412,     4977,     4983,     4574,     4568,     4976,     4982,     4573,     4567
    4413,     4978,     4984,     4575,     4569,     4977,     4983,     4574,     4568
    4414,     4979,     4985,     4576,     4570,     4978,     4984,     4575,     4569
    4415,     4980,     4986,     4577,     4571,     4979,     4985,     4576,     4570
    4416,     4578,     4987,     4986,     4577,     4572,     4981,     4980,     4571
    4417,     4982,     4988,     4579,     4573,     4923,     4916,     4507,     4514
    4418,     4983,     4989,     4580,     4574,     4982,     4988,     4579,     4573
    4419,     4984,     4990,     4581,     4575,     4983,     4989,     4580,     4574
    4420,     4985,     4991,     4582,     4576,     4984,     4990,     4581,     4575
    4421,     4986,     4992,     4583,     4577,     4985,     4991,     4582,     4576
    4422,     4584,     4993,     4992,     4583,     4578,     4987,     4986,     4577
    4423,     4988,     4994,     4585,     4579,     4916,     4909,     4500,     4507
    4424,     4989,     4995,     4586,     4580,     4988,     4994,     4585,     4579
    4425,     4990,     4996,     4587,     4581,     4989,     4995,     4586,     4580
    4426,     4991,     4997,     4588,     4582,     4990,     4996,     4587,     4581
    4427,     4992,     4998,     4589,     4583,     4991,     4997,     4588,     4582
    4428,     4590,     4999,     4998,     4589,     4584,     4993,     4992,     4583
    4429,     4994,     5000,     4591,     4585,     4909,     4910,     4501,     4500
    4430,     4995,     5001,     4592,     4586,     4994,     5000,     4591,     4585
    4431,     4996,     5002,     4593,     4587,     4995,     5001,     4592,     4586
    4432,     4997,     5003,     4594,     4588,     4996,     5002,     4593,     4587
    4433,     4998,     5004,     4595,     4589,     4997,     5003,     4594,     4588
    4434,     4596,     5005,     5004,     4595,     4590,     4999,     4998,     4589
    4435,     5000,     5006,     4597,     4591,     4910,     4911,     4502,     4501
    4436,     5001,     5007,     4598,     4592,     5000,     5006,     4597,     4591
    4437,     5002,     5008,     4599,     4593,     5001,     5007,     4598,     4592
    4438,     5003,     5009,     4600,     4594,     5002,     5008,     4599,     4593
    4439,     5004,     5010,     4601,     4595,     5003,     5009,     4600,     4594
    4440,     4602,     5011,     5010,     4601,     4596,     5005,     5004,     4595
    4441,     5006,     5012,     4603,     4597,     4911,     4912,     4503,     4502
    4442,     5007,     5013,     4604,     4598,     5006,     5012,     4603,     4597
    4443,     5008,     5014,     4605,     4599,     5007,     5013,     4604,     4598
    4444,     5009,     5015,     4606,     4600,     5008,     5014,     4605,     4599
    4445,     5010,     5016,     4607,     4601,     5009,     5015,     4606,     4600
    4446,     4608,     5017,     5016,     4607,     4602,     5011,     5010,     4601
    4447,     5012,     5018,     4609,     4603,     4912,     4913,     4504,     4503
    4448,     5013,     5019,     4610,     4604,     5012,     5018,     4609,     4603
    4449,     5014,     5020,     4611,     4605,     5013,     5019,     4610,     4604
    4450,     5015,     5021,     4612,     4606,     5014,     5020,     4611,     4605
    4451,     5016,     5022,     4613,     4607,     5015,     5021,     4612,     4606
    4452,     4614,     5023,     5022,     4613,     4608,     5017,     5016,     4607
    4453,     5018,     5024,     4615,     4609,     4913,     4914,     4505,     4504
    4454,     5019,     5025,     4616,     4610,     5018,     5024,     4615,     4609
    4455,     5020,     5026,     4617,     4611,     5019,     5025,     4616,     4610
    4456,     5021,     5027,     4618,     4612,     5020,     5026,     4617,     4611
    4457,     5022,     5028,     4619,     4613,     5021,     5027,     4618,     4612
    4458,     4620,     5029,     5028,     4619,     4614,     5023,     5022,     4613
    4459,     5024,     5030,     4621,     4615,     4914,     4915,     4506,     4505
    4460,     5025,     5031,     4622,     4616,     5024,     5030,     4621,     4615
    4461,     5026,     5032,     4623,     4617,     5025,     5031,     4622,     4616
    4462,     5027,     5033,     4624,     4618,     5026,     5032,     4623,     4617
    4463,     5028,     5034,     4625,     4619,     5027,     5033,     4624,     4618
    4464,     4626,     5035,     5034,     4625,     4620,     5029,     5028,     4619
    4465,     5030,     5036,     4627,     4621,     4915,     4922,     4513,     4506
    4466,     5031,     5037,     4628,     4622,     5030,     5036,     4627,     4621
    4467,     5032,     5038,     4629,     4623,     5031,     5037,     4628,     4622
    4468,     5033,     5039,     4630,     4624,     5032,     5038,     4629,     4623
    4469,     5034,     5040,     4631,     4625,     5033,     5039,     4630,     4624
    4470,     4632,     5041,     5040,     4631,     4626,     5035,     5034,     4625
    4471,     5036,     5042,     4633,     4627,     4922,     4929,     4520,     4513
    4472,     5037,     5043,     4634,     4628,     5036,     5042,     4633,     4627
    4473,     5038,     5044,     4635,     4629,     5037,     5043,     4634,     4628
    4474,     5039,     5045,     4636,     4630,     5038,     5044,     4635,     4629
    4475,     5040,     5046,     4637,     4631,     5039,     5045,     4636,     4630
    4476,     4638,     5047,     5046,     4637,     4632,     5041,     5040,     4631
    4477,     5042,     5048,     4639,     4633,     4929,     4936,     4527,     4520
    4478,     5043,     5049,     4640,     4634,     5042,     5048,     4639,     4633
    4479,     5044,     5050,     4641,     4635,     5043,     5049,     4640,     4634
    4480,     5045,     5051,     4642,     4636,     5044,     5050,     4641,     4635
    4481,     5046,     5052,     4643,     4637,     5045,     5051,     4642,     4636
    4482,     4644,     5053,     5052,     4643,     4638,     5047,     5046,     4637
    4483,     5048,     5054,     4645,     4639,     4936,     4943,     4534,     4527
    4484,     5049,     5055,     4646,     4640,     5048,     5054,     4645,     4639
    4485,     5050,     5056,     4647,     4641,     5049,     5055,     4646,     4640
    4486,     5051,     5057,     4648,     4642,     5050,     5056,     4647,     4641
    4487,     5052,     5058,     4649,     4643,     5051,     5057,     4648,     4642
    4488,     4650,     5059,     5058,     4649,     4644,     5053,     5052,     4643
    4489,     5054,     5060,     4651,     4645,     4943,     4950,     4541,     4534
    4490,     5055,     5061,     4652,     4646,     5054,     5060,     4651,     4645
    4491,     5056,     5062,     4653,     4647,     5055,     5061,     4652,     4646
    4492,     5057,     5063,     4654,     4648,     5056,     5062,     4653,     4647
    4493,     5058,     5064,     4655,     4649,     5057,     5063,     4654,     4648
    4494,     4656,     5065,     5064,     4655,     4650,     5059,     5058,     4649
    4495,     5060,     5066,     4657,     4651,     4950,     4957,     4548,     4541
    4496,     5061,     5067,     4658,     4652,     5060,     5066,     4657,     4651
    4497,     5062,     5068,     4659,     4653,     5061,     5067,     4658,     4652
    4498,     5063,     5069,     4660,     4654,     5062,     5068,     4659,     4653
    4499,     5064,     5070,     4661,     4655,     5063,     5069,     4660,     4654
    4500,     4662,     5071,     5070,     4661,     4656,     5065,     5064,     4655
    4501,     5066,     5072,     4663,     4657,     4957,     4956,     4547,     4548
    4502,     5067,     5073,     4664,     4658,     5066,     5072,     4663,     4657
    4503,     5068,     5074,     4665,     4659,     5067,     5073,     4664,     4658
    4504,     5069,     5075,     4666,     4660,     5068,     5074,     4665,     4659
    4505,     5070,     5076,     4667,     4661,     5069,     5075,     4666,     4660
    4506,     4668,     5077,     5076,     4667,     4662,     5071,     5070,     4661
    4507,     5072,     5078,     4669,     4663,     4956,     4955,     4546,     4547
    4508,     5073,     5079,     4670,     4664,     5072,     5078,     4669,     4663
    4509,     5074,     5080,     4671,     4665,     5073,     5079,     4670,     4664
    4510,     5075,     5081,     4672,     4666,     5074,     5080,     4671,     4665
    4511,     5076,     5082,     4673,     4667,     5075,     5081,     4672,     4666
    4512,     4674,     5083,     5082,     4673,     4668,     5077,     5076,     4667
    4513,     5078,     5084,     4675,     4669,     4955,     4954,     4545,     4546
    4514,     5079,     5085,     4676,     4670,     5078,     5084,     4675,     4669
    4515,     5080,     5086,     4677,     4671,     5079,     5085,     4676,     4670
    4516,     5081,     5087,     4678,     4672,     5080,     5086,     4677,     4671
    4517,     5082,     5088,     4679,     4673,     5081,     5087,     4678,     4672
    4518,     4680,     5089,     5088,     4679,     4674,     5083,     5082,     4673
    4519,     5084,     5090,     4681,     4675,     4954,     4953,     4544,     4545
    4520,     5085,     5091,     4682,     4676,     5084,     5090,     4681,     4675
    4521,     5086,     5092,     4683,     4677,     5085,     5091,     4682,     4676
    4522,     5087,     5093,     4684,     4678,     5086,     5092,     4683,     4677
    4523,     5088,     5094,     4685,     4679,     5087,     5093,     4684,     4678
    4524,     4686,     5095,     5094,     4685,     4680,     5089,     5088,     4679
    4525,     5090,     5096,     4687,     4681,     4953,     4952,     4543,     4544
    4526,     5091,     5097,     4688,     4682,     5090,     5096,     4687,     4681
    4527,     5092,     5098,     4689,     4683,     5091,     5097,     4688,     4682
    4528,     5093,     5099,     4690,     4684,     5092,     5098,     4689,     4683
    4529,     5094,     5100,     4691,     4685,     5093,     5099,     4690,     4684
    4530,     4692,     5101,     5100,     4691,     4686,     5095,     5094,     4685
    4531,     5096,     4958,     4549,     4687,     4952,     4951,     4542,     4543
    4532,     5097,     4959,     4550,     4688,     5096,     4958,     4549,     4687
    4533,     5098,     4960,     4551,     4689,     5097,     4959,     4550,     4688
    4534,     5099,     4961,     4552,     4690,     5098,     4960,     4551,     4689
    4535,     5100,     4962,     4553,     4691,     5099,     4961,     4552,     4690
    4536,     5101,     4963,     4554,     4692,     5100,     4962,     4553,     4691
    4537,     4694,     5103,     4969,     4560,     4693,     5102,     4963,     4554
    4538,     4695,     5104,     4975,     4566,     4694,     5103,     4969,     4560
    4539,     4696,     5105,     4981,     4572,     4695,     5104,     4975,     4566
    4540,     4697,     5106,     4987,     4578,     4696,     5105,     4981,     4572
    4541,     4698,     5107,     4993,     4584,     4697,     5106,     4987,     4578
    4542,     4699,     5108,     4999,     4590,     4698,     5107,     4993,     4584
    4543,     4700,     5109,     5005,     4596,     4699,     5108,     4999,     4590
    4544,     4701,     5110,     5011,     4602,     4700,     5109,     5005,     4596
    4545,     4702,     5111,     5017,     4608,     4701,     5110,     5011,     4602
    4546,     4703,     5112,     5023,     4614,     4702,     5111,     5017,     4608
    4547,     4704,     5113,     5029,     4620,     4703,     5112,     5023,     4614
    4548,     4705,     5114,     5035,     4626,     4704,     5113,     5029,     4620
    4549,     4706,     5115,     5041,     4632,     4705,     5114,     5035,     4626
    4550,     4707,     5116,     5047,     4638,     4706,     5115,     5041,     4632
    4551,     4708,     5117,     5053,     4644,     4707,     5116,     5047,     4638
    4552,     4709,     5118,     5059,     4650,     4708,     5117,     5053,     4644
    4553,     4710,     5119,     5065,     4656,     4709,     5118,     5059,     4650
    4554,     4711,     5120,     5071,     4662,     4710,     5119,     5065,     4656
    4555,     4712,     5121,     5077,     4668,     4711,     5120,     5071,     4662
    4556,     4713,     5122,     5083,     4674,     4712,     5121,     5077,     4668
    4557,     4714,     5123,     5089,     4680,     4713,     5122,     5083,     4674
    4558,     4715,     5124,     5095,     4686,     4714,     5123,     5089,     4680
    4559,     4716,     5125,     5101,     4692,     4715,     5124,     5095,     4686
    4560,     5125,     5102,     4693,     4716,     5101,     4963,     4554,     4692
    4561,     5126,     5129,     4720,     4717,     5102,     5103,     4694,     4693
    4562,     5127,     5130,     4721,     4718,     5126,     5129,     4720,     4717
    4563,     4722,     5131,     5130,     4721,     4719,     5128,     5127,     4718
    4564,     5129,     5132,     4723,     4720,     5103,     5104,     4695,     4694
    4565,     5130,     5133,     4724,     4721,     5129,     5132,     4723,     4720
    4566,     4725,     5134,     5133,     4724,     4722,     5131,     5130,     4721
    4567,     5132,     5135,     4726,     4723,     5104,     5105,     4696,     4695
    4568,     5133,     5136,     4727,     4724,     5132,     5135,     4726,     4723
    4569,     4728,     5137,     5136,     4727,     4725,     5134,     5133,     4724
    4570,     5135,     5138,     4729,     4726,     5105,     5106,     4697,     4696
    4571,     5136,     5139,     4730,     4727,     5135,     5138,     4729,     4726
    4572,     4731,     5140,     5139,     4730,     4728,     5137,     5136,     4727
    4573,     5138,     5141,     4732,     4729,     5106,     5107,     4698,     4697
    4574,     5139,     5142,     4733,     4730,     5138,     5141,     4732,     4729
    4575,     4734,     5143,     5142,     4733,     4731,     5140,     5139,     4730
    4576,     5141,     5144,     4735,     4732,     5107,     5108,     4699,     4698
    4577,     5142,     5145,     4736,     4733,     5141,     5144,     4735,     4732
    4578,     4737,     5146,     5145,     4736,     4734,     5143,     5142,     4733
    4579,     5144,     5147,     4738,     4735,     5108,     5109,     4700,     4699
    4580,     5145,     5148,     4739,     4736,     5144,     5147,     4738,     4735
    4581,     4740,     5149,     5148,     4739,     4737,     5146,     5145,     4736
    4582,     5147,     5150,     4741,     4738,     5109,     5110,     4701,     4700
    4583,     5148,     5151,     4742,     4739,     5147,     5150,     4741,     4738
    4584,     4743,     5152,     5151,     4742,     4740,     5149,     5148,     4739
    4585,     5150,     5153,     4744,     4741,     5110,     5111,     4702,     4701
    4586,     5151,     5154,     4745,     4742,     5150,     5153,     4744,     4741
    4587,     4746,     5155,     5154,     4745,     4743,     5152,     5151,     4742
    4588,     5153,     5156,     4747,     4744,     5111,     5112,     4703,     4702
    4589,     5154,     5157,     4748,     4745,     5153,     5156,     4747,     4744
    4590,     4749,     5158,     5157,     4748,     4746,     5155,     5154,     4745
    4591,     5156,     5159,     4750,     4747,     5112,     5113,     4704,     4703
    4592,     5157,     5160,     4751,     4748,     5156,     5159,     4750,     4747
    4593,     4752,     5161,     5160,     4751,     4749,     5158,     5157,     4748
    4594,     5159,     5162,     4753,     4750,     5113,     5114,     4705,     4704
    4595,     5160,     5163,     4754,     4751,     5159,     5162,     4753,     4750
    4596,     4755,     5164,     5163,     4754,     4752,     5161,     5160,     4751
    4597,     5162,     5165,     4756,     4753,     5114,     5115,     4706,     4705
    4598,     5163,     5166,     4757,     4754,     5162,     5165,     4756,     4753
    4599,     4758,     5167,     5166,     4757,     4755,     5164,     5163,     4754
    4600,     5165,     5168,     4759,     4756,     5115,     5116,     4707,     4706
    4601,     5166,     5169,     4760,     4757,     5165,     5168,     4759,     4756
    4602,     4761,     5170,     5169,     4760,     4758,     5167,     5166,     4757
    4603,     5168,     5171,     4762,     4759,     5116,     5117,     4708,     4707
    4604,     5169,     5172,     4763,     4760,     5168,     5171,     4762,     4759
    4605,     4764,     5173,     5172,     4763,     4761,     5170,     5169,     4760
    4606,     5171,     5174,     4765,     4762,     5117,     5118,     4709,     4708
    4607,     5172,     5175,     4766,     4763,     5171,     5174,     4765,     4762
    4608,     4767,     5176,     5175,     4766,     4764,     5173,     5172,     4763
    4609,     5174,     5177,     4768,     4765,     5118,     5119,     4710,     4709
    4610,     5175,     5178,     4769,     4766,     5174,     5177,     4768,     4765
    4611,     4770,     5179,     5178,     4769,     4767,     5176,     5175,     4766
    4612,     5177,     5180,     4771,     4768,     5119,     5120,     4711,     4710
    4613,     5178,     5181,     4772,     4769,     5177,     5180,     4771,     4768
    4614,     4773,     5182,     5181,     4772,     4770,     5179,     5178,     4769
    4615,     5180,     5183,     4774,     4771,     5120,     5121,     4712,     4711
    4616,     5181,     5184,     4775,     4772,     5180,     5183,     4774,     4771
    4617,     4776,     5185,     5184,     4775,     4773,     5182,     5181,     4772
    4618,     5183,     5186,     4777,     4774,     5121,     5122,     4713,     4712
    4619,     5184,     5187,     4778,     4775,     5183,     5186,     4777,     4774
    4620,     4779,     5188,     5187,     4778,     4776,     5185,     5184,     4775
    4621,     5186,     5189,     4780,     4777,     5122,     5123,     4714,     4713
    4622,     5187,     5190,     4781,     4778,     5186,     5189,     4780,     4777
    4623,     4782,     5191,     5190,     4781,     4779,     5188,     5187,     4778
    4624,     5189,     5192,     4783,     4780,     5123,     5124,     4715,     4714
    4625,     5190,     5193,     4784,     4781,     5189,     5192,     4783,     4780
    4626,     4785,     5194,     5193,     4784,     4782,     5191,     5190,     4781
    4627,     5192,     5195,     4786,     4783,     5124,     5125,     4716,     4715
    4628,     5193,     5196,     4787,     4784,     5192,     5195,     4786,     4783
    4629,     4788,     5197,     5196,     4787,     4785,     5194,     5193,     4784
    4630,     5195,     5126,     4717,     4786,     5125,     5102,     4693,     4716
    4631,     5196,     5127,     4718,     4787,     5195,     5126,     4717,     4786
    4632,     5197,     5128,     4719,     4788,     5196,     5127,     4718,     4787
    4633,     5198,     5201,     4792,     4789,     5128,     5131,     4722,     4719
    4634,     5199,     5202,     4793,     4790,     5198,     5201,     4792,     4789
    4635,     4794,     5203,     5202,     4793,     4791,     5200,     5199,     4790
    4636,     5201,     5204,     4795,     4792,     5131,     5134,     4725,     4722
    4637,     5202,     5205,     4796,     4793,     5201,     5204,     4795,     4792
    4638,     4797,     5206,     5205,     4796,     4794,     5203,     5202,     4793
    4639,     5204,     5207,     4798,     4795,     5134,     5137,     4728,     4725
    4640,     5205,     5208,     4799,     4796,     5204,     5207,     4798,     4795
    4641,     4800,     5209,     5208,     4799,     4797,     5206,     5205,     4796
    4642,     5207,     5210,     4801,     4798,     5137,     5140,     4731,     4728
    4643,     5208,     5211,     4802,     4799,     5207,     5210,     4801,     4798
    4644,     4803,     5212,     5211,     4802,     4800,     5209,     5208,     4799
    4645,     5210,     5213,     4804,     4801,     5140,     5143,     4734,     4731
    4646,     5211,     5214,     4805,     4802,     5210,     5213,     4804,     4801
    4647,     4806,     5215,     5214,     4805,     4803,     5212,     5211,     4802
    4648,     5213,     5216,     4807,     4804,     5143,     5146,     4737,     4734
    4649,     5214,     5217,     4808,     4805,     5213,     5216,     4807,     4804
    4650,     4809,     5218,     5217,     4808,     4806,     5215,     5214,     4805
    4651,     5216,     5219,     4810,     4807,     5146,     5149,     4740,     4737
    4652,     5217,     5220,     4811,     4808,     5216,     5219,     4810,     4807
    4653,     4812,     5221,     5220,     4811,     4809,     5218,     5217,     4808
    4654,     5219,     5222,     4813,     4810,     5149,     5152,     4743,     4740
    4655,     5220,     5223,     4814,     4811,     5219,     5222,     4813,     4810
    4656,     4815,     5224,     5223,     4814,     4812,     5221,     5220,     4811
    4657,     5222,     5225,     4816,     4813,     5152,     5155,     4746,     4743
    4658,     5223,     5226,     4817,     4814,     5222,     5225,     4816,     4813
    4659,     4818,     5227,     5226,     4817,     4815,     5224,     5223,     4814
    4660,     5225,     5228,     4819,     4816,     5155,     5158,     4749,     4746
    4661,     5226,     5229,     4820,     4817,     5225,     5228,     4819,     4816
    4662,     4821,     5230,     5229,     4820,     4818,     5227,     5226,     4817
    4663,     5228,     5231,     4822,     4819,     5158,     5161,     4752,     4749
    4664,     5229,     5232,     4823,     4820,     5228,     5231,     4822,     4819
    4665,     4824,     5233,     5232,     4823,     4821,     5230,     5229,     4820
    4666,     5231,     5234,     4825,     4822,     5161,     5164,     4755,     4752
    4667,     5232,     5235,     4826,     4823,     5231,     5234,     4825,     4822
    4668,     4827,     5236,     5235,     4826,     4824,     5233,     5232,     4823
    4669,     5234,     5237,     4828,     4825,     5164,     5167,     4758,     4755
    4670,     5235,     5238,     4829,     4826,     5234,     5237,     4828,     4825
    4671,     4830,     5239,     5238,     4829,     4827,     5236,     5235,     4826
    4672,     5237,     5240,     4831,     4828,     5167,     5170,     4761,     4758
    4673,     5238,     5241,     4832,     4829,     5237,     5240,     4831,     4828
    4674,     4833,     5242,     5241,     4832,     4830,     5239,     5238,     4829
    4675,     5240,     5243,     4834,     4831,     5170,     5173,     4764,     4761
    4676,     5241,     5244,     4835,     4832,     5240,     5243,     4834,     4831
    4677,     4836,     5245,     5244,     4835,     4833,     5242,     5241,     4832
    4678,     5243,     5246,     4837,     4834,     5173,     5176,     4767,     4764
    4679,     5244,     5247,     4838,     4835,     5243,     5246,     4837,     4834
    4680,     4839,     5248,     5247,     4838,     4836,     5245,     5244,     4835
    4681,     5246,     5249,     4840,     4837,     5176,     5179,     4770,     4767
    4682,     5247,     5250,     4841,     4838,     5246,     5249,     4840,     4837
    4683,     4842,     5251,     5250,     4841,     4839,     5248,     5247,     4838
    4684,     5249,     5252,     4843,     4840,     5179,     5182,     4773,     4770
    4685,     5250,     5253,     4844,     4841,     5249,     5252,     4843,     4840
    4686,     4845,     5254,     5253,     4844,     4842,     5251,     5250,     4841
    4687,     5252,     5255,     4846,     4843,     5182,     5185,     4776,     4773
    4688,     5253,     5256,     4847,     4844,     5252,     5255,     4846,     4843
    4689,     4848,     5257,     5256,     4847,     4845,     5254,     5253,     4844
    4690,     5255,     5258,     4849,     4846,     5185,     5188,     4779,     4776
    4691,     5256,     5259,     4850,     4847,     5255,     5258,     4849,     4846
    4692,     4851,     5260,     5259,     4850,     4848,     5257,     5256,     4847
    4693,     5258,     5261,     4852,     4849,     5188,     5191,     4782,     4779
    4694,     5259,     5262,     4853,     4850,     5258,     5261,     4852,     4849
    4695,     4854,     5263,     5262,     4853,     4851,     5260,     5259,     4850
    4696,     5261,     5264,     4855,     4852,     5191,     5194,     4785,     4782
    4697,     5262,     5265,     4856,     4853,     5261,     5264,     4855,     4852
    4698,     4857,     5266,     5265,     4856,     4854,     5263,     5262,     4853
    4699,     5264,     5267,     4858,     4855,     5194,     5197,     4788,     4785
    4700,     5265,     5268,     4859,     4856,     5264,     5267,     4858,     4855
    4701,     4860,     5269,     5268,     4859,     4857,     5266,     5265,     4856
    4702,     5267,     5198,     4789,     4858,     5197,     5128,     4719,     4788
    4703,     5268,     5199,     4790,     4859,     5267,     5198,     4789,     4858
    4704,     5269,     5200,     4791,     4860,     5268,     5199,     4790,     4859
    4705,     5270,     5272,     4863,     4861,     5200,     5203,     4794,     4791
    4706,     4864,     5273,     5272,     4863,     4862,     5271,     5270,     4861
    4707,     5272,     5274,     4865,     4863,     5203,     5206,     4797,     4794
    4708,     4866,     5275,     5274,     4865,     4864,     5273,     5272,     4863
    4709,     5274,     5276,     4867,     4865,     5206,     5209,     4800,     4797
    4710,     4868,     5277,     5276,     4867,     4866,     5275,     5274,     4865
    4711,     5276,     5278,     4869,     4867,     5209,     5212,     4803,     4800
    4712,     4870,     5279,     5278,     4869,     4868,     5277,     5276,     4867
    4713,     5278,     5280,     4871,     4869,     5212,     5215,     4806,     4803
    4714,     4872,     5281,     5280,     4871,     4870,     5279,     5278,     4869
    4715,     5280,     5282,     4873,     4871,     5215,     5218,     4809,     4806
    4716,     4874,     5283,     5282,     4873,     4872,     5281,     5280,     4871
    4717,     5282,     5284,     4875,     4873,     5218,     5221,     4812,     4809
    4718,     4876,     5285,     5284,     4875,     4874,     5283,     5282,     4873
    4719,     5284,     5286,     4877,     4875,     5221,     5224,     4815,     4812
    4720,     4878,     5287,     5286,     4877,     4876,     5285,     5284,     4875
    4721,     5286,     5288,     4879,     4877,     5224,     5227,     4818,     4815
    4722,     4880,     5289,     5288,     4879,     4878,     5287,     5286,     4877
    4723,     5288,     5290,     4881,     4879,     5227,     5230,     4821,     4818
    4724,     4882,     5291,     5290,     4881,     4880,     5289,     5288,     4879
    4725,     5290,     5292,     4883,     4881,     5230,     5233,     4824,     4821
    4726,     4884,     5293,     5292,     4883,     4882,     5291,     5290,     4881
    4727,     5292,     5294,     4885,     4883,     5233,     5236,     4827,     4824
    4728,     4886,     5295,     5294,     4885,     4884,     5293,     5292,     4883
    4729,     5294,     5296,     4887,     4885,     5236,     5239,     4830,     4827
    4730,     4888,     5297,     5296,     4887,     4886,     5295,     5294,     4885
    4731,     5296,     5298,     4889,     4887,     5239,     5242,     4833,     4830
    4732,     4890,     5299,     5298,     4889,     4888,     5297,     5296,     4887
    4733,     5298,     5300,     4891,     4889,     5242,     5245,     4836,     4833
    4734,     4892,     5301,     5300,     4891,     4890,     5299,     5298,     4889
    4735,     5300,     5302,     4893,     4891,     5245,     5248,     4839,     4836
    4736,     4894,     5303,     5302,     4893,     4892,     5301,     5300,     4891
    4737,     5302,     5304,     4895,     4893,     5248,     5251,     4842,     4839
    4738,     4896,     5305,     5304,     4895,     4894,     5303,     5302,     4893
    4739,     5304,     5306,     4897,     4895,     5251,     5254,     4845,     4842
    4740,     4898,     5307,     5306,     4897,     4896,     5305,     5304,     4895
    4741,     5306,     5308,     4899,     4897,     5254,     5257,     4848,     4845
    4742,     4900,     5309,     5308,     4899,     4898,     5307,     5306,     4897
    4743,     5308,     5310,     4901,     4899,     5257,     5260,     4851,     4848
    4744,     4902,     5311,     5310,     4901,     4900,     5309,     5308,     4899
    4745,     5310,     5312,     4903,     4901,     5260,     5263,     4854,     4851
    4746,     4904,     5313,     5312,     4903,     4902,     5311,     5310,     4901
    4747,     5312,     5314,     4905,     4903,     5263,     5266,     4857,     4854
    4748,     4906,     5315,     5314,     4905,     4904,     5313,     5312,     4903
    4749,     5314,     5316,     4907,     4905,     5266,     5269,     4860,     4857
    4750,     4908,     5317,     5316,     4907,     4906,     5315,     5314,     4905
    4751,     5316,     5270,     4861,     4907,     5269,     5200,     4791,     4860
    4752,     5317,     5271,     4862,     4908,     5316,     5270,     4861,     4907
*NSET, NSET=POSTERIOR_ON
      1,       2,       3,       4,       5,       6,       7,       8
      9,      10,      11,      12,      13,      14,      15,      16
     17,      18,      19,      20,      21,      22,      23,      24
     25,      26,      27,      28,      29,      30,      31,      32
     33,      34,      35,      36,      37,      38,      39,      40
     41,      42,      43,      44,      45,      46,      47,      48
     49,     540,     541,     542,     543,     544,     545,     546
    547,     548,     549,     550,     551,     552,     553,     554
    555,     556,     557,     558,     559,     560,     561,     562
    563,     564,     565,     566,     567,     568,     569,     570
    571,     572,     573,     574,     575,     576,     577,     578
    579,     580,     581,    1002,    1003,    1004,    1005,    1006
   1007,    1008,    1009,    1010,    1011,    1012,    1013,    1014
   1015,    1016,    1017,    1018,    1019,    1020,    1021,    1022
   1023,    1024,    1025,    1026,    1027,    1028,    1029,    1030
   1031,    1032,    1033,    1034,    1035,    1036,    1037,    1398
   1399,    1400,    1401,    1402,    1403,    1404,    1405,    1406
   1407,    1408,    1409,    1410,    1411,    1412,    1413,    1414
   1415,    1416,    1417,    1418,    1419,    1420,    1421,    1422
   1423,    1424,    1425,    1426,    1427,    1428,    1429,    1430
   1431,    1432,    1433,    1794,    1795,    1796,    1797,    1798
   1799,    1800,    1801,    1802,    1803,    1804,    1805,    1806
   1807,    1808,    1809,    1810,    1811,    1812,    1813,    1814
   1815,    1816,    1817,    1818,    1819,    1820,    1821,    1822
   1823
*NSET, NSET=POSTERIOR_PIA
    545,     551,     557,     563,     569,     575,     581,    1007
   1013,    1019,    1025,    1031,    1037,    1403,    1409,    1415
   1421,    1427,    1433,    1799,    1805,    1811,    1817,    1823
   2124,    2125,    2126,    2127,    2128,    2129,    2130,    2201
   2202,    2203,    2204,    2205,    2206,    2267,    2268,    2269
   2270,    2271,    2272,    2333,    2334,    2335,    2336,    2337
*NSET, NSET=POSTERIOR_SAS
   2124,    2125,    2126,    2127,    2128,    2129,    2130,    2201
   2202,    2203,    2204,    2205,    2206,    2267,    2268,    2269
   2270,    2271,    2272,    2333,    2334,    2335,    2336,    2337
   2388,    2389,    2390,    2391,    2392,    2393,    2394,    2395
   2396,    2397,    2398,    2399,    2400,    2401,    2402,    2403
   2404,    2405,    2406,    2407,    2408,    2619,    2620,    2621
   2622,    2623,    2624,    2625,    2626,    2627,    2628,    2629
   2630,    2631,    2632,    2633,    2634,    2635,    2636,    2817
   2818,    2819,    2820,    2821,    2822,    2823,    2824,    2825
   2826,    2827,    2828,    2829,    2830,    2831,    2832,    2833
   2834,    3015,    3016,    3017,    3018,    3019,    3020,    3021
   3022,    3023,    3024,    3025,    3026,    3027,    3028,    3029
   3180,    3181,    3182,    3183,    3184,    3185,    3186,    3187
   3188,    3189,    3190,    3191,    3192,    3193,    3194,    3195
   3196,    3197,    3198,    3199,    3200,    3411,    3412,    3413
   3414,    3415,    3416,    3417,    3418,    3419,    3420,    3421
   3422,    3423,    3424,    3425,    3426,    3427,    3428,    3609
   3610,    3611,    3612,    3613,    3614,    3615,    3616,    3617
   3618,    3619,    3620,    3621,    3622,    3623,    3624,    3625
   3626,    3807,    3808,    3809,    3810,    3811,    3812,    3813
   3814,    3815,    3816,    3817,    3818,    3819,    3820,    3821
*NSET, NSET=POSTERIOR_DURA
   3182,    3185,    3188,    3191,    3194,    3197,    3200,    3413
   3416,    3419,    3422,    3425,    3428,    3611,    3614,    3617
   3620,    3623,    3626,    3809,    3812,    3815,    3818,    3821
   3972,    3973,    3974,    3975,    3976,    3977,    3978,    3979
   3980,    3981,    3982,    3983,    3984,    3985,    4126,    4127
   4128,    4129,    4130,    4131,    4132,    4133,    4134,    4135
   4136,    4137,    4258,    4259,    4260,    4261,    4262,    4263
   4264,    4265,    4266,    4267,    4268,    4269,    4390,    4391
   4392,    4393,    4394,    4395,    4396,    4397,    4398,    4399
*NSET, NSET=DURA_OUTER
   3973,    3975,    3977,    3979,    3981,    3983,    3985,    3987
   3989,    3991,    3993,    3995,    3997,    3999,    4001,    4003
   4005,    4007,    4009,    4011,    4013,    4015,    4017,    4019
   4021,    4023,    4025,    4027,    4029,    4031,    4033,    4037
   4039,    4041,    4043,    4045,    4047,    4051,    4053,    4055
   4057,    4059,    4061,    4065,    4067,    4069,    4071,    4073
   4075,    4077,    4079,    4081,    4083,    4085,    4087,    4089
   4091,    4093,    4095,    4097,    4099,    4101,    4103,    4105
   4107,    4109,    4111,    4113,    4115,    4117,    4119,    4121
   4123,    4125,    4127,    4129,    4131,    4133,    4135,    4137
   4139,    4141,    4143,    4145,    4147,    4149,    4151,    4153
   4155,    4157,    4159,    4161,    4163,    4165,    4167,    4169
   4171,    4173,    4175,    4177,    4179,    4181,    4183,    4185
   4187,    4189,    4191,    4193,    4195,    4197,    4199,    4201
   4203,    4205,    4207,    4209,    4211,    4213,    4215,    4217
   4219,    4221,    4223,    4225,    4227,    4229,    4231,    4233
   4235,    4237,    4239,    4241,    4243,    4245,    4247,    4249
   4251,    4253,    4255,    4257,    4259,    4261,    4263,    4265
   4267,    4269,    4271,    4273,    4275,    4277,    4279,    4281
   4283,    4285,    4287,    4289,    4291,    4293,    4295,    4297
   4299,    4301,    4303,    4305,    4307,    4309,    4311,    4313
   4315,    4317,    4319,    4321,    4323,    4325,    4327,    4329
   4331,    4333,    4335,    4337,    4339,    4341,    4343,    4345
   4347,    4349,    4351,    4353,    4355,    4357,    4359,    4361
   4363,    4365,    4367,    4369,    4371,    4373,    4375,    4377
   4379,    4381,    4383,    4385,    4387,    4389,    4391,    4393
   4395,    4397,    4399,    4401,    4403,    4405,    4407,    4409
   4411,    4413,    4415,    4417,    4419,    4421,    4423,    4425
   4427,    4429,    4431,    4433,    4435,    4437,    4439,    4441
   4443,    4445,    4447,    4449,    4451,    4453,    4455,    4457
   4459,    4461,    4463,    4465,    4467,    4469,    4471,    4473
   4475,    4477,    4479,    4481,    4483,    4485,    4487,    4489
   4491,    4493,    4495,    4497,    4499
*NSET, NSET=SCLERA_RING_OUTER
   4113,    4115,    4117,    4119,    4121,    4123,    4125,    4247
   4249,    4251,    4253,    4255,    4257,    4379,    4381,    4383
   4385,    4387,    4389,    4491,    4493,    4495,    4497,    4499
   4862,    4864,    4866,    4868,    4870,    4872,    4874,    4876
   4878,    4880,    4882,    4884,    4886,    4888,    4890,    4892
   4894,    4896,    4898,    4900,    4902,    4904,    4906,    4908
*NSET, NSET=GLOBO_OUTER
   4862,    4864,    4866,    4868,    4870,    4872,    4874,    4876
   4878,    4880,    4882,    4884,    4886,    4888,    4890,    4892
   4894,    4896,    4898,    4900,    4902,    4904,    4906,    4908
   5271,    5273,    5275,    5277,    5279,    5281,    5283,    5285
   5287,    5289,    5291,    5293,    5295,    5297,    5299,    5301
   5303,    5305,    5307,    5309,    5311,    5313,    5315,    5317
*NSET, NSET=ANTERIOR_GLOBO
   4909,    4910,    4911,    4912,    4913,    4914,    4915,    4916
   4917,    4918,    4919,    4920,    4921,    4922,    4923,    4924
   4925,    4926,    4927,    4928,    4929,    4930,    4931,    4932
   4933,    4934,    4935,    4936,    4937,    4938,    4939,    4940
   4941,    4942,    4943,    4944,    4945,    4946,    4947,    4948
   4949,    4950,    4951,    4952,    4953,    4954,    4955,    4956
   4957,    4958,    4959,    4960,    4961,    4962,    4963,    4964
   4965,    4966,    4967,    4968,    4969,    4970,    4971,    4972
   4973,    4974,    4975,    4976,    4977,    4978,    4979,    4980
   4981,    4982,    4983,    4984,    4985,    4986,    4987,    4988
   4989,    4990,    4991,    4992,    4993,    4994,    4995,    4996
   4997,    4998,    4999,    5000,    5001,    5002,    5003,    5004
   5005,    5006,    5007,    5008,    5009,    5010,    5011,    5012
   5013,    5014,    5015,    5016,    5017,    5018,    5019,    5020
   5021,    5022,    5023,    5024,    5025,    5026,    5027,    5028
   5029,    5030,    5031,    5032,    5033,    5034,    5035,    5036
   5037,    5038,    5039,    5040,    5041,    5042,    5043,    5044
   5045,    5046,    5047,    5048,    5049,    5050,    5051,    5052
   5053,    5054,    5055,    5056,    5057,    5058,    5059,    5060
   5061,    5062,    5063,    5064,    5065,    5066,    5067,    5068
   5069,    5070,    5071,    5072,    5073,    5074,    5075,    5076
   5077,    5078,    5079,    5080,    5081,    5082,    5083,    5084
   5085,    5086,    5087,    5088,    5089,    5090,    5091,    5092
   5093,    5094,    5095,    5096,    5097,    5098,    5099,    5100
   5101,    5102,    5103,    5104,    5105,    5106,    5107,    5108
   5109,    5110,    5111,    5112,    5113,    5114,    5115,    5116
   5117,    5118,    5119,    5120,    5121,    5122,    5123,    5124
   5125,    5126,    5127,    5128,    5129,    5130,    5131,    5132
   5133,    5134,    5135,    5136,    5137,    5138,    5139,    5140
   5141,    5142,    5143,    5144,    5145,    5146,    5147,    5148
   5149,    5150,    5151,    5152,    5153,    5154,    5155,    5156
   5157,    5158,    5159,    5160,    5161,    5162,    5163,    5164
   5165,    5166,    5167,    5168,    5169,    5170,    5171,    5172
   5173,    5174,    5175,    5176,    5177,    5178,    5179,    5180
   5181,    5182,    5183,    5184,    5185,    5186,    5187,    5188
   5189,    5190,    5191,    5192,    5193,    5194,    5195,    5196
   5197,    5198,    5199,    5200,    5201,    5202,    5203,    5204
   5205,    5206,    5207,    5208,    5209,    5210,    5211,    5212
   5213,    5214,    5215,    5216,    5217,    5218,    5219,    5220
   5221,    5222,    5223,    5224,    5225,    5226,    5227,    5228
   5229,    5230,    5231,    5232,    5233,    5234,    5235,    5236
   5237,    5238,    5239,    5240,    5241,    5242,    5243,    5244
   5245,    5246,    5247,    5248,    5249,    5250,    5251,    5252
   5253,    5254,    5255,    5256,    5257,    5258,    5259,    5260
   5261,    5262,    5263,    5264,    5265,    5266,    5267,    5268
   5269,    5270,    5271,    5272,    5273,    5274,    5275,    5276
   5277,    5278,    5279,    5280,    5281,    5282,    5283,    5284
   5285,    5286,    5287,    5288,    5289,    5290,    5291,    5292
   5293,    5294,    5295,    5296,    5297,    5298,    5299,    5300
   5301,    5302,    5303,    5304,    5305,    5306,    5307,    5308
   5309,    5310,    5311,    5312,    5313,    5314,    5315,    5316
   5317
*NSET, NSET=PERTURBATION_STRIP
   4019,    4021,    4023,    4033,    4035,    4037,    4047,    4049
   4051,    4061,    4063,    4065,    4075,    4077,    4079
*NSET, NSET=CONTACT_LOCAL
   4213,    4215,    4217,    4225,    4227,    4229
*SURFACE, NAME=POSTERIOR_ON_SURF, TYPE=ELEMENT
       1, S5
       7, S5
      13, S5
      19, S5
      25, S5
      31, S5
       2, S5
       8, S5
      14, S5
      20, S5
      26, S5
      32, S5
       3, S5
       9, S5
      15, S5
      21, S5
      27, S5
      33, S5
       4, S5
      10, S5
      16, S5
      22, S5
      28, S5
      34, S5
       5, S5
      11, S5
      17, S5
      23, S5
      29, S5
      35, S5
       6, S6
      12, S6
      18, S6
      24, S6
      30, S6
      36, S2
     361, S5
     367, S5
     373, S5
     379, S5
     385, S5
     391, S5
     362, S5
     368, S5
     374, S5
     380, S5
     386, S5
     392, S5
     363, S5
     369, S5
     375, S5
     381, S5
     387, S5
     393, S5
     364, S5
     370, S5
     376, S5
     382, S5
     388, S5
     394, S5
     365, S5
     371, S5
     377, S5
     383, S5
     389, S5
     395, S5
     366, S6
     372, S6
     378, S6
     384, S6
     390, S6
     396, S2
     721, S5
     727, S5
     733, S5
     739, S5
     745, S5
     751, S5
     722, S5
     728, S5
     734, S5
     740, S5
     746, S5
     752, S5
     723, S5
     729, S5
     735, S5
     741, S5
     747, S5
     753, S5
     724, S5
     730, S5
     736, S5
     742, S5
     748, S5
     754, S5
     725, S5
     731, S5
     737, S5
     743, S5
     749, S5
     755, S5
     726, S6
     732, S6
     738, S6
     744, S6
     750, S6
     756, S2
    1081, S5
    1087, S5
    1093, S5
    1099, S5
    1105, S5
    1111, S5
    1082, S5
    1088, S5
    1094, S5
    1100, S5
    1106, S5
    1112, S5
    1083, S5
    1089, S5
    1095, S5
    1101, S5
    1107, S5
    1113, S5
    1084, S5
    1090, S5
    1096, S5
    1102, S5
    1108, S5
    1114, S5
    1085, S5
    1091, S5
    1097, S5
    1103, S5
    1109, S5
    1115, S5
    1086, S6
    1092, S6
    1098, S6
    1104, S6
    1110, S6
    1116, S2
    1441, S5
    1447, S5
    1453, S5
    1459, S5
    1465, S5
    1471, S5
    1442, S5
    1448, S5
    1454, S5
    1460, S5
    1466, S5
    1472, S5
    1443, S5
    1449, S5
    1455, S5
    1461, S5
    1467, S5
    1473, S5
    1444, S5
    1450, S5
    1456, S5
    1462, S5
    1468, S5
    1474, S5
    1445, S5
    1451, S5
    1457, S5
    1463, S5
    1469, S5
    1475, S5
    1446, S6
    1452, S6
    1458, S6
    1464, S6
    1470, S6
    1476, S2
*SURFACE, NAME=POSTERIOR_PIA_SURF, TYPE=ELEMENT
    1801, S6
    1802, S6
    1803, S6
    1804, S6
    1805, S6
    1806, S2
    1861, S6
    1862, S6
    1863, S6
    1864, S6
    1865, S6
    1866, S2
    1921, S6
    1922, S6
    1923, S6
    1924, S6
    1925, S6
    1926, S2
    1981, S6
    1982, S6
    1983, S6
    1984, S6
    1985, S6
    1986, S2
*SURFACE, NAME=POSTERIOR_SAS_SURF, TYPE=ELEMENT
    2041, S5
    2044, S5
    2047, S5
    2050, S5
    2053, S5
    2056, S5
    2042, S5
    2045, S5
    2048, S5
    2051, S5
    2054, S5
    2057, S5
    2043, S6
    2046, S6
    2049, S6
    2052, S6
    2055, S6
    2058, S2
    2221, S5
    2224, S5
    2227, S5
    2230, S5
    2233, S5
    2236, S5
    2222, S5
    2225, S5
    2228, S5
    2231, S5
    2234, S5
    2237, S5
    2223, S6
    2226, S6
    2229, S6
    2232, S6
    2235, S6
    2238, S2
    2401, S5
    2404, S5
    2407, S5
    2410, S5
    2413, S5
    2416, S5
    2402, S5
    2405, S5
    2408, S5
    2411, S5
    2414, S5
    2417, S5
    2403, S6
    2406, S6
    2409, S6
    2412, S6
    2415, S6
    2418, S2
    2581, S5
    2584, S5
    2587, S5
    2590, S5
    2593, S5
    2596, S5
    2582, S5
    2585, S5
    2588, S5
    2591, S5
    2594, S5
    2597, S5
    2583, S6
    2586, S6
    2589, S6
    2592, S6
    2595, S6
    2598, S2
    2761, S5
    2764, S5
    2767, S5
    2770, S5
    2773, S5
    2776, S5
    2762, S5
    2765, S5
    2768, S5
    2771, S5
    2774, S5
    2777, S5
    2763, S6
    2766, S6
    2769, S6
    2772, S6
    2775, S6
    2778, S2
    2941, S5
    2944, S5
    2947, S5
    2950, S5
    2953, S5
    2956, S5
    2942, S5
    2945, S5
    2948, S5
    2951, S5
    2954, S5
    2957, S5
    2943, S6
    2946, S6
    2949, S6
    2952, S6
    2955, S6
    2958, S2
    3121, S5
    3124, S5
    3127, S5
    3130, S5
    3133, S5
    3136, S5
    3122, S5
    3125, S5
    3128, S5
    3131, S5
    3134, S5
    3137, S5
    3123, S6
    3126, S6
    3129, S6
    3132, S6
    3135, S6
    3138, S2
    3301, S5
    3304, S5
    3307, S5
    3310, S5
    3313, S5
    3316, S5
    3302, S5
    3305, S5
    3308, S5
    3311, S5
    3314, S5
    3317, S5
    3303, S6
    3306, S6
    3309, S6
    3312, S6
    3315, S6
    3318, S2
*SURFACE, NAME=POSTERIOR_DURA_SURF, TYPE=ELEMENT
    3481, S5
    3483, S5
    3485, S5
    3487, S5
    3489, S5
    3491, S5
    3482, S6
    3484, S6
    3486, S6
    3488, S6
    3490, S6
    3492, S2
    3601, S5
    3603, S5
    3605, S5
    3607, S5
    3609, S5
    3611, S5
    3602, S6
    3604, S6
    3606, S6
    3608, S6
    3610, S6
    3612, S2
    3721, S5
    3723, S5
    3725, S5
    3727, S5
    3729, S5
    3731, S5
    3722, S6
    3724, S6
    3726, S6
    3728, S6
    3730, S6
    3732, S2
    3841, S5
    3843, S5
    3845, S5
    3847, S5
    3849, S5
    3851, S5
    3842, S6
    3844, S6
    3846, S6
    3848, S6
    3850, S6
    3852, S2
*SURFACE, NAME=DURA_OUTER_SURF, TYPE=ELEMENT
    3482, S3
    3484, S3
    3486, S3
    3488, S3
    3490, S3
    3492, S4
    3494, S3
    3496, S3
    3498, S3
    3500, S3
    3502, S3
    3504, S4
    3506, S3
    3508, S3
    3510, S3
    3512, S3
    3514, S3
    3516, S4
    3518, S3
    3520, S3
    3526, S3
    3528, S4
    3530, S3
    3532, S3
    3538, S3
    3540, S4
    3542, S3
    3544, S3
    3550, S3
    3552, S4
    3554, S3
    3556, S3
    3562, S3
    3564, S4
    3566, S3
    3568, S3
    3570, S3
    3572, S3
    3574, S3
    3576, S4
    3578, S3
    3580, S3
    3582, S3
    3584, S3
    3586, S3
    3588, S4
    3590, S3
    3592, S3
    3594, S3
    3596, S3
    3598, S3
    3600, S3
    3602, S3
    3604, S3
    3606, S3
    3608, S3
    3610, S3
    3612, S4
    3614, S3
    3616, S3
    3618, S3
    3620, S3
    3622, S3
    3624, S4
    3626, S3
    3628, S3
    3630, S3
    3632, S3
    3634, S3
    3636, S4
    3638, S3
    3640, S3
    3642, S3
    3644, S3
    3646, S3
    3648, S4
    3650, S3
    3652, S3
    3654, S3
    3656, S3
    3658, S3
    3660, S4
    3662, S3
    3664, S3
    3666, S3
    3668, S3
    3670, S3
    3672, S4
    3674, S3
    3676, S3
    3678, S3
    3680, S3
    3682, S3
    3684, S4
    3686, S3
    3688, S3
    3694, S3
    3696, S4
    3698, S3
    3700, S3
    3702, S3
    3704, S3
    3706, S3
    3708, S4
    3710, S3
    3712, S3
    3714, S3
    3716, S3
    3718, S3
    3720, S3
    3722, S3
    3724, S3
    3726, S3
    3728, S3
    3730, S3
    3732, S4
    3734, S3
    3736, S3
    3738, S3
    3740, S3
    3742, S3
    3744, S4
    3746, S3
    3748, S3
    3750, S3
    3752, S3
    3754, S3
    3756, S4
    3758, S3
    3760, S3
    3762, S3
    3764, S3
    3766, S3
    3768, S4
    3770, S3
    3772, S3
    3774, S3
    3776, S3
    3778, S3
    3780, S4
    3782, S3
    3784, S3
    3786, S3
    3788, S3
    3790, S3
    3792, S4
    3794, S3
    3796, S3
    3798, S3
    3800, S3
    3802, S3
    3804, S4
    3806, S3
    3808, S3
    3810, S3
    3812, S3
    3814, S3
    3816, S4
    3818, S3
    3820, S3
    3822, S3
    3824, S3
    3826, S3
    3828, S4
    3830, S3
    3832, S3
    3834, S3
    3836, S3
    3838, S3
    3840, S3
    3842, S3
    3844, S3
    3846, S3
    3848, S3
    3850, S3
    3852, S4
    3854, S3
    3856, S3
    3858, S3
    3860, S3
    3862, S3
    3864, S4
    3866, S3
    3868, S3
    3870, S3
    3872, S3
    3874, S3
    3876, S4
    3878, S3
    3880, S3
    3882, S3
    3884, S3
    3886, S3
    3888, S4
    3890, S3
    3892, S3
    3894, S3
    3896, S3
    3898, S3
    3900, S4
    3902, S3
    3904, S3
    3906, S3
    3908, S3
    3910, S3
    3912, S4
    3914, S3
    3916, S3
    3918, S3
    3920, S3
    3922, S3
    3924, S4
    3926, S3
    3928, S3
    3930, S3
    3932, S3
    3934, S3
    3936, S4
    3938, S3
    3940, S3
    3942, S3
    3944, S3
    3946, S3
    3948, S4
    3950, S3
    3952, S3
    3954, S3
    3956, S3
    3958, S3
    3960, S4
*SURFACE, NAME=SCLERA_RING_OUTER_SURF, TYPE=ELEMENT
    4310, S3
    4312, S3
    4314, S3
    4316, S3
    4318, S3
    4320, S3
    4322, S3
    4324, S3
    4326, S3
    4328, S3
    4330, S3
    4332, S3
    4334, S3
    4336, S3
    4338, S3
    4340, S3
    4342, S3
    4344, S3
    4346, S3
    4348, S3
    4350, S3
    4352, S3
    4354, S3
    4356, S4
*SURFACE, NAME=GLOBO_OUTER_SURF, TYPE=ELEMENT
    4706, S3
    4708, S3
    4710, S3
    4712, S3
    4714, S3
    4716, S3
    4718, S3
    4720, S3
    4722, S3
    4724, S3
    4726, S3
    4728, S3
    4730, S3
    4732, S3
    4734, S3
    4736, S3
    4738, S3
    4740, S3
    4742, S3
    4744, S3
    4746, S3
    4748, S3
    4750, S3
    4752, S1
*SURFACE, NAME=ANTERIOR_GLOBO_SURF, TYPE=ELEMENT
    4357, S3
    4363, S3
    4369, S3
    4375, S3
    4381, S3
    4387, S3
    4358, S3
    4364, S3
    4370, S3
    4376, S3
    4382, S3
    4388, S3
    4359, S3
    4365, S3
    4371, S3
    4377, S3
    4383, S3
    4389, S3
    4360, S3
    4366, S3
    4372, S3
    4378, S3
    4384, S3
    4390, S3
    4361, S3
    4367, S3
    4373, S3
    4379, S3
    4385, S3
    4391, S3
    4362, S4
    4368, S4
    4374, S4
    4380, S4
    4386, S4
    4392, S3
    4393, S3
    4399, S3
    4405, S3
    4411, S3
    4417, S3
    4423, S3
    4394, S3
    4400, S3
    4406, S3
    4412, S3
    4418, S3
    4424, S3
    4395, S3
    4401, S3
    4407, S3
    4413, S3
    4419, S3
    4425, S3
    4396, S3
    4402, S3
    4408, S3
    4414, S3
    4420, S3
    4426, S3
    4397, S3
    4403, S3
    4409, S3
    4415, S3
    4421, S3
    4427, S3
    4398, S4
    4404, S4
    4410, S4
    4416, S4
    4422, S4
    4428, S4
    4429, S3
    4435, S3
    4441, S3
    4447, S3
    4453, S3
    4459, S3
    4430, S3
    4436, S3
    4442, S3
    4448, S3
    4454, S3
    4460, S3
    4431, S3
    4437, S3
    4443, S3
    4449, S3
    4455, S3
    4461, S3
    4432, S3
    4438, S3
    4444, S3
    4450, S3
    4456, S3
    4462, S3
    4433, S3
    4439, S3
    4445, S3
    4451, S3
    4457, S3
    4463, S3
    4434, S4
    4440, S4
    4446, S4
    4452, S4
    4458, S4
    4464, S4
    4465, S3
    4471, S3
    4477, S3
    4483, S3
    4489, S3
    4495, S3
    4466, S3
    4472, S3
    4478, S3
    4484, S3
    4490, S3
    4496, S3
    4467, S3
    4473, S3
    4479, S3
    4485, S3
    4491, S3
    4497, S3
    4468, S3
    4474, S3
    4480, S3
    4486, S3
    4492, S3
    4498, S3
    4469, S3
    4475, S3
    4481, S3
    4487, S3
    4493, S3
    4499, S3
    4470, S4
    4476, S4
    4482, S4
    4488, S4
    4494, S4
    4500, S4
    4501, S3
    4507, S3
    4513, S3
    4519, S3
    4525, S3
    4531, S3
    4502, S3
    4508, S3
    4514, S3
    4520, S3
    4526, S3
    4532, S3
    4503, S3
    4509, S3
    4515, S3
    4521, S3
    4527, S3
    4533, S3
    4504, S3
    4510, S3
    4516, S3
    4522, S3
    4528, S3
    4534, S3
    4505, S3
    4511, S3
    4517, S3
    4523, S3
    4529, S3
    4535, S3
    4506, S4
    4512, S4
    4518, S4
    4524, S4
    4530, S4
    4536, S3
    4537, S4
    4538, S4
    4539, S4
    4540, S4
    4541, S4
    4542, S4
    4543, S4
    4544, S4
    4545, S4
    4546, S4
    4547, S4
    4548, S4
    4549, S4
    4550, S4
    4551, S4
    4552, S4
    4553, S4
    4554, S4
    4555, S4
    4556, S4
    4557, S4
    4558, S4
    4559, S4
    4560, S3
    4561, S3
    4564, S3
    4567, S3
    4570, S3
    4573, S3
    4576, S3
    4562, S3
    4565, S3
    4568, S3
    4571, S3
    4574, S3
    4577, S3
    4563, S4
    4566, S4
    4569, S4
    4572, S4
    4575, S4
    4578, S4
    4579, S3
    4582, S3
    4585, S3
    4588, S3
    4591, S3
    4594, S3
    4580, S3
    4583, S3
    4586, S3
    4589, S3
    4592, S3
    4595, S3
    4581, S4
    4584, S4
    4587, S4
    4590, S4
    4593, S4
    4596, S4
    4597, S3
    4600, S3
    4603, S3
    4606, S3
    4609, S3
    4612, S3
    4598, S3
    4601, S3
    4604, S3
    4607, S3
    4610, S3
    4613, S3
    4599, S4
    4602, S4
    4605, S4
    4608, S4
    4611, S4
    4614, S4
    4615, S3
    4618, S3
    4621, S3
    4624, S3
    4627, S3
    4630, S3
    4616, S3
    4619, S3
    4622, S3
    4625, S3
    4628, S3
    4631, S3
    4617, S4
    4620, S4
    4623, S4
    4626, S4
    4629, S4
    4632, S3
    4633, S3
    4636, S3
    4639, S3
    4642, S3
    4645, S3
    4648, S3
    4634, S3
    4637, S3
    4640, S3
    4643, S3
    4646, S3
    4649, S3
    4635, S4
    4638, S4
    4641, S4
    4644, S4
    4647, S4
    4650, S4
    4651, S3
    4654, S3
    4657, S3
    4660, S3
    4663, S3
    4666, S3
    4652, S3
    4655, S3
    4658, S3
    4661, S3
    4664, S3
    4667, S3
    4653, S4
    4656, S4
    4659, S4
    4662, S4
    4665, S4
    4668, S4
    4669, S3
    4672, S3
    4675, S3
    4678, S3
    4681, S3
    4684, S3
    4670, S3
    4673, S3
    4676, S3
    4679, S3
    4682, S3
    4685, S3
    4671, S4
    4674, S4
    4677, S4
    4680, S4
    4683, S4
    4686, S4
    4687, S3
    4690, S3
    4693, S3
    4696, S3
    4699, S3
    4702, S3
    4688, S3
    4691, S3
    4694, S3
    4697, S3
    4700, S3
    4703, S3
    4689, S4
    4692, S4
    4695, S4
    4698, S4
    4701, S4
    4704, S3
    4705, S3
    4707, S3
    4709, S3
    4711, S3
    4713, S3
    4715, S3
    4706, S4
    4708, S4
    4710, S4
    4712, S4
    4714, S4
    4716, S4
    4717, S3
    4719, S3
    4721, S3
    4723, S3
    4725, S3
    4727, S3
    4718, S4
    4720, S4
    4722, S4
    4724, S4
    4726, S4
    4728, S4
    4729, S3
    4731, S3
    4733, S3
    4735, S3
    4737, S3
    4739, S3
    4730, S4
    4732, S4
    4734, S4
    4736, S4
    4738, S4
    4740, S4
    4741, S3
    4743, S3
    4745, S3
    4747, S3
    4749, S3
    4751, S3
    4742, S4
    4744, S4
    4746, S4
    4748, S4
    4750, S4
    4752, S3
*SURFACE, NAME=PERTURBATION_STRIP_SURF, TYPE=ELEMENT
    3522, S3
    3524, S3
    3534, S3
    3536, S3
    3546, S3
    3548, S3
    3558, S3
    3560, S3
*SURFACE, NAME=CONTACT_LOCAL_SURF, TYPE=ELEMENT
    3690, S3
    3692, S3
*SURFACE, NAME=DURA_INNER_SURF, TYPE=ELEMENT
    3481, S2
    3483, S2
    3485, S2
    3487, S2
    3489, S2
    3491, S2
    3493, S2
    3495, S2
    3497, S2
    3499, S2
    3501, S2
    3503, S2
    3505, S2
    3507, S2
    3509, S2
    3511, S2
    3513, S2
    3515, S2
    3517, S2
    3519, S2
    3521, S2
    3523, S2
    3525, S2
    3527, S2
    3529, S2
    3531, S2
    3533, S2
    3535, S2
    3537, S2
    3539, S2
    3541, S2
    3543, S2
    3545, S2
    3547, S2
    3549, S2
    3551, S2
    3553, S2
    3555, S2
    3557, S2
    3559, S2
    3561, S2
    3563, S2
    3565, S2
    3567, S2
    3569, S2
    3571, S2
    3573, S2
    3575, S2
    3577, S2
    3579, S2
    3581, S2
    3583, S2
    3585, S2
    3587, S2
    3589, S2
    3591, S2
    3593, S2
    3595, S2
    3597, S2
    3599, S2
    3601, S2
    3603, S2
    3605, S2
    3607, S2
    3609, S2
    3611, S2
    3613, S2
    3615, S2
    3617, S2
    3619, S2
    3621, S2
    3623, S2
    3625, S2
    3627, S2
    3629, S2
    3631, S2
    3633, S2
    3635, S2
    3637, S2
    3639, S2
    3641, S2
    3643, S2
    3645, S2
    3647, S2
    3649, S2
    3651, S2
    3653, S2
    3655, S2
    3657, S2
    3659, S2
    3661, S2
    3663, S2
    3665, S2
    3667, S2
    3669, S2
    3671, S2
    3673, S2
    3675, S2
    3677, S2
    3679, S2
    3681, S2
    3683, S2
    3685, S2
    3687, S2
    3689, S2
    3691, S2
    3693, S2
    3695, S2
    3697, S2
    3699, S2
    3701, S2
    3703, S2
    3705, S2
    3707, S2
    3709, S2
    3711, S2
    3713, S2
    3715, S2
    3717, S2
    3719, S2
    3721, S2
    3723, S2
    3725, S2
    3727, S2
    3729, S2
    3731, S2
    3733, S2
    3735, S2
    3737, S2
    3739, S2
    3741, S2
    3743, S2
    3745, S2
    3747, S2
    3749, S2
    3751, S2
    3753, S2
    3755, S2
    3757, S2
    3759, S2
    3761, S2
    3763, S2
    3765, S2
    3767, S2
    3769, S2
    3771, S2
    3773, S2
    3775, S2
    3777, S2
    3779, S2
    3781, S2
    3783, S2
    3785, S2
    3787, S2
    3789, S2
    3791, S2
    3793, S2
    3795, S2
    3797, S2
    3799, S2
    3801, S2
    3803, S2
    3805, S2
    3807, S2
    3809, S2
    3811, S2
    3813, S2
    3815, S2
    3817, S2
    3819, S2
    3821, S2
    3823, S2
    3825, S2
    3827, S2
    3829, S2
    3831, S2
    3833, S2
    3835, S2
    3837, S2
    3839, S2
    3841, S2
    3843, S2
    3845, S2
    3847, S2
    3849, S2
    3851, S2
    3853, S2
    3855, S2
    3857, S2
    3859, S2
    3861, S2
    3863, S2
    3865, S2
    3867, S2
    3869, S2
    3871, S2
    3873, S2
    3875, S2
    3877, S2
    3879, S2
    3881, S2
    3883, S2
    3885, S2
    3887, S2
    3889, S2
    3891, S2
    3893, S2
    3895, S2
    3897, S2
    3899, S2
    3901, S2
    3903, S2
    3905, S2
    3907, S2
    3909, S2
    3911, S2
    3913, S2
    3915, S2
    3917, S2
    3919, S2
    3921, S2
    3923, S2
    3925, S2
    3927, S2
    3929, S2
    3931, S2
    3933, S2
    3935, S2
    3937, S2
    3939, S2
    3941, S2
    3943, S2
    3945, S2
    3947, S2
    3949, S2
    3951, S2
    3953, S2
    3955, S2
    3957, S2
    3959, S2
