** Winkler foundation springs em dura_outer (excluindo perturbation_strip)
** Gerado automaticamente por foam_polymesh_to_ccx_inp.py
** k_winkler = 2.000e+05 Pa/m, 2205 springs
*NODE, NSET=GHOST_WINKLER
   46131,  1.76847411e-03, -1.76847411e-03,  0.00000000e+00
   46132,  1.98417674e-03, -1.52251237e-03,  0.00000000e+00
   46133,  2.16592956e-03, -1.25050002e-03,  0.00000000e+00
   46134,  2.31062272e-03, -9.57091277e-04,  0.00000000e+00
   46135,  2.41578050e-03, -6.47306439e-04,  0.00000000e+00
   46136,  2.47960360e-03, -3.26446010e-04,  0.00000000e+00
   46137,  2.50100000e-03,  2.22133423e-19,  0.00000000e+00
   46138,  2.47960360e-03,  3.26446010e-04,  0.00000000e+00
   46139,  2.41578050e-03,  6.47306439e-04,  0.00000000e+00
   46140,  2.31062272e-03,  9.57091277e-04,  0.00000000e+00
   46141,  2.16592956e-03,  1.25050002e-03,  0.00000000e+00
   46142,  1.98417674e-03,  1.52251237e-03,  0.00000000e+00
   46143,  1.76847411e-03,  1.76847411e-03,  0.00000000e+00
   46144,  1.76847411e-03, -1.76847411e-03,  6.66666667e-04
   46145,  1.98417674e-03, -1.52251237e-03,  6.66666667e-04
   46146,  2.16592956e-03, -1.25050002e-03,  6.66666667e-04
   46147,  2.31062272e-03, -9.57091277e-04,  6.66666667e-04
   46148,  2.41578050e-03, -6.47306439e-04,  6.66666667e-04
   46149,  2.47960360e-03, -3.26446010e-04,  6.66666667e-04
   46150,  2.50100000e-03,  2.22133423e-19,  6.66666667e-04
   46151,  2.47960360e-03,  3.26446010e-04,  6.66666667e-04
   46152,  2.41578050e-03,  6.47306439e-04,  6.66666667e-04
   46153,  2.31062272e-03,  9.57091277e-04,  6.66666667e-04
   46154,  2.16592956e-03,  1.25050002e-03,  6.66666667e-04
   46155,  1.98417674e-03,  1.52251237e-03,  6.66666667e-04
   46156,  1.76847411e-03,  1.76847411e-03,  6.66666667e-04
   46157,  1.76847411e-03, -1.76847411e-03,  1.33333333e-03
   46158,  1.98417674e-03, -1.52251237e-03,  1.33333333e-03
   46159,  2.16592956e-03, -1.25050002e-03,  1.33333333e-03
   46160,  2.31062272e-03, -9.57091277e-04,  1.33333333e-03
   46161,  2.41578050e-03, -6.47306439e-04,  1.33333333e-03
   46162,  2.47960360e-03, -3.26446010e-04,  1.33333333e-03
   46163,  2.50100000e-03,  2.22133423e-19,  1.33333333e-03
   46164,  2.47960360e-03,  3.26446010e-04,  1.33333333e-03
   46165,  2.41578050e-03,  6.47306439e-04,  1.33333333e-03
   46166,  2.31062272e-03,  9.57091277e-04,  1.33333333e-03
   46167,  2.16592956e-03,  1.25050002e-03,  1.33333333e-03
   46168,  1.98417674e-03,  1.52251237e-03,  1.33333333e-03
   46169,  1.76847411e-03,  1.76847411e-03,  1.33333333e-03
   46170,  1.76847411e-03, -1.76847411e-03,  2.00000000e-03
   46171,  1.98417674e-03, -1.52251237e-03,  2.00000000e-03
   46172,  2.16592956e-03, -1.25050002e-03,  2.00000000e-03
   46173,  2.31062272e-03, -9.57091277e-04,  2.00000000e-03
   46174,  2.41578050e-03, -6.47306439e-04,  2.00000000e-03
   46175,  2.47960360e-03, -3.26446010e-04,  2.00000000e-03
   46176,  2.50100000e-03,  2.22133423e-19,  2.00000000e-03
   46177,  2.47960360e-03,  3.26446010e-04,  2.00000000e-03
   46178,  2.41578050e-03,  6.47306439e-04,  2.00000000e-03
   46179,  2.31062272e-03,  9.57091277e-04,  2.00000000e-03
   46180,  2.16592956e-03,  1.25050002e-03,  2.00000000e-03
   46181,  1.98417674e-03,  1.52251237e-03,  2.00000000e-03
   46182,  1.76847411e-03,  1.76847411e-03,  2.00000000e-03
   46183,  1.76847411e-03, -1.76847411e-03,  2.66666667e-03
   46184,  1.98417674e-03, -1.52251237e-03,  2.66666667e-03
   46185,  2.16592956e-03, -1.25050002e-03,  2.66666667e-03
   46186,  2.31062272e-03, -9.57091277e-04,  2.66666667e-03
   46187,  2.41578050e-03, -6.47306439e-04,  2.66666667e-03
   46188,  2.47960360e-03, -3.26446010e-04,  2.66666667e-03
   46189,  2.50100000e-03,  2.22133423e-19,  2.66666667e-03
   46190,  2.47960360e-03,  3.26446010e-04,  2.66666667e-03
   46191,  2.41578050e-03,  6.47306439e-04,  2.66666667e-03
   46192,  2.31062272e-03,  9.57091277e-04,  2.66666667e-03
   46193,  2.16592956e-03,  1.25050002e-03,  2.66666667e-03
   46194,  1.98417674e-03,  1.52251237e-03,  2.66666667e-03
   46195,  1.76847411e-03,  1.76847411e-03,  2.66666667e-03
   46196,  1.76847411e-03, -1.76847411e-03,  3.33333333e-03
   46197,  1.98417674e-03, -1.52251237e-03,  3.33333333e-03
   46198,  2.16592956e-03, -1.25050002e-03,  3.33333333e-03
   46199,  2.31062272e-03, -9.57091277e-04,  3.33333333e-03
   46200,  2.41578050e-03, -6.47306439e-04,  3.33333333e-03
   46201,  2.47960360e-03, -3.26446010e-04,  3.33333333e-03
   46202,  2.50100000e-03,  2.22133423e-19,  3.33333333e-03
   46203,  2.47960360e-03,  3.26446010e-04,  3.33333333e-03
   46204,  2.41578050e-03,  6.47306439e-04,  3.33333333e-03
   46205,  2.31062272e-03,  9.57091277e-04,  3.33333333e-03
   46206,  2.16592956e-03,  1.25050002e-03,  3.33333333e-03
   46207,  1.98417674e-03,  1.52251237e-03,  3.33333333e-03
   46208,  1.76847411e-03,  1.76847411e-03,  3.33333333e-03
   46209,  1.76847411e-03, -1.76847411e-03,  4.00000000e-03
   46210,  1.98417674e-03, -1.52251237e-03,  4.00000000e-03
   46211,  2.16592956e-03, -1.25050002e-03,  4.00000000e-03
   46212,  2.31062272e-03, -9.57091277e-04,  4.00000000e-03
   46213,  2.41578050e-03, -6.47306439e-04,  4.00000000e-03
   46214,  2.47960360e-03, -3.26446010e-04,  4.00000000e-03
   46215,  2.50100000e-03,  2.22133423e-19,  4.00000000e-03
   46216,  2.47960360e-03,  3.26446010e-04,  4.00000000e-03
   46217,  2.41578050e-03,  6.47306439e-04,  4.00000000e-03
   46218,  2.31062272e-03,  9.57091277e-04,  4.00000000e-03
   46219,  2.16592956e-03,  1.25050002e-03,  4.00000000e-03
   46220,  1.98417674e-03,  1.52251237e-03,  4.00000000e-03
   46221,  1.76847411e-03,  1.76847411e-03,  4.00000000e-03
   46222,  1.76847411e-03, -1.76847411e-03,  4.66666667e-03
   46223,  1.98417674e-03, -1.52251237e-03,  4.66666667e-03
   46224,  2.16592956e-03, -1.25050002e-03,  4.66666667e-03
   46225,  2.31062272e-03, -9.57091277e-04,  4.66666667e-03
   46226,  2.41578050e-03, -6.47306439e-04,  4.66666667e-03
   46227,  2.47960360e-03, -3.26446010e-04,  4.66666667e-03
   46228,  2.50100000e-03,  2.22133423e-19,  4.66666667e-03
   46229,  2.47960360e-03,  3.26446010e-04,  4.66666667e-03
   46230,  2.41578050e-03,  6.47306439e-04,  4.66666667e-03
   46231,  2.31062272e-03,  9.57091277e-04,  4.66666667e-03
   46232,  2.16592956e-03,  1.25050002e-03,  4.66666667e-03
   46233,  1.98417674e-03,  1.52251237e-03,  4.66666667e-03
   46234,  1.76847411e-03,  1.76847411e-03,  4.66666667e-03
   46235,  1.76847411e-03, -1.76847411e-03,  5.33333333e-03
   46236,  1.98417674e-03, -1.52251237e-03,  5.33333333e-03
   46237,  2.16592956e-03, -1.25050002e-03,  5.33333333e-03
   46238,  2.31062272e-03, -9.57091277e-04,  5.33333333e-03
   46239,  2.41578050e-03, -6.47306439e-04,  5.33333333e-03
   46240,  2.47960360e-03, -3.26446010e-04,  5.33333333e-03
   46241,  2.50100000e-03,  2.22133423e-19,  5.33333333e-03
   46242,  2.47960360e-03,  3.26446010e-04,  5.33333333e-03
   46243,  2.41578050e-03,  6.47306439e-04,  5.33333333e-03
   46244,  2.31062272e-03,  9.57091277e-04,  5.33333333e-03
   46245,  2.16592956e-03,  1.25050002e-03,  5.33333333e-03
   46246,  1.98417674e-03,  1.52251237e-03,  5.33333333e-03
   46247,  1.76847411e-03,  1.76847411e-03,  5.33333333e-03
   46248,  1.76847411e-03, -1.76847411e-03,  6.00000000e-03
   46249,  1.98417674e-03, -1.52251237e-03,  6.00000000e-03
   46250,  2.16592956e-03, -1.25050002e-03,  6.00000000e-03
   46251,  2.31062272e-03, -9.57091277e-04,  6.00000000e-03
   46252,  2.41578050e-03, -6.47306439e-04,  6.00000000e-03
   46253,  2.47960360e-03, -3.26446010e-04,  6.00000000e-03
   46254,  2.50100000e-03,  2.22133423e-19,  6.00000000e-03
   46255,  2.47960360e-03,  3.26446010e-04,  6.00000000e-03
   46256,  2.41578050e-03,  6.47306439e-04,  6.00000000e-03
   46257,  2.31062272e-03,  9.57091277e-04,  6.00000000e-03
   46258,  2.16592956e-03,  1.25050002e-03,  6.00000000e-03
   46259,  1.98417674e-03,  1.52251237e-03,  6.00000000e-03
   46260,  1.76847411e-03,  1.76847411e-03,  6.00000000e-03
   46261,  1.76847411e-03, -1.76847411e-03,  6.66666667e-03
   46262,  1.98417674e-03, -1.52251237e-03,  6.66666667e-03
   46263,  2.16592956e-03, -1.25050002e-03,  6.66666667e-03
   46264,  2.31062272e-03, -9.57091277e-04,  6.66666667e-03
   46265,  2.41578050e-03, -6.47306439e-04,  6.66666667e-03
   46266,  2.47960360e-03, -3.26446010e-04,  6.66666667e-03
   46267,  2.50100000e-03,  2.22133423e-19,  6.66666667e-03
   46268,  2.47960360e-03,  3.26446010e-04,  6.66666667e-03
   46269,  2.41578050e-03,  6.47306439e-04,  6.66666667e-03
   46270,  2.31062272e-03,  9.57091277e-04,  6.66666667e-03
   46271,  2.16592956e-03,  1.25050002e-03,  6.66666667e-03
   46272,  1.98417674e-03,  1.52251237e-03,  6.66666667e-03
   46273,  1.76847411e-03,  1.76847411e-03,  6.66666667e-03
   46274,  1.76847411e-03, -1.76847411e-03,  7.33333333e-03
   46275,  1.98417674e-03, -1.52251237e-03,  7.33333333e-03
   46276,  2.16592956e-03, -1.25050002e-03,  7.33333333e-03
   46277,  2.31062272e-03, -9.57091277e-04,  7.33333333e-03
   46278,  2.41578050e-03, -6.47306439e-04,  7.33333333e-03
   46279,  2.47960360e-03, -3.26446010e-04,  7.33333333e-03
   46280,  2.50100000e-03,  2.22133423e-19,  7.33333333e-03
   46281,  2.47960360e-03,  3.26446010e-04,  7.33333333e-03
   46282,  2.41578050e-03,  6.47306439e-04,  7.33333333e-03
   46283,  2.31062272e-03,  9.57091277e-04,  7.33333333e-03
   46284,  2.16592956e-03,  1.25050002e-03,  7.33333333e-03
   46285,  1.98417674e-03,  1.52251237e-03,  7.33333333e-03
   46286,  1.76847411e-03,  1.76847411e-03,  7.33333333e-03
   46287,  1.76847411e-03, -1.76847411e-03,  8.00000000e-03
   46288,  1.98417674e-03, -1.52251237e-03,  8.00000000e-03
   46289,  2.16592956e-03, -1.25050002e-03,  8.00000000e-03
   46290,  2.31062272e-03, -9.57091277e-04,  8.00000000e-03
   46291,  2.41578050e-03, -6.47306439e-04,  8.00000000e-03
   46292,  2.47960360e-03, -3.26446010e-04,  8.00000000e-03
   46293,  2.50100000e-03,  2.22133423e-19,  8.00000000e-03
   46294,  2.47960360e-03,  3.26446010e-04,  8.00000000e-03
   46295,  2.41578050e-03,  6.47306439e-04,  8.00000000e-03
   46296,  2.31062272e-03,  9.57091277e-04,  8.00000000e-03
   46297,  2.16592956e-03,  1.25050002e-03,  8.00000000e-03
   46298,  1.98417674e-03,  1.52251237e-03,  8.00000000e-03
   46299,  1.76847411e-03,  1.76847411e-03,  8.00000000e-03
   46300,  1.76847411e-03, -1.76847411e-03,  8.66666667e-03
   46301,  1.98417674e-03, -1.52251237e-03,  8.66666667e-03
   46302,  2.16592956e-03, -1.25050002e-03,  8.66666667e-03
   46303,  2.31062272e-03, -9.57091277e-04,  8.66666667e-03
   46304,  2.41578050e-03, -6.47306439e-04,  8.66666667e-03
   46305,  2.47960360e-03, -3.26446010e-04,  8.66666667e-03
   46306,  2.50100000e-03,  2.22133423e-19,  8.66666667e-03
   46307,  2.47960360e-03,  3.26446010e-04,  8.66666667e-03
   46308,  2.41578050e-03,  6.47306439e-04,  8.66666667e-03
   46309,  2.31062272e-03,  9.57091277e-04,  8.66666667e-03
   46310,  2.16592956e-03,  1.25050002e-03,  8.66666667e-03
   46311,  1.98417674e-03,  1.52251237e-03,  8.66666667e-03
   46312,  1.76847411e-03,  1.76847411e-03,  8.66666667e-03
   46313,  1.76847411e-03, -1.76847411e-03,  9.33333333e-03
   46314,  1.98417674e-03, -1.52251237e-03,  9.33333333e-03
   46315,  2.16592956e-03, -1.25050002e-03,  9.33333333e-03
   46316,  2.31062272e-03, -9.57091277e-04,  9.33333333e-03
   46317,  2.41578050e-03, -6.47306439e-04,  9.33333333e-03
   46318,  2.47960360e-03, -3.26446010e-04,  9.33333333e-03
   46319,  2.50100000e-03,  2.22133423e-19,  9.33333333e-03
   46320,  2.47960360e-03,  3.26446010e-04,  9.33333333e-03
   46321,  2.41578050e-03,  6.47306439e-04,  9.33333333e-03
   46322,  2.31062272e-03,  9.57091277e-04,  9.33333333e-03
   46323,  2.16592956e-03,  1.25050002e-03,  9.33333333e-03
   46324,  1.98417674e-03,  1.52251237e-03,  9.33333333e-03
   46325,  1.76847411e-03,  1.76847411e-03,  9.33333333e-03
   46326,  1.76847411e-03, -1.76847411e-03,  1.00000000e-02
   46327,  1.98417674e-03, -1.52251237e-03,  1.00000000e-02
   46328,  2.16592956e-03, -1.25050002e-03,  1.00000000e-02
   46329,  2.31062272e-03, -9.57091277e-04,  1.00000000e-02
   46330,  2.41578050e-03, -6.47306439e-04,  1.00000000e-02
   46331,  2.47960360e-03, -3.26446010e-04,  1.00000000e-02
   46332,  2.50100000e-03,  2.22133423e-19,  1.00000000e-02
   46333,  2.47960360e-03,  3.26446010e-04,  1.00000000e-02
   46334,  2.41578050e-03,  6.47306439e-04,  1.00000000e-02
   46335,  2.31062272e-03,  9.57091277e-04,  1.00000000e-02
   46336,  2.16592956e-03,  1.25050002e-03,  1.00000000e-02
   46337,  1.98417674e-03,  1.52251237e-03,  1.00000000e-02
   46338,  1.76847411e-03,  1.76847411e-03,  1.00000000e-02
   46339,  1.76847411e-03, -1.76847411e-03,  1.06666667e-02
   46340,  1.98417674e-03, -1.52251237e-03,  1.06666667e-02
   46341,  2.16592956e-03, -1.25050002e-03,  1.06666667e-02
   46342,  2.31062272e-03, -9.57091277e-04,  1.06666667e-02
   46343,  2.41578050e-03, -6.47306439e-04,  1.06666667e-02
   46344,  2.47960360e-03, -3.26446010e-04,  1.06666667e-02
   46345,  2.50100000e-03,  2.22133423e-19,  1.06666667e-02
   46346,  2.47960360e-03,  3.26446010e-04,  1.06666667e-02
   46347,  2.41578050e-03,  6.47306439e-04,  1.06666667e-02
   46348,  2.31062272e-03,  9.57091277e-04,  1.06666667e-02
   46349,  2.16592956e-03,  1.25050002e-03,  1.06666667e-02
   46350,  1.98417674e-03,  1.52251237e-03,  1.06666667e-02
   46351,  1.76847411e-03,  1.76847411e-03,  1.06666667e-02
   46352,  1.76847411e-03, -1.76847411e-03,  1.13333333e-02
   46353,  1.98417674e-03, -1.52251237e-03,  1.13333333e-02
   46354,  2.16592956e-03, -1.25050002e-03,  1.13333333e-02
   46355,  2.31062272e-03, -9.57091277e-04,  1.13333333e-02
   46356,  2.41578050e-03, -6.47306439e-04,  1.13333333e-02
   46357,  2.47960360e-03, -3.26446010e-04,  1.13333333e-02
   46358,  2.50100000e-03,  2.22133423e-19,  1.13333333e-02
   46359,  2.47960360e-03,  3.26446010e-04,  1.13333333e-02
   46360,  2.41578050e-03,  6.47306439e-04,  1.13333333e-02
   46361,  2.31062272e-03,  9.57091277e-04,  1.13333333e-02
   46362,  2.16592956e-03,  1.25050002e-03,  1.13333333e-02
   46363,  1.98417674e-03,  1.52251237e-03,  1.13333333e-02
   46364,  1.76847411e-03,  1.76847411e-03,  1.13333333e-02
   46365,  1.76847411e-03, -1.76847411e-03,  1.20000000e-02
   46366,  1.98417674e-03, -1.52251237e-03,  1.20000000e-02
   46367,  2.16592956e-03, -1.25050002e-03,  1.20000000e-02
   46368,  2.31062272e-03, -9.57091277e-04,  1.20000000e-02
   46369,  2.41578050e-03, -6.47306439e-04,  1.20000000e-02
   46370,  2.47960360e-03, -3.26446010e-04,  1.20000000e-02
   46371,  2.50100000e-03,  2.22133423e-19,  1.20000000e-02
   46372,  2.47960360e-03,  3.26446010e-04,  1.20000000e-02
   46373,  2.41578050e-03,  6.47306439e-04,  1.20000000e-02
   46374,  2.31062272e-03,  9.57091277e-04,  1.20000000e-02
   46375,  2.16592956e-03,  1.25050002e-03,  1.20000000e-02
   46376,  1.98417674e-03,  1.52251237e-03,  1.20000000e-02
   46377,  1.76847411e-03,  1.76847411e-03,  1.20000000e-02
   46378,  1.76847411e-03, -1.76847411e-03,  1.26666667e-02
   46379,  1.98417674e-03, -1.52251237e-03,  1.26666667e-02
   46380,  2.16592956e-03, -1.25050002e-03,  1.26666667e-02
   46381,  2.31062272e-03, -9.57091277e-04,  1.26666667e-02
   46382,  2.41578050e-03, -6.47306439e-04,  1.26666667e-02
   46383,  2.47960360e-03, -3.26446010e-04,  1.26666667e-02
   46384,  2.50100000e-03,  2.22133423e-19,  1.26666667e-02
   46385,  2.47960360e-03,  3.26446010e-04,  1.26666667e-02
   46386,  2.41578050e-03,  6.47306439e-04,  1.26666667e-02
   46387,  2.31062272e-03,  9.57091277e-04,  1.26666667e-02
   46388,  2.16592956e-03,  1.25050002e-03,  1.26666667e-02
   46389,  1.98417674e-03,  1.52251237e-03,  1.26666667e-02
   46390,  1.76847411e-03,  1.76847411e-03,  1.26666667e-02
   46391,  1.76847411e-03, -1.76847411e-03,  1.33333333e-02
   46392,  1.98417674e-03, -1.52251237e-03,  1.33333333e-02
   46393,  2.16592956e-03, -1.25050002e-03,  1.33333333e-02
   46394,  2.31062272e-03, -9.57091277e-04,  1.33333333e-02
   46395,  2.41578050e-03, -6.47306439e-04,  1.33333333e-02
   46396,  2.47960360e-03, -3.26446010e-04,  1.33333333e-02
   46397,  2.50100000e-03,  2.22133423e-19,  1.33333333e-02
   46398,  2.47960360e-03,  3.26446010e-04,  1.33333333e-02
   46399,  2.41578050e-03,  6.47306439e-04,  1.33333333e-02
   46400,  2.31062272e-03,  9.57091277e-04,  1.33333333e-02
   46401,  2.16592956e-03,  1.25050002e-03,  1.33333333e-02
   46402,  1.98417674e-03,  1.52251237e-03,  1.33333333e-02
   46403,  1.76847411e-03,  1.76847411e-03,  1.33333333e-02
   46404,  1.76847411e-03, -1.76847411e-03,  1.40000000e-02
   46405,  1.98417674e-03, -1.52251237e-03,  1.40000000e-02
   46406,  2.16592956e-03, -1.25050002e-03,  1.40000000e-02
   46407,  2.31062272e-03, -9.57091277e-04,  1.40000000e-02
   46408,  2.41578050e-03, -6.47306439e-04,  1.40000000e-02
   46409,  2.47960360e-03, -3.26446010e-04,  1.40000000e-02
   46410,  2.50100000e-03,  2.22133423e-19,  1.40000000e-02
   46411,  2.47960360e-03,  3.26446010e-04,  1.40000000e-02
   46412,  2.41578050e-03,  6.47306439e-04,  1.40000000e-02
   46413,  2.31062272e-03,  9.57091277e-04,  1.40000000e-02
   46414,  2.16592956e-03,  1.25050002e-03,  1.40000000e-02
   46415,  1.98417674e-03,  1.52251237e-03,  1.40000000e-02
   46416,  1.76847411e-03,  1.76847411e-03,  1.40000000e-02
   46417,  1.76847411e-03, -1.76847411e-03,  1.46666667e-02
   46418,  1.98417674e-03, -1.52251237e-03,  1.46666667e-02
   46419,  2.16592956e-03, -1.25050002e-03,  1.46666667e-02
   46420,  2.31062272e-03, -9.57091277e-04,  1.46666667e-02
   46421,  2.41578050e-03, -6.47306439e-04,  1.46666667e-02
   46422,  2.47960360e-03, -3.26446010e-04,  1.46666667e-02
   46423,  2.50100000e-03,  2.22133423e-19,  1.46666667e-02
   46424,  2.47960360e-03,  3.26446010e-04,  1.46666667e-02
   46425,  2.41578050e-03,  6.47306439e-04,  1.46666667e-02
   46426,  2.31062272e-03,  9.57091277e-04,  1.46666667e-02
   46427,  2.16592956e-03,  1.25050002e-03,  1.46666667e-02
   46428,  1.98417674e-03,  1.52251237e-03,  1.46666667e-02
   46429,  1.76847411e-03,  1.76847411e-03,  1.46666667e-02
   46430,  1.76847411e-03, -1.76847411e-03,  1.53333333e-02
   46431,  1.98417674e-03, -1.52251237e-03,  1.53333333e-02
   46432,  2.16592956e-03, -1.25050002e-03,  1.53333333e-02
   46433,  2.31062272e-03, -9.57091277e-04,  1.53333333e-02
   46434,  2.41578050e-03, -6.47306439e-04,  1.53333333e-02
   46435,  2.47960360e-03, -3.26446010e-04,  1.53333333e-02
   46436,  2.50100000e-03,  2.22133423e-19,  1.53333333e-02
   46437,  2.47960360e-03,  3.26446010e-04,  1.53333333e-02
   46438,  2.41578050e-03,  6.47306439e-04,  1.53333333e-02
   46439,  2.31062272e-03,  9.57091277e-04,  1.53333333e-02
   46440,  2.16592956e-03,  1.25050002e-03,  1.53333333e-02
   46441,  1.98417674e-03,  1.52251237e-03,  1.53333333e-02
   46442,  1.76847411e-03,  1.76847411e-03,  1.53333333e-02
   46443,  1.76847411e-03, -1.76847411e-03,  1.60000000e-02
   46444,  1.98417674e-03, -1.52251237e-03,  1.60000000e-02
   46445,  2.16592956e-03, -1.25050002e-03,  1.60000000e-02
   46446,  2.31062272e-03, -9.57091277e-04,  1.60000000e-02
   46447,  2.41578050e-03, -6.47306439e-04,  1.60000000e-02
   46448,  2.47960360e-03, -3.26446010e-04,  1.60000000e-02
   46449,  2.50100000e-03,  2.22133423e-19,  1.60000000e-02
   46450,  2.47960360e-03,  3.26446010e-04,  1.60000000e-02
   46451,  2.41578050e-03,  6.47306439e-04,  1.60000000e-02
   46452,  2.31062272e-03,  9.57091277e-04,  1.60000000e-02
   46453,  2.16592956e-03,  1.25050002e-03,  1.60000000e-02
   46454,  1.98417674e-03,  1.52251237e-03,  1.60000000e-02
   46455,  1.76847411e-03,  1.76847411e-03,  1.60000000e-02
   46456,  1.76847411e-03, -1.76847411e-03,  1.66666667e-02
   46457,  1.98417674e-03, -1.52251237e-03,  1.66666667e-02
   46458,  2.16592956e-03, -1.25050002e-03,  1.66666667e-02
   46459,  2.31062272e-03, -9.57091277e-04,  1.66666667e-02
   46460,  2.41578050e-03, -6.47306439e-04,  1.66666667e-02
   46461,  2.47960360e-03, -3.26446010e-04,  1.66666667e-02
   46462,  2.50100000e-03,  2.22133423e-19,  1.66666667e-02
   46463,  2.47960360e-03,  3.26446010e-04,  1.66666667e-02
   46464,  2.41578050e-03,  6.47306439e-04,  1.66666667e-02
   46465,  2.31062272e-03,  9.57091277e-04,  1.66666667e-02
   46466,  2.16592956e-03,  1.25050002e-03,  1.66666667e-02
   46467,  1.98417674e-03,  1.52251237e-03,  1.66666667e-02
   46468,  1.76847411e-03,  1.76847411e-03,  1.66666667e-02
   46469,  1.76847411e-03, -1.76847411e-03,  1.73333333e-02
   46470,  1.98417674e-03, -1.52251237e-03,  1.73333333e-02
   46471,  2.16592956e-03, -1.25050002e-03,  1.73333333e-02
   46472,  2.31062272e-03, -9.57091277e-04,  1.73333333e-02
   46473,  2.41578050e-03, -6.47306439e-04,  1.73333333e-02
   46474,  2.47960360e-03, -3.26446010e-04,  1.73333333e-02
   46475,  2.50100000e-03,  2.22133423e-19,  1.73333333e-02
   46476,  2.47960360e-03,  3.26446010e-04,  1.73333333e-02
   46477,  2.41578050e-03,  6.47306439e-04,  1.73333333e-02
   46478,  2.31062272e-03,  9.57091277e-04,  1.73333333e-02
   46479,  2.16592956e-03,  1.25050002e-03,  1.73333333e-02
   46480,  1.98417674e-03,  1.52251237e-03,  1.73333333e-02
   46481,  1.76847411e-03,  1.76847411e-03,  1.73333333e-02
   46482,  1.76847411e-03, -1.76847411e-03,  1.80000000e-02
   46483,  1.98417674e-03, -1.52251237e-03,  1.80000000e-02
   46484,  2.16592956e-03, -1.25050002e-03,  1.80000000e-02
   46485,  2.31062272e-03, -9.57091277e-04,  1.80000000e-02
   46486,  2.41578050e-03, -6.47306439e-04,  1.80000000e-02
   46487,  2.47960360e-03, -3.26446010e-04,  1.80000000e-02
   46488,  2.50100000e-03,  2.22133423e-19,  1.80000000e-02
   46489,  2.47960360e-03,  3.26446010e-04,  1.80000000e-02
   46490,  2.41578050e-03,  6.47306439e-04,  1.80000000e-02
   46491,  2.31062272e-03,  9.57091277e-04,  1.80000000e-02
   46492,  2.16592956e-03,  1.25050002e-03,  1.80000000e-02
   46493,  1.98417674e-03,  1.52251237e-03,  1.80000000e-02
   46494,  1.76847411e-03,  1.76847411e-03,  1.80000000e-02
   46495,  1.76847411e-03, -1.76847411e-03,  1.86666667e-02
   46496,  1.98417674e-03, -1.52251237e-03,  1.86666667e-02
   46497,  2.16592956e-03, -1.25050002e-03,  1.86666667e-02
   46498,  2.31062272e-03, -9.57091277e-04,  1.86666667e-02
   46499,  2.41578050e-03, -6.47306439e-04,  1.86666667e-02
   46500,  2.47960360e-03, -3.26446010e-04,  1.86666667e-02
   46501,  2.50100000e-03,  2.22133423e-19,  1.86666667e-02
   46502,  2.47960360e-03,  3.26446010e-04,  1.86666667e-02
   46503,  2.41578050e-03,  6.47306439e-04,  1.86666667e-02
   46504,  2.31062272e-03,  9.57091277e-04,  1.86666667e-02
   46505,  2.16592956e-03,  1.25050002e-03,  1.86666667e-02
   46506,  1.98417674e-03,  1.52251237e-03,  1.86666667e-02
   46507,  1.76847411e-03,  1.76847411e-03,  1.86666667e-02
   46508,  1.76847411e-03, -1.76847411e-03,  1.93333333e-02
   46509,  1.98417674e-03, -1.52251237e-03,  1.93333333e-02
   46510,  2.16592956e-03, -1.25050002e-03,  1.93333333e-02
   46511,  2.31062272e-03, -9.57091277e-04,  1.93333333e-02
   46512,  2.41578050e-03, -6.47306439e-04,  1.93333333e-02
   46513,  2.47960360e-03, -3.26446010e-04,  1.93333333e-02
   46514,  2.50100000e-03,  2.22133423e-19,  1.93333333e-02
   46515,  2.47960360e-03,  3.26446010e-04,  1.93333333e-02
   46516,  2.41578050e-03,  6.47306439e-04,  1.93333333e-02
   46517,  2.31062272e-03,  9.57091277e-04,  1.93333333e-02
   46518,  2.16592956e-03,  1.25050002e-03,  1.93333333e-02
   46519,  1.98417674e-03,  1.52251237e-03,  1.93333333e-02
   46520,  1.76847411e-03,  1.76847411e-03,  1.93333333e-02
   46521,  1.76847411e-03, -1.76847411e-03,  2.00000000e-02
   46522,  1.98417674e-03, -1.52251237e-03,  2.00000000e-02
   46523,  2.16592956e-03, -1.25050002e-03,  2.00000000e-02
   46524,  2.31062272e-03, -9.57091277e-04,  2.00000000e-02
   46525,  2.41578050e-03, -6.47306439e-04,  2.00000000e-02
   46526,  2.47960360e-03, -3.26446010e-04,  2.00000000e-02
   46527,  2.50100000e-03,  2.22133423e-19,  2.00000000e-02
   46528,  2.47960360e-03,  3.26446010e-04,  2.00000000e-02
   46529,  2.41578050e-03,  6.47306439e-04,  2.00000000e-02
   46530,  2.31062272e-03,  9.57091277e-04,  2.00000000e-02
   46531,  2.16592956e-03,  1.25050002e-03,  2.00000000e-02
   46532,  1.98417674e-03,  1.52251237e-03,  2.00000000e-02
   46533,  1.76847411e-03,  1.76847411e-03,  2.00000000e-02
   46534,  1.76847411e-03, -1.76847411e-03,  2.06666667e-02
   46535,  1.98417674e-03, -1.52251237e-03,  2.06666667e-02
   46536,  2.16592956e-03, -1.25050002e-03,  2.06666667e-02
   46537,  2.31062272e-03, -9.57091277e-04,  2.06666667e-02
   46538,  2.41578050e-03, -6.47306439e-04,  2.06666667e-02
   46539,  2.47960360e-03, -3.26446010e-04,  2.06666667e-02
   46540,  2.50100000e-03,  2.22133423e-19,  2.06666667e-02
   46541,  2.47960360e-03,  3.26446010e-04,  2.06666667e-02
   46542,  2.41578050e-03,  6.47306439e-04,  2.06666667e-02
   46543,  2.31062272e-03,  9.57091277e-04,  2.06666667e-02
   46544,  2.16592956e-03,  1.25050002e-03,  2.06666667e-02
   46545,  1.98417674e-03,  1.52251237e-03,  2.06666667e-02
   46546,  1.76847411e-03,  1.76847411e-03,  2.06666667e-02
   46547,  1.76847411e-03, -1.76847411e-03,  2.13333333e-02
   46548,  1.98417674e-03, -1.52251237e-03,  2.13333333e-02
   46549,  2.16592956e-03, -1.25050002e-03,  2.13333333e-02
   46550,  2.31062272e-03, -9.57091277e-04,  2.13333333e-02
   46551,  2.41578050e-03, -6.47306439e-04,  2.13333333e-02
   46552,  2.47960360e-03, -3.26446010e-04,  2.13333333e-02
   46553,  2.50100000e-03,  2.22133423e-19,  2.13333333e-02
   46554,  2.47960360e-03,  3.26446010e-04,  2.13333333e-02
   46555,  2.41578050e-03,  6.47306439e-04,  2.13333333e-02
   46556,  2.31062272e-03,  9.57091277e-04,  2.13333333e-02
   46557,  2.16592956e-03,  1.25050002e-03,  2.13333333e-02
   46558,  1.98417674e-03,  1.52251237e-03,  2.13333333e-02
   46559,  1.76847411e-03,  1.76847411e-03,  2.13333333e-02
   46560,  1.76847411e-03, -1.76847411e-03,  2.20000000e-02
   46561,  1.98417674e-03, -1.52251237e-03,  2.20000000e-02
   46562,  2.16592956e-03, -1.25050002e-03,  2.20000000e-02
   46563,  2.31062272e-03, -9.57091277e-04,  2.20000000e-02
   46564,  2.41578050e-03, -6.47306439e-04,  2.20000000e-02
   46565,  2.47960360e-03, -3.26446010e-04,  2.20000000e-02
   46566,  2.50100000e-03,  2.22133423e-19,  2.20000000e-02
   46567,  2.47960360e-03,  3.26446010e-04,  2.20000000e-02
   46568,  2.41578050e-03,  6.47306439e-04,  2.20000000e-02
   46569,  2.31062272e-03,  9.57091277e-04,  2.20000000e-02
   46570,  2.16592956e-03,  1.25050002e-03,  2.20000000e-02
   46571,  1.98417674e-03,  1.52251237e-03,  2.20000000e-02
   46572,  1.76847411e-03,  1.76847411e-03,  2.20000000e-02
   46573,  1.76847411e-03, -1.76847411e-03,  2.26666667e-02
   46574,  1.98417674e-03, -1.52251237e-03,  2.26666667e-02
   46575,  2.16592956e-03, -1.25050002e-03,  2.26666667e-02
   46576,  2.31062272e-03, -9.57091277e-04,  2.26666667e-02
   46577,  2.41578050e-03, -6.47306439e-04,  2.26666667e-02
   46578,  2.41578050e-03,  6.47306439e-04,  2.26666667e-02
   46579,  2.31062272e-03,  9.57091277e-04,  2.26666667e-02
   46580,  2.16592956e-03,  1.25050002e-03,  2.26666667e-02
   46581,  1.98417674e-03,  1.52251237e-03,  2.26666667e-02
   46582,  1.76847411e-03,  1.76847411e-03,  2.26666667e-02
   46583,  1.76847411e-03, -1.76847411e-03,  2.33333333e-02
   46584,  1.98417674e-03, -1.52251237e-03,  2.33333333e-02
   46585,  2.16592956e-03, -1.25050002e-03,  2.33333333e-02
   46586,  2.31062272e-03, -9.57091277e-04,  2.33333333e-02
   46587,  2.41578050e-03, -6.47306439e-04,  2.33333333e-02
   46588,  2.47960360e-03, -3.26446010e-04,  2.33333333e-02
   46589,  2.50100000e-03,  2.22133423e-19,  2.33333333e-02
   46590,  2.47960360e-03,  3.26446010e-04,  2.33333333e-02
   46591,  2.41578050e-03,  6.47306439e-04,  2.33333333e-02
   46592,  2.31062272e-03,  9.57091277e-04,  2.33333333e-02
   46593,  2.16592956e-03,  1.25050002e-03,  2.33333333e-02
   46594,  1.98417674e-03,  1.52251237e-03,  2.33333333e-02
   46595,  1.76847411e-03,  1.76847411e-03,  2.33333333e-02
   46596,  1.76847411e-03, -1.76847411e-03,  2.40000000e-02
   46597,  1.98417674e-03, -1.52251237e-03,  2.40000000e-02
   46598,  2.16592956e-03, -1.25050002e-03,  2.40000000e-02
   46599,  2.31062272e-03, -9.57091277e-04,  2.40000000e-02
   46600,  2.41578050e-03, -6.47306439e-04,  2.40000000e-02
   46601,  2.47960360e-03, -3.26446010e-04,  2.40000000e-02
   46602,  2.50100000e-03,  2.22133423e-19,  2.40000000e-02
   46603,  2.47960360e-03,  3.26446010e-04,  2.40000000e-02
   46604,  2.41578050e-03,  6.47306439e-04,  2.40000000e-02
   46605,  2.31062272e-03,  9.57091277e-04,  2.40000000e-02
   46606,  2.16592956e-03,  1.25050002e-03,  2.40000000e-02
   46607,  1.98417674e-03,  1.52251237e-03,  2.40000000e-02
   46608,  1.76847411e-03,  1.76847411e-03,  2.40000000e-02
   46609,  1.76847411e-03, -1.76847411e-03,  2.46666667e-02
   46610,  1.98417674e-03, -1.52251237e-03,  2.46666667e-02
   46611,  2.16592956e-03, -1.25050002e-03,  2.46666667e-02
   46612,  2.31062272e-03, -9.57091277e-04,  2.46666667e-02
   46613,  2.41578050e-03, -6.47306439e-04,  2.46666667e-02
   46614,  2.47960360e-03, -3.26446010e-04,  2.46666667e-02
   46615,  2.50100000e-03,  2.22133423e-19,  2.46666667e-02
   46616,  2.47960360e-03,  3.26446010e-04,  2.46666667e-02
   46617,  2.41578050e-03,  6.47306439e-04,  2.46666667e-02
   46618,  2.31062272e-03,  9.57091277e-04,  2.46666667e-02
   46619,  2.16592956e-03,  1.25050002e-03,  2.46666667e-02
   46620,  1.98417674e-03,  1.52251237e-03,  2.46666667e-02
   46621,  1.76847411e-03,  1.76847411e-03,  2.46666667e-02
   46622,  1.76847411e-03, -1.76847411e-03,  2.53333333e-02
   46623,  1.98417674e-03, -1.52251237e-03,  2.53333333e-02
   46624,  2.16592956e-03, -1.25050002e-03,  2.53333333e-02
   46625,  2.31062272e-03, -9.57091277e-04,  2.53333333e-02
   46626,  2.41578050e-03, -6.47306439e-04,  2.53333333e-02
   46627,  2.47960360e-03, -3.26446010e-04,  2.53333333e-02
   46628,  2.50100000e-03,  2.22133423e-19,  2.53333333e-02
   46629,  2.47960360e-03,  3.26446010e-04,  2.53333333e-02
   46630,  2.41578050e-03,  6.47306439e-04,  2.53333333e-02
   46631,  2.31062272e-03,  9.57091277e-04,  2.53333333e-02
   46632,  2.16592956e-03,  1.25050002e-03,  2.53333333e-02
   46633,  1.98417674e-03,  1.52251237e-03,  2.53333333e-02
   46634,  1.76847411e-03,  1.76847411e-03,  2.53333333e-02
   46635,  1.76847411e-03, -1.76847411e-03,  2.60000000e-02
   46636,  1.98417674e-03, -1.52251237e-03,  2.60000000e-02
   46637,  2.16592956e-03, -1.25050002e-03,  2.60000000e-02
   46638,  2.31062272e-03, -9.57091277e-04,  2.60000000e-02
   46639,  2.41578050e-03, -6.47306439e-04,  2.60000000e-02
   46640,  2.47960360e-03, -3.26446010e-04,  2.60000000e-02
   46641,  2.50100000e-03,  2.22133423e-19,  2.60000000e-02
   46642,  2.47960360e-03,  3.26446010e-04,  2.60000000e-02
   46643,  2.41578050e-03,  6.47306439e-04,  2.60000000e-02
   46644,  2.31062272e-03,  9.57091277e-04,  2.60000000e-02
   46645,  2.16592956e-03,  1.25050002e-03,  2.60000000e-02
   46646,  1.98417674e-03,  1.52251237e-03,  2.60000000e-02
   46647,  1.76847411e-03,  1.76847411e-03,  2.60000000e-02
   46648,  1.76847411e-03, -1.76847411e-03,  2.66666667e-02
   46649,  1.98417674e-03, -1.52251237e-03,  2.66666667e-02
   46650,  2.16592956e-03, -1.25050002e-03,  2.66666667e-02
   46651,  2.31062272e-03, -9.57091277e-04,  2.66666667e-02
   46652,  2.41578050e-03, -6.47306439e-04,  2.66666667e-02
   46653,  2.47960360e-03, -3.26446010e-04,  2.66666667e-02
   46654,  2.50100000e-03,  2.22133423e-19,  2.66666667e-02
   46655,  2.47960360e-03,  3.26446010e-04,  2.66666667e-02
   46656,  2.41578050e-03,  6.47306439e-04,  2.66666667e-02
   46657,  2.31062272e-03,  9.57091277e-04,  2.66666667e-02
   46658,  2.16592956e-03,  1.25050002e-03,  2.66666667e-02
   46659,  1.98417674e-03,  1.52251237e-03,  2.66666667e-02
   46660,  1.76847411e-03,  1.76847411e-03,  2.66666667e-02
   46661,  1.76847411e-03, -1.76847411e-03,  2.73333333e-02
   46662,  1.98417674e-03, -1.52251237e-03,  2.73333333e-02
   46663,  2.16592956e-03, -1.25050002e-03,  2.73333333e-02
   46664,  2.31062272e-03, -9.57091277e-04,  2.73333333e-02
   46665,  2.41578050e-03, -6.47306439e-04,  2.73333333e-02
   46666,  2.47960360e-03, -3.26446010e-04,  2.73333333e-02
   46667,  2.50100000e-03,  2.22133423e-19,  2.73333333e-02
   46668,  2.47960360e-03,  3.26446010e-04,  2.73333333e-02
   46669,  2.41578050e-03,  6.47306439e-04,  2.73333333e-02
   46670,  2.31062272e-03,  9.57091277e-04,  2.73333333e-02
   46671,  2.16592956e-03,  1.25050002e-03,  2.73333333e-02
   46672,  1.98417674e-03,  1.52251237e-03,  2.73333333e-02
   46673,  1.76847411e-03,  1.76847411e-03,  2.73333333e-02
   46674,  1.76847411e-03, -1.76847411e-03,  2.80000000e-02
   46675,  1.98417674e-03, -1.52251237e-03,  2.80000000e-02
   46676,  2.16592956e-03, -1.25050002e-03,  2.80000000e-02
   46677,  2.31062272e-03, -9.57091277e-04,  2.80000000e-02
   46678,  2.41578050e-03, -6.47306439e-04,  2.80000000e-02
   46679,  2.47960360e-03, -3.26446010e-04,  2.80000000e-02
   46680,  2.50100000e-03,  2.22133423e-19,  2.80000000e-02
   46681,  2.47960360e-03,  3.26446010e-04,  2.80000000e-02
   46682,  2.41578050e-03,  6.47306439e-04,  2.80000000e-02
   46683,  2.31062272e-03,  9.57091277e-04,  2.80000000e-02
   46684,  2.16592956e-03,  1.25050002e-03,  2.80000000e-02
   46685,  1.98417674e-03,  1.52251237e-03,  2.80000000e-02
   46686,  1.76847411e-03,  1.76847411e-03,  2.80000000e-02
   46687,  1.76847411e-03, -1.76847411e-03,  2.86666667e-02
   46688,  1.98417674e-03, -1.52251237e-03,  2.86666667e-02
   46689,  2.16592956e-03, -1.25050002e-03,  2.86666667e-02
   46690,  2.31062272e-03, -9.57091277e-04,  2.86666667e-02
   46691,  2.41578050e-03, -6.47306439e-04,  2.86666667e-02
   46692,  2.47960360e-03, -3.26446010e-04,  2.86666667e-02
   46693,  2.50100000e-03,  2.22133423e-19,  2.86666667e-02
   46694,  2.47960360e-03,  3.26446010e-04,  2.86666667e-02
   46695,  2.41578050e-03,  6.47306439e-04,  2.86666667e-02
   46696,  2.31062272e-03,  9.57091277e-04,  2.86666667e-02
   46697,  2.16592956e-03,  1.25050002e-03,  2.86666667e-02
   46698,  1.98417674e-03,  1.52251237e-03,  2.86666667e-02
   46699,  1.76847411e-03,  1.76847411e-03,  2.86666667e-02
   46700,  1.76847411e-03, -1.76847411e-03,  2.93333333e-02
   46701,  1.98417674e-03, -1.52251237e-03,  2.93333333e-02
   46702,  2.16592956e-03, -1.25050002e-03,  2.93333333e-02
   46703,  2.31062272e-03, -9.57091277e-04,  2.93333333e-02
   46704,  2.41578050e-03, -6.47306439e-04,  2.93333333e-02
   46705,  2.47960360e-03, -3.26446010e-04,  2.93333333e-02
   46706,  2.50100000e-03,  2.22133423e-19,  2.93333333e-02
   46707,  2.47960360e-03,  3.26446010e-04,  2.93333333e-02
   46708,  2.41578050e-03,  6.47306439e-04,  2.93333333e-02
   46709,  2.31062272e-03,  9.57091277e-04,  2.93333333e-02
   46710,  2.16592956e-03,  1.25050002e-03,  2.93333333e-02
   46711,  1.98417674e-03,  1.52251237e-03,  2.93333333e-02
   46712,  1.76847411e-03,  1.76847411e-03,  2.93333333e-02
   46713,  1.76847411e-03, -1.76847411e-03,  3.00000000e-02
   46714,  1.98417674e-03, -1.52251237e-03,  3.00000000e-02
   46715,  2.16592956e-03, -1.25050002e-03,  3.00000000e-02
   46716,  2.31062272e-03, -9.57091277e-04,  3.00000000e-02
   46717,  2.41578050e-03, -6.47306439e-04,  3.00000000e-02
   46718,  2.47960360e-03, -3.26446010e-04,  3.00000000e-02
   46719,  2.50100000e-03,  2.22133423e-19,  3.00000000e-02
   46720,  2.47960360e-03,  3.26446010e-04,  3.00000000e-02
   46721,  2.41578050e-03,  6.47306439e-04,  3.00000000e-02
   46722,  2.31062272e-03,  9.57091277e-04,  3.00000000e-02
   46723,  2.16592956e-03,  1.25050002e-03,  3.00000000e-02
   46724,  1.98417674e-03,  1.52251237e-03,  3.00000000e-02
   46725,  1.76847411e-03,  1.76847411e-03,  3.00000000e-02
   46726,  1.52251237e-03,  1.98417674e-03,  0.00000000e+00
   46727,  1.25050002e-03,  2.16592956e-03,  0.00000000e+00
   46728,  9.57091277e-04,  2.31062272e-03,  0.00000000e+00
   46729,  6.47306439e-04,  2.41578050e-03,  0.00000000e+00
   46730,  3.26446010e-04,  2.47960360e-03,  0.00000000e+00
   46731,  2.22133423e-19,  2.50100000e-03,  0.00000000e+00
   46732, -3.26446010e-04,  2.47960360e-03,  0.00000000e+00
   46733, -6.47306439e-04,  2.41578050e-03,  0.00000000e+00
   46734, -9.57091277e-04,  2.31062272e-03,  0.00000000e+00
   46735, -1.25050002e-03,  2.16592956e-03,  0.00000000e+00
   46736, -1.52251237e-03,  1.98417674e-03,  0.00000000e+00
   46737, -1.76847411e-03,  1.76847411e-03,  0.00000000e+00
   46738,  1.52251237e-03,  1.98417674e-03,  6.66666667e-04
   46739,  1.25050002e-03,  2.16592956e-03,  6.66666667e-04
   46740,  9.57091277e-04,  2.31062272e-03,  6.66666667e-04
   46741,  6.47306439e-04,  2.41578050e-03,  6.66666667e-04
   46742,  3.26446010e-04,  2.47960360e-03,  6.66666667e-04
   46743,  2.22133423e-19,  2.50100000e-03,  6.66666667e-04
   46744, -3.26446010e-04,  2.47960360e-03,  6.66666667e-04
   46745, -6.47306439e-04,  2.41578050e-03,  6.66666667e-04
   46746, -9.57091277e-04,  2.31062272e-03,  6.66666667e-04
   46747, -1.25050002e-03,  2.16592956e-03,  6.66666667e-04
   46748, -1.52251237e-03,  1.98417674e-03,  6.66666667e-04
   46749, -1.76847411e-03,  1.76847411e-03,  6.66666667e-04
   46750,  1.52251237e-03,  1.98417674e-03,  1.33333333e-03
   46751,  1.25050002e-03,  2.16592956e-03,  1.33333333e-03
   46752,  9.57091277e-04,  2.31062272e-03,  1.33333333e-03
   46753,  6.47306439e-04,  2.41578050e-03,  1.33333333e-03
   46754,  3.26446010e-04,  2.47960360e-03,  1.33333333e-03
   46755,  2.22133423e-19,  2.50100000e-03,  1.33333333e-03
   46756, -3.26446010e-04,  2.47960360e-03,  1.33333333e-03
   46757, -6.47306439e-04,  2.41578050e-03,  1.33333333e-03
   46758, -9.57091277e-04,  2.31062272e-03,  1.33333333e-03
   46759, -1.25050002e-03,  2.16592956e-03,  1.33333333e-03
   46760, -1.52251237e-03,  1.98417674e-03,  1.33333333e-03
   46761, -1.76847411e-03,  1.76847411e-03,  1.33333333e-03
   46762,  1.52251237e-03,  1.98417674e-03,  2.00000000e-03
   46763,  1.25050002e-03,  2.16592956e-03,  2.00000000e-03
   46764,  9.57091277e-04,  2.31062272e-03,  2.00000000e-03
   46765,  6.47306439e-04,  2.41578050e-03,  2.00000000e-03
   46766,  3.26446010e-04,  2.47960360e-03,  2.00000000e-03
   46767,  2.22133423e-19,  2.50100000e-03,  2.00000000e-03
   46768, -3.26446010e-04,  2.47960360e-03,  2.00000000e-03
   46769, -6.47306439e-04,  2.41578050e-03,  2.00000000e-03
   46770, -9.57091277e-04,  2.31062272e-03,  2.00000000e-03
   46771, -1.25050002e-03,  2.16592956e-03,  2.00000000e-03
   46772, -1.52251237e-03,  1.98417674e-03,  2.00000000e-03
   46773, -1.76847411e-03,  1.76847411e-03,  2.00000000e-03
   46774,  1.52251237e-03,  1.98417674e-03,  2.66666667e-03
   46775,  1.25050002e-03,  2.16592956e-03,  2.66666667e-03
   46776,  9.57091277e-04,  2.31062272e-03,  2.66666667e-03
   46777,  6.47306439e-04,  2.41578050e-03,  2.66666667e-03
   46778,  3.26446010e-04,  2.47960360e-03,  2.66666667e-03
   46779,  2.22133423e-19,  2.50100000e-03,  2.66666667e-03
   46780, -3.26446010e-04,  2.47960360e-03,  2.66666667e-03
   46781, -6.47306439e-04,  2.41578050e-03,  2.66666667e-03
   46782, -9.57091277e-04,  2.31062272e-03,  2.66666667e-03
   46783, -1.25050002e-03,  2.16592956e-03,  2.66666667e-03
   46784, -1.52251237e-03,  1.98417674e-03,  2.66666667e-03
   46785, -1.76847411e-03,  1.76847411e-03,  2.66666667e-03
   46786,  1.52251237e-03,  1.98417674e-03,  3.33333333e-03
   46787,  1.25050002e-03,  2.16592956e-03,  3.33333333e-03
   46788,  9.57091277e-04,  2.31062272e-03,  3.33333333e-03
   46789,  6.47306439e-04,  2.41578050e-03,  3.33333333e-03
   46790,  3.26446010e-04,  2.47960360e-03,  3.33333333e-03
   46791,  2.22133423e-19,  2.50100000e-03,  3.33333333e-03
   46792, -3.26446010e-04,  2.47960360e-03,  3.33333333e-03
   46793, -6.47306439e-04,  2.41578050e-03,  3.33333333e-03
   46794, -9.57091277e-04,  2.31062272e-03,  3.33333333e-03
   46795, -1.25050002e-03,  2.16592956e-03,  3.33333333e-03
   46796, -1.52251237e-03,  1.98417674e-03,  3.33333333e-03
   46797, -1.76847411e-03,  1.76847411e-03,  3.33333333e-03
   46798,  1.52251237e-03,  1.98417674e-03,  4.00000000e-03
   46799,  1.25050002e-03,  2.16592956e-03,  4.00000000e-03
   46800,  9.57091277e-04,  2.31062272e-03,  4.00000000e-03
   46801,  6.47306439e-04,  2.41578050e-03,  4.00000000e-03
   46802,  3.26446010e-04,  2.47960360e-03,  4.00000000e-03
   46803,  2.22133423e-19,  2.50100000e-03,  4.00000000e-03
   46804, -3.26446010e-04,  2.47960360e-03,  4.00000000e-03
   46805, -6.47306439e-04,  2.41578050e-03,  4.00000000e-03
   46806, -9.57091277e-04,  2.31062272e-03,  4.00000000e-03
   46807, -1.25050002e-03,  2.16592956e-03,  4.00000000e-03
   46808, -1.52251237e-03,  1.98417674e-03,  4.00000000e-03
   46809, -1.76847411e-03,  1.76847411e-03,  4.00000000e-03
   46810,  1.52251237e-03,  1.98417674e-03,  4.66666667e-03
   46811,  1.25050002e-03,  2.16592956e-03,  4.66666667e-03
   46812,  9.57091277e-04,  2.31062272e-03,  4.66666667e-03
   46813,  6.47306439e-04,  2.41578050e-03,  4.66666667e-03
   46814,  3.26446010e-04,  2.47960360e-03,  4.66666667e-03
   46815,  2.22133423e-19,  2.50100000e-03,  4.66666667e-03
   46816, -3.26446010e-04,  2.47960360e-03,  4.66666667e-03
   46817, -6.47306439e-04,  2.41578050e-03,  4.66666667e-03
   46818, -9.57091277e-04,  2.31062272e-03,  4.66666667e-03
   46819, -1.25050002e-03,  2.16592956e-03,  4.66666667e-03
   46820, -1.52251237e-03,  1.98417674e-03,  4.66666667e-03
   46821, -1.76847411e-03,  1.76847411e-03,  4.66666667e-03
   46822,  1.52251237e-03,  1.98417674e-03,  5.33333333e-03
   46823,  1.25050002e-03,  2.16592956e-03,  5.33333333e-03
   46824,  9.57091277e-04,  2.31062272e-03,  5.33333333e-03
   46825,  6.47306439e-04,  2.41578050e-03,  5.33333333e-03
   46826,  3.26446010e-04,  2.47960360e-03,  5.33333333e-03
   46827,  2.22133423e-19,  2.50100000e-03,  5.33333333e-03
   46828, -3.26446010e-04,  2.47960360e-03,  5.33333333e-03
   46829, -6.47306439e-04,  2.41578050e-03,  5.33333333e-03
   46830, -9.57091277e-04,  2.31062272e-03,  5.33333333e-03
   46831, -1.25050002e-03,  2.16592956e-03,  5.33333333e-03
   46832, -1.52251237e-03,  1.98417674e-03,  5.33333333e-03
   46833, -1.76847411e-03,  1.76847411e-03,  5.33333333e-03
   46834,  1.52251237e-03,  1.98417674e-03,  6.00000000e-03
   46835,  1.25050002e-03,  2.16592956e-03,  6.00000000e-03
   46836,  9.57091277e-04,  2.31062272e-03,  6.00000000e-03
   46837,  6.47306439e-04,  2.41578050e-03,  6.00000000e-03
   46838,  3.26446010e-04,  2.47960360e-03,  6.00000000e-03
   46839,  2.22133423e-19,  2.50100000e-03,  6.00000000e-03
   46840, -3.26446010e-04,  2.47960360e-03,  6.00000000e-03
   46841, -6.47306439e-04,  2.41578050e-03,  6.00000000e-03
   46842, -9.57091277e-04,  2.31062272e-03,  6.00000000e-03
   46843, -1.25050002e-03,  2.16592956e-03,  6.00000000e-03
   46844, -1.52251237e-03,  1.98417674e-03,  6.00000000e-03
   46845, -1.76847411e-03,  1.76847411e-03,  6.00000000e-03
   46846,  1.52251237e-03,  1.98417674e-03,  6.66666667e-03
   46847,  1.25050002e-03,  2.16592956e-03,  6.66666667e-03
   46848,  9.57091277e-04,  2.31062272e-03,  6.66666667e-03
   46849,  6.47306439e-04,  2.41578050e-03,  6.66666667e-03
   46850,  3.26446010e-04,  2.47960360e-03,  6.66666667e-03
   46851,  2.22133423e-19,  2.50100000e-03,  6.66666667e-03
   46852, -3.26446010e-04,  2.47960360e-03,  6.66666667e-03
   46853, -6.47306439e-04,  2.41578050e-03,  6.66666667e-03
   46854, -9.57091277e-04,  2.31062272e-03,  6.66666667e-03
   46855, -1.25050002e-03,  2.16592956e-03,  6.66666667e-03
   46856, -1.52251237e-03,  1.98417674e-03,  6.66666667e-03
   46857, -1.76847411e-03,  1.76847411e-03,  6.66666667e-03
   46858,  1.52251237e-03,  1.98417674e-03,  7.33333333e-03
   46859,  1.25050002e-03,  2.16592956e-03,  7.33333333e-03
   46860,  9.57091277e-04,  2.31062272e-03,  7.33333333e-03
   46861,  6.47306439e-04,  2.41578050e-03,  7.33333333e-03
   46862,  3.26446010e-04,  2.47960360e-03,  7.33333333e-03
   46863,  2.22133423e-19,  2.50100000e-03,  7.33333333e-03
   46864, -3.26446010e-04,  2.47960360e-03,  7.33333333e-03
   46865, -6.47306439e-04,  2.41578050e-03,  7.33333333e-03
   46866, -9.57091277e-04,  2.31062272e-03,  7.33333333e-03
   46867, -1.25050002e-03,  2.16592956e-03,  7.33333333e-03
   46868, -1.52251237e-03,  1.98417674e-03,  7.33333333e-03
   46869, -1.76847411e-03,  1.76847411e-03,  7.33333333e-03
   46870,  1.52251237e-03,  1.98417674e-03,  8.00000000e-03
   46871,  1.25050002e-03,  2.16592956e-03,  8.00000000e-03
   46872,  9.57091277e-04,  2.31062272e-03,  8.00000000e-03
   46873,  6.47306439e-04,  2.41578050e-03,  8.00000000e-03
   46874,  3.26446010e-04,  2.47960360e-03,  8.00000000e-03
   46875,  2.22133423e-19,  2.50100000e-03,  8.00000000e-03
   46876, -3.26446010e-04,  2.47960360e-03,  8.00000000e-03
   46877, -6.47306439e-04,  2.41578050e-03,  8.00000000e-03
   46878, -9.57091277e-04,  2.31062272e-03,  8.00000000e-03
   46879, -1.25050002e-03,  2.16592956e-03,  8.00000000e-03
   46880, -1.52251237e-03,  1.98417674e-03,  8.00000000e-03
   46881, -1.76847411e-03,  1.76847411e-03,  8.00000000e-03
   46882,  1.52251237e-03,  1.98417674e-03,  8.66666667e-03
   46883,  1.25050002e-03,  2.16592956e-03,  8.66666667e-03
   46884,  9.57091277e-04,  2.31062272e-03,  8.66666667e-03
   46885,  6.47306439e-04,  2.41578050e-03,  8.66666667e-03
   46886,  3.26446010e-04,  2.47960360e-03,  8.66666667e-03
   46887,  2.22133423e-19,  2.50100000e-03,  8.66666667e-03
   46888, -3.26446010e-04,  2.47960360e-03,  8.66666667e-03
   46889, -6.47306439e-04,  2.41578050e-03,  8.66666667e-03
   46890, -9.57091277e-04,  2.31062272e-03,  8.66666667e-03
   46891, -1.25050002e-03,  2.16592956e-03,  8.66666667e-03
   46892, -1.52251237e-03,  1.98417674e-03,  8.66666667e-03
   46893, -1.76847411e-03,  1.76847411e-03,  8.66666667e-03
   46894,  1.52251237e-03,  1.98417674e-03,  9.33333333e-03
   46895,  1.25050002e-03,  2.16592956e-03,  9.33333333e-03
   46896,  9.57091277e-04,  2.31062272e-03,  9.33333333e-03
   46897,  6.47306439e-04,  2.41578050e-03,  9.33333333e-03
   46898,  3.26446010e-04,  2.47960360e-03,  9.33333333e-03
   46899,  2.22133423e-19,  2.50100000e-03,  9.33333333e-03
   46900, -3.26446010e-04,  2.47960360e-03,  9.33333333e-03
   46901, -6.47306439e-04,  2.41578050e-03,  9.33333333e-03
   46902, -9.57091277e-04,  2.31062272e-03,  9.33333333e-03
   46903, -1.25050002e-03,  2.16592956e-03,  9.33333333e-03
   46904, -1.52251237e-03,  1.98417674e-03,  9.33333333e-03
   46905, -1.76847411e-03,  1.76847411e-03,  9.33333333e-03
   46906,  1.52251237e-03,  1.98417674e-03,  1.00000000e-02
   46907,  1.25050002e-03,  2.16592956e-03,  1.00000000e-02
   46908,  9.57091277e-04,  2.31062272e-03,  1.00000000e-02
   46909,  6.47306439e-04,  2.41578050e-03,  1.00000000e-02
   46910,  3.26446010e-04,  2.47960360e-03,  1.00000000e-02
   46911,  2.22133423e-19,  2.50100000e-03,  1.00000000e-02
   46912, -3.26446010e-04,  2.47960360e-03,  1.00000000e-02
   46913, -6.47306439e-04,  2.41578050e-03,  1.00000000e-02
   46914, -9.57091277e-04,  2.31062272e-03,  1.00000000e-02
   46915, -1.25050002e-03,  2.16592956e-03,  1.00000000e-02
   46916, -1.52251237e-03,  1.98417674e-03,  1.00000000e-02
   46917, -1.76847411e-03,  1.76847411e-03,  1.00000000e-02
   46918,  1.52251237e-03,  1.98417674e-03,  1.06666667e-02
   46919,  1.25050002e-03,  2.16592956e-03,  1.06666667e-02
   46920,  9.57091277e-04,  2.31062272e-03,  1.06666667e-02
   46921,  6.47306439e-04,  2.41578050e-03,  1.06666667e-02
   46922,  3.26446010e-04,  2.47960360e-03,  1.06666667e-02
   46923,  2.22133423e-19,  2.50100000e-03,  1.06666667e-02
   46924, -3.26446010e-04,  2.47960360e-03,  1.06666667e-02
   46925, -6.47306439e-04,  2.41578050e-03,  1.06666667e-02
   46926, -9.57091277e-04,  2.31062272e-03,  1.06666667e-02
   46927, -1.25050002e-03,  2.16592956e-03,  1.06666667e-02
   46928, -1.52251237e-03,  1.98417674e-03,  1.06666667e-02
   46929, -1.76847411e-03,  1.76847411e-03,  1.06666667e-02
   46930,  1.52251237e-03,  1.98417674e-03,  1.13333333e-02
   46931,  1.25050002e-03,  2.16592956e-03,  1.13333333e-02
   46932,  9.57091277e-04,  2.31062272e-03,  1.13333333e-02
   46933,  6.47306439e-04,  2.41578050e-03,  1.13333333e-02
   46934,  3.26446010e-04,  2.47960360e-03,  1.13333333e-02
   46935,  2.22133423e-19,  2.50100000e-03,  1.13333333e-02
   46936, -3.26446010e-04,  2.47960360e-03,  1.13333333e-02
   46937, -6.47306439e-04,  2.41578050e-03,  1.13333333e-02
   46938, -9.57091277e-04,  2.31062272e-03,  1.13333333e-02
   46939, -1.25050002e-03,  2.16592956e-03,  1.13333333e-02
   46940, -1.52251237e-03,  1.98417674e-03,  1.13333333e-02
   46941, -1.76847411e-03,  1.76847411e-03,  1.13333333e-02
   46942,  1.52251237e-03,  1.98417674e-03,  1.20000000e-02
   46943,  1.25050002e-03,  2.16592956e-03,  1.20000000e-02
   46944,  9.57091277e-04,  2.31062272e-03,  1.20000000e-02
   46945,  6.47306439e-04,  2.41578050e-03,  1.20000000e-02
   46946,  3.26446010e-04,  2.47960360e-03,  1.20000000e-02
   46947,  2.22133423e-19,  2.50100000e-03,  1.20000000e-02
   46948, -3.26446010e-04,  2.47960360e-03,  1.20000000e-02
   46949, -6.47306439e-04,  2.41578050e-03,  1.20000000e-02
   46950, -9.57091277e-04,  2.31062272e-03,  1.20000000e-02
   46951, -1.25050002e-03,  2.16592956e-03,  1.20000000e-02
   46952, -1.52251237e-03,  1.98417674e-03,  1.20000000e-02
   46953, -1.76847411e-03,  1.76847411e-03,  1.20000000e-02
   46954,  1.52251237e-03,  1.98417674e-03,  1.26666667e-02
   46955,  1.25050002e-03,  2.16592956e-03,  1.26666667e-02
   46956,  9.57091277e-04,  2.31062272e-03,  1.26666667e-02
   46957,  6.47306439e-04,  2.41578050e-03,  1.26666667e-02
   46958,  3.26446010e-04,  2.47960360e-03,  1.26666667e-02
   46959,  2.22133423e-19,  2.50100000e-03,  1.26666667e-02
   46960, -3.26446010e-04,  2.47960360e-03,  1.26666667e-02
   46961, -6.47306439e-04,  2.41578050e-03,  1.26666667e-02
   46962, -9.57091277e-04,  2.31062272e-03,  1.26666667e-02
   46963, -1.25050002e-03,  2.16592956e-03,  1.26666667e-02
   46964, -1.52251237e-03,  1.98417674e-03,  1.26666667e-02
   46965, -1.76847411e-03,  1.76847411e-03,  1.26666667e-02
   46966,  1.52251237e-03,  1.98417674e-03,  1.33333333e-02
   46967,  1.25050002e-03,  2.16592956e-03,  1.33333333e-02
   46968,  9.57091277e-04,  2.31062272e-03,  1.33333333e-02
   46969,  6.47306439e-04,  2.41578050e-03,  1.33333333e-02
   46970,  3.26446010e-04,  2.47960360e-03,  1.33333333e-02
   46971,  2.22133423e-19,  2.50100000e-03,  1.33333333e-02
   46972, -3.26446010e-04,  2.47960360e-03,  1.33333333e-02
   46973, -6.47306439e-04,  2.41578050e-03,  1.33333333e-02
   46974, -9.57091277e-04,  2.31062272e-03,  1.33333333e-02
   46975, -1.25050002e-03,  2.16592956e-03,  1.33333333e-02
   46976, -1.52251237e-03,  1.98417674e-03,  1.33333333e-02
   46977, -1.76847411e-03,  1.76847411e-03,  1.33333333e-02
   46978,  1.52251237e-03,  1.98417674e-03,  1.40000000e-02
   46979,  1.25050002e-03,  2.16592956e-03,  1.40000000e-02
   46980,  9.57091277e-04,  2.31062272e-03,  1.40000000e-02
   46981,  6.47306439e-04,  2.41578050e-03,  1.40000000e-02
   46982,  3.26446010e-04,  2.47960360e-03,  1.40000000e-02
   46983,  2.22133423e-19,  2.50100000e-03,  1.40000000e-02
   46984, -3.26446010e-04,  2.47960360e-03,  1.40000000e-02
   46985, -6.47306439e-04,  2.41578050e-03,  1.40000000e-02
   46986, -9.57091277e-04,  2.31062272e-03,  1.40000000e-02
   46987, -1.25050002e-03,  2.16592956e-03,  1.40000000e-02
   46988, -1.52251237e-03,  1.98417674e-03,  1.40000000e-02
   46989, -1.76847411e-03,  1.76847411e-03,  1.40000000e-02
   46990,  1.52251237e-03,  1.98417674e-03,  1.46666667e-02
   46991,  1.25050002e-03,  2.16592956e-03,  1.46666667e-02
   46992,  9.57091277e-04,  2.31062272e-03,  1.46666667e-02
   46993,  6.47306439e-04,  2.41578050e-03,  1.46666667e-02
   46994,  3.26446010e-04,  2.47960360e-03,  1.46666667e-02
   46995,  2.22133423e-19,  2.50100000e-03,  1.46666667e-02
   46996, -3.26446010e-04,  2.47960360e-03,  1.46666667e-02
   46997, -6.47306439e-04,  2.41578050e-03,  1.46666667e-02
   46998, -9.57091277e-04,  2.31062272e-03,  1.46666667e-02
   46999, -1.25050002e-03,  2.16592956e-03,  1.46666667e-02
   47000, -1.52251237e-03,  1.98417674e-03,  1.46666667e-02
   47001, -1.76847411e-03,  1.76847411e-03,  1.46666667e-02
   47002,  1.52251237e-03,  1.98417674e-03,  1.53333333e-02
   47003,  1.25050002e-03,  2.16592956e-03,  1.53333333e-02
   47004,  9.57091277e-04,  2.31062272e-03,  1.53333333e-02
   47005,  6.47306439e-04,  2.41578050e-03,  1.53333333e-02
   47006,  3.26446010e-04,  2.47960360e-03,  1.53333333e-02
   47007,  2.22133423e-19,  2.50100000e-03,  1.53333333e-02
   47008, -3.26446010e-04,  2.47960360e-03,  1.53333333e-02
   47009, -6.47306439e-04,  2.41578050e-03,  1.53333333e-02
   47010, -9.57091277e-04,  2.31062272e-03,  1.53333333e-02
   47011, -1.25050002e-03,  2.16592956e-03,  1.53333333e-02
   47012, -1.52251237e-03,  1.98417674e-03,  1.53333333e-02
   47013, -1.76847411e-03,  1.76847411e-03,  1.53333333e-02
   47014,  1.52251237e-03,  1.98417674e-03,  1.60000000e-02
   47015,  1.25050002e-03,  2.16592956e-03,  1.60000000e-02
   47016,  9.57091277e-04,  2.31062272e-03,  1.60000000e-02
   47017,  6.47306439e-04,  2.41578050e-03,  1.60000000e-02
   47018,  3.26446010e-04,  2.47960360e-03,  1.60000000e-02
   47019,  2.22133423e-19,  2.50100000e-03,  1.60000000e-02
   47020, -3.26446010e-04,  2.47960360e-03,  1.60000000e-02
   47021, -6.47306439e-04,  2.41578050e-03,  1.60000000e-02
   47022, -9.57091277e-04,  2.31062272e-03,  1.60000000e-02
   47023, -1.25050002e-03,  2.16592956e-03,  1.60000000e-02
   47024, -1.52251237e-03,  1.98417674e-03,  1.60000000e-02
   47025, -1.76847411e-03,  1.76847411e-03,  1.60000000e-02
   47026,  1.52251237e-03,  1.98417674e-03,  1.66666667e-02
   47027,  1.25050002e-03,  2.16592956e-03,  1.66666667e-02
   47028,  9.57091277e-04,  2.31062272e-03,  1.66666667e-02
   47029,  6.47306439e-04,  2.41578050e-03,  1.66666667e-02
   47030,  3.26446010e-04,  2.47960360e-03,  1.66666667e-02
   47031,  2.22133423e-19,  2.50100000e-03,  1.66666667e-02
   47032, -3.26446010e-04,  2.47960360e-03,  1.66666667e-02
   47033, -6.47306439e-04,  2.41578050e-03,  1.66666667e-02
   47034, -9.57091277e-04,  2.31062272e-03,  1.66666667e-02
   47035, -1.25050002e-03,  2.16592956e-03,  1.66666667e-02
   47036, -1.52251237e-03,  1.98417674e-03,  1.66666667e-02
   47037, -1.76847411e-03,  1.76847411e-03,  1.66666667e-02
   47038,  1.52251237e-03,  1.98417674e-03,  1.73333333e-02
   47039,  1.25050002e-03,  2.16592956e-03,  1.73333333e-02
   47040,  9.57091277e-04,  2.31062272e-03,  1.73333333e-02
   47041,  6.47306439e-04,  2.41578050e-03,  1.73333333e-02
   47042,  3.26446010e-04,  2.47960360e-03,  1.73333333e-02
   47043,  2.22133423e-19,  2.50100000e-03,  1.73333333e-02
   47044, -3.26446010e-04,  2.47960360e-03,  1.73333333e-02
   47045, -6.47306439e-04,  2.41578050e-03,  1.73333333e-02
   47046, -9.57091277e-04,  2.31062272e-03,  1.73333333e-02
   47047, -1.25050002e-03,  2.16592956e-03,  1.73333333e-02
   47048, -1.52251237e-03,  1.98417674e-03,  1.73333333e-02
   47049, -1.76847411e-03,  1.76847411e-03,  1.73333333e-02
   47050,  1.52251237e-03,  1.98417674e-03,  1.80000000e-02
   47051,  1.25050002e-03,  2.16592956e-03,  1.80000000e-02
   47052,  9.57091277e-04,  2.31062272e-03,  1.80000000e-02
   47053,  6.47306439e-04,  2.41578050e-03,  1.80000000e-02
   47054,  3.26446010e-04,  2.47960360e-03,  1.80000000e-02
   47055,  2.22133423e-19,  2.50100000e-03,  1.80000000e-02
   47056, -3.26446010e-04,  2.47960360e-03,  1.80000000e-02
   47057, -6.47306439e-04,  2.41578050e-03,  1.80000000e-02
   47058, -9.57091277e-04,  2.31062272e-03,  1.80000000e-02
   47059, -1.25050002e-03,  2.16592956e-03,  1.80000000e-02
   47060, -1.52251237e-03,  1.98417674e-03,  1.80000000e-02
   47061, -1.76847411e-03,  1.76847411e-03,  1.80000000e-02
   47062,  1.52251237e-03,  1.98417674e-03,  1.86666667e-02
   47063,  1.25050002e-03,  2.16592956e-03,  1.86666667e-02
   47064,  9.57091277e-04,  2.31062272e-03,  1.86666667e-02
   47065,  6.47306439e-04,  2.41578050e-03,  1.86666667e-02
   47066,  3.26446010e-04,  2.47960360e-03,  1.86666667e-02
   47067,  2.22133423e-19,  2.50100000e-03,  1.86666667e-02
   47068, -3.26446010e-04,  2.47960360e-03,  1.86666667e-02
   47069, -6.47306439e-04,  2.41578050e-03,  1.86666667e-02
   47070, -9.57091277e-04,  2.31062272e-03,  1.86666667e-02
   47071, -1.25050002e-03,  2.16592956e-03,  1.86666667e-02
   47072, -1.52251237e-03,  1.98417674e-03,  1.86666667e-02
   47073, -1.76847411e-03,  1.76847411e-03,  1.86666667e-02
   47074,  1.52251237e-03,  1.98417674e-03,  1.93333333e-02
   47075,  1.25050002e-03,  2.16592956e-03,  1.93333333e-02
   47076,  9.57091277e-04,  2.31062272e-03,  1.93333333e-02
   47077,  6.47306439e-04,  2.41578050e-03,  1.93333333e-02
   47078,  3.26446010e-04,  2.47960360e-03,  1.93333333e-02
   47079,  2.22133423e-19,  2.50100000e-03,  1.93333333e-02
   47080, -3.26446010e-04,  2.47960360e-03,  1.93333333e-02
   47081, -6.47306439e-04,  2.41578050e-03,  1.93333333e-02
   47082, -9.57091277e-04,  2.31062272e-03,  1.93333333e-02
   47083, -1.25050002e-03,  2.16592956e-03,  1.93333333e-02
   47084, -1.52251237e-03,  1.98417674e-03,  1.93333333e-02
   47085, -1.76847411e-03,  1.76847411e-03,  1.93333333e-02
   47086,  1.52251237e-03,  1.98417674e-03,  2.00000000e-02
   47087,  1.25050002e-03,  2.16592956e-03,  2.00000000e-02
   47088,  9.57091277e-04,  2.31062272e-03,  2.00000000e-02
   47089,  6.47306439e-04,  2.41578050e-03,  2.00000000e-02
   47090,  3.26446010e-04,  2.47960360e-03,  2.00000000e-02
   47091,  2.22133423e-19,  2.50100000e-03,  2.00000000e-02
   47092, -3.26446010e-04,  2.47960360e-03,  2.00000000e-02
   47093, -6.47306439e-04,  2.41578050e-03,  2.00000000e-02
   47094, -9.57091277e-04,  2.31062272e-03,  2.00000000e-02
   47095, -1.25050002e-03,  2.16592956e-03,  2.00000000e-02
   47096, -1.52251237e-03,  1.98417674e-03,  2.00000000e-02
   47097, -1.76847411e-03,  1.76847411e-03,  2.00000000e-02
   47098,  1.52251237e-03,  1.98417674e-03,  2.06666667e-02
   47099,  1.25050002e-03,  2.16592956e-03,  2.06666667e-02
   47100,  9.57091277e-04,  2.31062272e-03,  2.06666667e-02
   47101,  6.47306439e-04,  2.41578050e-03,  2.06666667e-02
   47102,  3.26446010e-04,  2.47960360e-03,  2.06666667e-02
   47103,  2.22133423e-19,  2.50100000e-03,  2.06666667e-02
   47104, -3.26446010e-04,  2.47960360e-03,  2.06666667e-02
   47105, -6.47306439e-04,  2.41578050e-03,  2.06666667e-02
   47106, -9.57091277e-04,  2.31062272e-03,  2.06666667e-02
   47107, -1.25050002e-03,  2.16592956e-03,  2.06666667e-02
   47108, -1.52251237e-03,  1.98417674e-03,  2.06666667e-02
   47109, -1.76847411e-03,  1.76847411e-03,  2.06666667e-02
   47110,  1.52251237e-03,  1.98417674e-03,  2.13333333e-02
   47111,  1.25050002e-03,  2.16592956e-03,  2.13333333e-02
   47112,  9.57091277e-04,  2.31062272e-03,  2.13333333e-02
   47113,  6.47306439e-04,  2.41578050e-03,  2.13333333e-02
   47114,  3.26446010e-04,  2.47960360e-03,  2.13333333e-02
   47115,  2.22133423e-19,  2.50100000e-03,  2.13333333e-02
   47116, -3.26446010e-04,  2.47960360e-03,  2.13333333e-02
   47117, -6.47306439e-04,  2.41578050e-03,  2.13333333e-02
   47118, -9.57091277e-04,  2.31062272e-03,  2.13333333e-02
   47119, -1.25050002e-03,  2.16592956e-03,  2.13333333e-02
   47120, -1.52251237e-03,  1.98417674e-03,  2.13333333e-02
   47121, -1.76847411e-03,  1.76847411e-03,  2.13333333e-02
   47122,  1.52251237e-03,  1.98417674e-03,  2.20000000e-02
   47123,  1.25050002e-03,  2.16592956e-03,  2.20000000e-02
   47124,  9.57091277e-04,  2.31062272e-03,  2.20000000e-02
   47125,  6.47306439e-04,  2.41578050e-03,  2.20000000e-02
   47126,  3.26446010e-04,  2.47960360e-03,  2.20000000e-02
   47127,  2.22133423e-19,  2.50100000e-03,  2.20000000e-02
   47128, -3.26446010e-04,  2.47960360e-03,  2.20000000e-02
   47129, -6.47306439e-04,  2.41578050e-03,  2.20000000e-02
   47130, -9.57091277e-04,  2.31062272e-03,  2.20000000e-02
   47131, -1.25050002e-03,  2.16592956e-03,  2.20000000e-02
   47132, -1.52251237e-03,  1.98417674e-03,  2.20000000e-02
   47133, -1.76847411e-03,  1.76847411e-03,  2.20000000e-02
   47134,  1.52251237e-03,  1.98417674e-03,  2.26666667e-02
   47135,  1.25050002e-03,  2.16592956e-03,  2.26666667e-02
   47136,  9.57091277e-04,  2.31062272e-03,  2.26666667e-02
   47137,  6.47306439e-04,  2.41578050e-03,  2.26666667e-02
   47138,  3.26446010e-04,  2.47960360e-03,  2.26666667e-02
   47139,  2.22133423e-19,  2.50100000e-03,  2.26666667e-02
   47140, -3.26446010e-04,  2.47960360e-03,  2.26666667e-02
   47141, -6.47306439e-04,  2.41578050e-03,  2.26666667e-02
   47142, -9.57091277e-04,  2.31062272e-03,  2.26666667e-02
   47143, -1.25050002e-03,  2.16592956e-03,  2.26666667e-02
   47144, -1.52251237e-03,  1.98417674e-03,  2.26666667e-02
   47145, -1.76847411e-03,  1.76847411e-03,  2.26666667e-02
   47146,  1.52251237e-03,  1.98417674e-03,  2.33333333e-02
   47147,  1.25050002e-03,  2.16592956e-03,  2.33333333e-02
   47148,  9.57091277e-04,  2.31062272e-03,  2.33333333e-02
   47149,  6.47306439e-04,  2.41578050e-03,  2.33333333e-02
   47150,  3.26446010e-04,  2.47960360e-03,  2.33333333e-02
   47151,  2.22133423e-19,  2.50100000e-03,  2.33333333e-02
   47152, -3.26446010e-04,  2.47960360e-03,  2.33333333e-02
   47153, -6.47306439e-04,  2.41578050e-03,  2.33333333e-02
   47154, -9.57091277e-04,  2.31062272e-03,  2.33333333e-02
   47155, -1.25050002e-03,  2.16592956e-03,  2.33333333e-02
   47156, -1.52251237e-03,  1.98417674e-03,  2.33333333e-02
   47157, -1.76847411e-03,  1.76847411e-03,  2.33333333e-02
   47158,  1.52251237e-03,  1.98417674e-03,  2.40000000e-02
   47159,  1.25050002e-03,  2.16592956e-03,  2.40000000e-02
   47160,  9.57091277e-04,  2.31062272e-03,  2.40000000e-02
   47161,  6.47306439e-04,  2.41578050e-03,  2.40000000e-02
   47162,  3.26446010e-04,  2.47960360e-03,  2.40000000e-02
   47163,  2.22133423e-19,  2.50100000e-03,  2.40000000e-02
   47164, -3.26446010e-04,  2.47960360e-03,  2.40000000e-02
   47165, -6.47306439e-04,  2.41578050e-03,  2.40000000e-02
   47166, -9.57091277e-04,  2.31062272e-03,  2.40000000e-02
   47167, -1.25050002e-03,  2.16592956e-03,  2.40000000e-02
   47168, -1.52251237e-03,  1.98417674e-03,  2.40000000e-02
   47169, -1.76847411e-03,  1.76847411e-03,  2.40000000e-02
   47170,  1.52251237e-03,  1.98417674e-03,  2.46666667e-02
   47171,  1.25050002e-03,  2.16592956e-03,  2.46666667e-02
   47172,  9.57091277e-04,  2.31062272e-03,  2.46666667e-02
   47173,  6.47306439e-04,  2.41578050e-03,  2.46666667e-02
   47174,  3.26446010e-04,  2.47960360e-03,  2.46666667e-02
   47175,  2.22133423e-19,  2.50100000e-03,  2.46666667e-02
   47176, -3.26446010e-04,  2.47960360e-03,  2.46666667e-02
   47177, -6.47306439e-04,  2.41578050e-03,  2.46666667e-02
   47178, -9.57091277e-04,  2.31062272e-03,  2.46666667e-02
   47179, -1.25050002e-03,  2.16592956e-03,  2.46666667e-02
   47180, -1.52251237e-03,  1.98417674e-03,  2.46666667e-02
   47181, -1.76847411e-03,  1.76847411e-03,  2.46666667e-02
   47182,  1.52251237e-03,  1.98417674e-03,  2.53333333e-02
   47183,  1.25050002e-03,  2.16592956e-03,  2.53333333e-02
   47184,  9.57091277e-04,  2.31062272e-03,  2.53333333e-02
   47185,  6.47306439e-04,  2.41578050e-03,  2.53333333e-02
   47186,  3.26446010e-04,  2.47960360e-03,  2.53333333e-02
   47187,  2.22133423e-19,  2.50100000e-03,  2.53333333e-02
   47188, -3.26446010e-04,  2.47960360e-03,  2.53333333e-02
   47189, -6.47306439e-04,  2.41578050e-03,  2.53333333e-02
   47190, -9.57091277e-04,  2.31062272e-03,  2.53333333e-02
   47191, -1.25050002e-03,  2.16592956e-03,  2.53333333e-02
   47192, -1.52251237e-03,  1.98417674e-03,  2.53333333e-02
   47193, -1.76847411e-03,  1.76847411e-03,  2.53333333e-02
   47194,  1.52251237e-03,  1.98417674e-03,  2.60000000e-02
   47195,  1.25050002e-03,  2.16592956e-03,  2.60000000e-02
   47196,  9.57091277e-04,  2.31062272e-03,  2.60000000e-02
   47197,  6.47306439e-04,  2.41578050e-03,  2.60000000e-02
   47198,  3.26446010e-04,  2.47960360e-03,  2.60000000e-02
   47199,  2.22133423e-19,  2.50100000e-03,  2.60000000e-02
   47200, -3.26446010e-04,  2.47960360e-03,  2.60000000e-02
   47201, -6.47306439e-04,  2.41578050e-03,  2.60000000e-02
   47202, -9.57091277e-04,  2.31062272e-03,  2.60000000e-02
   47203, -1.25050002e-03,  2.16592956e-03,  2.60000000e-02
   47204, -1.52251237e-03,  1.98417674e-03,  2.60000000e-02
   47205, -1.76847411e-03,  1.76847411e-03,  2.60000000e-02
   47206,  1.52251237e-03,  1.98417674e-03,  2.66666667e-02
   47207,  1.25050002e-03,  2.16592956e-03,  2.66666667e-02
   47208,  9.57091277e-04,  2.31062272e-03,  2.66666667e-02
   47209,  6.47306439e-04,  2.41578050e-03,  2.66666667e-02
   47210,  3.26446010e-04,  2.47960360e-03,  2.66666667e-02
   47211,  2.22133423e-19,  2.50100000e-03,  2.66666667e-02
   47212, -3.26446010e-04,  2.47960360e-03,  2.66666667e-02
   47213, -6.47306439e-04,  2.41578050e-03,  2.66666667e-02
   47214, -9.57091277e-04,  2.31062272e-03,  2.66666667e-02
   47215, -1.25050002e-03,  2.16592956e-03,  2.66666667e-02
   47216, -1.52251237e-03,  1.98417674e-03,  2.66666667e-02
   47217, -1.76847411e-03,  1.76847411e-03,  2.66666667e-02
   47218,  1.52251237e-03,  1.98417674e-03,  2.73333333e-02
   47219,  1.25050002e-03,  2.16592956e-03,  2.73333333e-02
   47220,  9.57091277e-04,  2.31062272e-03,  2.73333333e-02
   47221,  6.47306439e-04,  2.41578050e-03,  2.73333333e-02
   47222,  3.26446010e-04,  2.47960360e-03,  2.73333333e-02
   47223,  2.22133423e-19,  2.50100000e-03,  2.73333333e-02
   47224, -3.26446010e-04,  2.47960360e-03,  2.73333333e-02
   47225, -6.47306439e-04,  2.41578050e-03,  2.73333333e-02
   47226, -9.57091277e-04,  2.31062272e-03,  2.73333333e-02
   47227, -1.25050002e-03,  2.16592956e-03,  2.73333333e-02
   47228, -1.52251237e-03,  1.98417674e-03,  2.73333333e-02
   47229, -1.76847411e-03,  1.76847411e-03,  2.73333333e-02
   47230,  1.52251237e-03,  1.98417674e-03,  2.80000000e-02
   47231,  1.25050002e-03,  2.16592956e-03,  2.80000000e-02
   47232,  9.57091277e-04,  2.31062272e-03,  2.80000000e-02
   47233,  6.47306439e-04,  2.41578050e-03,  2.80000000e-02
   47234,  3.26446010e-04,  2.47960360e-03,  2.80000000e-02
   47235,  2.22133423e-19,  2.50100000e-03,  2.80000000e-02
   47236, -3.26446010e-04,  2.47960360e-03,  2.80000000e-02
   47237, -6.47306439e-04,  2.41578050e-03,  2.80000000e-02
   47238, -9.57091277e-04,  2.31062272e-03,  2.80000000e-02
   47239, -1.25050002e-03,  2.16592956e-03,  2.80000000e-02
   47240, -1.52251237e-03,  1.98417674e-03,  2.80000000e-02
   47241, -1.76847411e-03,  1.76847411e-03,  2.80000000e-02
   47242,  1.52251237e-03,  1.98417674e-03,  2.86666667e-02
   47243,  1.25050002e-03,  2.16592956e-03,  2.86666667e-02
   47244,  9.57091277e-04,  2.31062272e-03,  2.86666667e-02
   47245,  6.47306439e-04,  2.41578050e-03,  2.86666667e-02
   47246,  3.26446010e-04,  2.47960360e-03,  2.86666667e-02
   47247,  2.22133423e-19,  2.50100000e-03,  2.86666667e-02
   47248, -3.26446010e-04,  2.47960360e-03,  2.86666667e-02
   47249, -6.47306439e-04,  2.41578050e-03,  2.86666667e-02
   47250, -9.57091277e-04,  2.31062272e-03,  2.86666667e-02
   47251, -1.25050002e-03,  2.16592956e-03,  2.86666667e-02
   47252, -1.52251237e-03,  1.98417674e-03,  2.86666667e-02
   47253, -1.76847411e-03,  1.76847411e-03,  2.86666667e-02
   47254,  1.52251237e-03,  1.98417674e-03,  2.93333333e-02
   47255,  1.25050002e-03,  2.16592956e-03,  2.93333333e-02
   47256,  9.57091277e-04,  2.31062272e-03,  2.93333333e-02
   47257,  6.47306439e-04,  2.41578050e-03,  2.93333333e-02
   47258,  3.26446010e-04,  2.47960360e-03,  2.93333333e-02
   47259,  2.22133423e-19,  2.50100000e-03,  2.93333333e-02
   47260, -3.26446010e-04,  2.47960360e-03,  2.93333333e-02
   47261, -6.47306439e-04,  2.41578050e-03,  2.93333333e-02
   47262, -9.57091277e-04,  2.31062272e-03,  2.93333333e-02
   47263, -1.25050002e-03,  2.16592956e-03,  2.93333333e-02
   47264, -1.52251237e-03,  1.98417674e-03,  2.93333333e-02
   47265, -1.76847411e-03,  1.76847411e-03,  2.93333333e-02
   47266,  1.52251237e-03,  1.98417674e-03,  3.00000000e-02
   47267,  1.25050002e-03,  2.16592956e-03,  3.00000000e-02
   47268,  9.57091277e-04,  2.31062272e-03,  3.00000000e-02
   47269,  6.47306439e-04,  2.41578050e-03,  3.00000000e-02
   47270,  3.26446010e-04,  2.47960360e-03,  3.00000000e-02
   47271,  2.22133423e-19,  2.50100000e-03,  3.00000000e-02
   47272, -3.26446010e-04,  2.47960360e-03,  3.00000000e-02
   47273, -6.47306439e-04,  2.41578050e-03,  3.00000000e-02
   47274, -9.57091277e-04,  2.31062272e-03,  3.00000000e-02
   47275, -1.25050002e-03,  2.16592956e-03,  3.00000000e-02
   47276, -1.52251237e-03,  1.98417674e-03,  3.00000000e-02
   47277, -1.76847411e-03,  1.76847411e-03,  3.00000000e-02
   47278, -1.98417674e-03,  1.52251237e-03,  0.00000000e+00
   47279, -2.16592956e-03,  1.25050002e-03,  0.00000000e+00
   47280, -2.31062272e-03,  9.57091277e-04,  0.00000000e+00
   47281, -2.41578050e-03,  6.47306439e-04,  0.00000000e+00
   47282, -2.47960360e-03,  3.26446010e-04,  0.00000000e+00
   47283, -2.50100000e-03,  2.22133423e-19,  0.00000000e+00
   47284, -2.47960360e-03, -3.26446010e-04,  0.00000000e+00
   47285, -2.41578050e-03, -6.47306439e-04,  0.00000000e+00
   47286, -2.31062272e-03, -9.57091277e-04,  0.00000000e+00
   47287, -2.16592956e-03, -1.25050002e-03,  0.00000000e+00
   47288, -1.98417674e-03, -1.52251237e-03,  0.00000000e+00
   47289, -1.76847411e-03, -1.76847411e-03,  0.00000000e+00
   47290, -1.98417674e-03,  1.52251237e-03,  6.66666667e-04
   47291, -2.16592956e-03,  1.25050002e-03,  6.66666667e-04
   47292, -2.31062272e-03,  9.57091277e-04,  6.66666667e-04
   47293, -2.41578050e-03,  6.47306439e-04,  6.66666667e-04
   47294, -2.47960360e-03,  3.26446010e-04,  6.66666667e-04
   47295, -2.50100000e-03,  2.22133423e-19,  6.66666667e-04
   47296, -2.47960360e-03, -3.26446010e-04,  6.66666667e-04
   47297, -2.41578050e-03, -6.47306439e-04,  6.66666667e-04
   47298, -2.31062272e-03, -9.57091277e-04,  6.66666667e-04
   47299, -2.16592956e-03, -1.25050002e-03,  6.66666667e-04
   47300, -1.98417674e-03, -1.52251237e-03,  6.66666667e-04
   47301, -1.76847411e-03, -1.76847411e-03,  6.66666667e-04
   47302, -1.98417674e-03,  1.52251237e-03,  1.33333333e-03
   47303, -2.16592956e-03,  1.25050002e-03,  1.33333333e-03
   47304, -2.31062272e-03,  9.57091277e-04,  1.33333333e-03
   47305, -2.41578050e-03,  6.47306439e-04,  1.33333333e-03
   47306, -2.47960360e-03,  3.26446010e-04,  1.33333333e-03
   47307, -2.50100000e-03,  2.22133423e-19,  1.33333333e-03
   47308, -2.47960360e-03, -3.26446010e-04,  1.33333333e-03
   47309, -2.41578050e-03, -6.47306439e-04,  1.33333333e-03
   47310, -2.31062272e-03, -9.57091277e-04,  1.33333333e-03
   47311, -2.16592956e-03, -1.25050002e-03,  1.33333333e-03
   47312, -1.98417674e-03, -1.52251237e-03,  1.33333333e-03
   47313, -1.76847411e-03, -1.76847411e-03,  1.33333333e-03
   47314, -1.98417674e-03,  1.52251237e-03,  2.00000000e-03
   47315, -2.16592956e-03,  1.25050002e-03,  2.00000000e-03
   47316, -2.31062272e-03,  9.57091277e-04,  2.00000000e-03
   47317, -2.41578050e-03,  6.47306439e-04,  2.00000000e-03
   47318, -2.47960360e-03,  3.26446010e-04,  2.00000000e-03
   47319, -2.50100000e-03,  2.22133423e-19,  2.00000000e-03
   47320, -2.47960360e-03, -3.26446010e-04,  2.00000000e-03
   47321, -2.41578050e-03, -6.47306439e-04,  2.00000000e-03
   47322, -2.31062272e-03, -9.57091277e-04,  2.00000000e-03
   47323, -2.16592956e-03, -1.25050002e-03,  2.00000000e-03
   47324, -1.98417674e-03, -1.52251237e-03,  2.00000000e-03
   47325, -1.76847411e-03, -1.76847411e-03,  2.00000000e-03
   47326, -1.98417674e-03,  1.52251237e-03,  2.66666667e-03
   47327, -2.16592956e-03,  1.25050002e-03,  2.66666667e-03
   47328, -2.31062272e-03,  9.57091277e-04,  2.66666667e-03
   47329, -2.41578050e-03,  6.47306439e-04,  2.66666667e-03
   47330, -2.47960360e-03,  3.26446010e-04,  2.66666667e-03
   47331, -2.50100000e-03,  2.22133423e-19,  2.66666667e-03
   47332, -2.47960360e-03, -3.26446010e-04,  2.66666667e-03
   47333, -2.41578050e-03, -6.47306439e-04,  2.66666667e-03
   47334, -2.31062272e-03, -9.57091277e-04,  2.66666667e-03
   47335, -2.16592956e-03, -1.25050002e-03,  2.66666667e-03
   47336, -1.98417674e-03, -1.52251237e-03,  2.66666667e-03
   47337, -1.76847411e-03, -1.76847411e-03,  2.66666667e-03
   47338, -1.98417674e-03,  1.52251237e-03,  3.33333333e-03
   47339, -2.16592956e-03,  1.25050002e-03,  3.33333333e-03
   47340, -2.31062272e-03,  9.57091277e-04,  3.33333333e-03
   47341, -2.41578050e-03,  6.47306439e-04,  3.33333333e-03
   47342, -2.47960360e-03,  3.26446010e-04,  3.33333333e-03
   47343, -2.50100000e-03,  2.22133423e-19,  3.33333333e-03
   47344, -2.47960360e-03, -3.26446010e-04,  3.33333333e-03
   47345, -2.41578050e-03, -6.47306439e-04,  3.33333333e-03
   47346, -2.31062272e-03, -9.57091277e-04,  3.33333333e-03
   47347, -2.16592956e-03, -1.25050002e-03,  3.33333333e-03
   47348, -1.98417674e-03, -1.52251237e-03,  3.33333333e-03
   47349, -1.76847411e-03, -1.76847411e-03,  3.33333333e-03
   47350, -1.98417674e-03,  1.52251237e-03,  4.00000000e-03
   47351, -2.16592956e-03,  1.25050002e-03,  4.00000000e-03
   47352, -2.31062272e-03,  9.57091277e-04,  4.00000000e-03
   47353, -2.41578050e-03,  6.47306439e-04,  4.00000000e-03
   47354, -2.47960360e-03,  3.26446010e-04,  4.00000000e-03
   47355, -2.50100000e-03,  2.22133423e-19,  4.00000000e-03
   47356, -2.47960360e-03, -3.26446010e-04,  4.00000000e-03
   47357, -2.41578050e-03, -6.47306439e-04,  4.00000000e-03
   47358, -2.31062272e-03, -9.57091277e-04,  4.00000000e-03
   47359, -2.16592956e-03, -1.25050002e-03,  4.00000000e-03
   47360, -1.98417674e-03, -1.52251237e-03,  4.00000000e-03
   47361, -1.76847411e-03, -1.76847411e-03,  4.00000000e-03
   47362, -1.98417674e-03,  1.52251237e-03,  4.66666667e-03
   47363, -2.16592956e-03,  1.25050002e-03,  4.66666667e-03
   47364, -2.31062272e-03,  9.57091277e-04,  4.66666667e-03
   47365, -2.41578050e-03,  6.47306439e-04,  4.66666667e-03
   47366, -2.47960360e-03,  3.26446010e-04,  4.66666667e-03
   47367, -2.50100000e-03,  2.22133423e-19,  4.66666667e-03
   47368, -2.47960360e-03, -3.26446010e-04,  4.66666667e-03
   47369, -2.41578050e-03, -6.47306439e-04,  4.66666667e-03
   47370, -2.31062272e-03, -9.57091277e-04,  4.66666667e-03
   47371, -2.16592956e-03, -1.25050002e-03,  4.66666667e-03
   47372, -1.98417674e-03, -1.52251237e-03,  4.66666667e-03
   47373, -1.76847411e-03, -1.76847411e-03,  4.66666667e-03
   47374, -1.98417674e-03,  1.52251237e-03,  5.33333333e-03
   47375, -2.16592956e-03,  1.25050002e-03,  5.33333333e-03
   47376, -2.31062272e-03,  9.57091277e-04,  5.33333333e-03
   47377, -2.41578050e-03,  6.47306439e-04,  5.33333333e-03
   47378, -2.47960360e-03,  3.26446010e-04,  5.33333333e-03
   47379, -2.50100000e-03,  2.22133423e-19,  5.33333333e-03
   47380, -2.47960360e-03, -3.26446010e-04,  5.33333333e-03
   47381, -2.41578050e-03, -6.47306439e-04,  5.33333333e-03
   47382, -2.31062272e-03, -9.57091277e-04,  5.33333333e-03
   47383, -2.16592956e-03, -1.25050002e-03,  5.33333333e-03
   47384, -1.98417674e-03, -1.52251237e-03,  5.33333333e-03
   47385, -1.76847411e-03, -1.76847411e-03,  5.33333333e-03
   47386, -1.98417674e-03,  1.52251237e-03,  6.00000000e-03
   47387, -2.16592956e-03,  1.25050002e-03,  6.00000000e-03
   47388, -2.31062272e-03,  9.57091277e-04,  6.00000000e-03
   47389, -2.41578050e-03,  6.47306439e-04,  6.00000000e-03
   47390, -2.47960360e-03,  3.26446010e-04,  6.00000000e-03
   47391, -2.50100000e-03,  2.22133423e-19,  6.00000000e-03
   47392, -2.47960360e-03, -3.26446010e-04,  6.00000000e-03
   47393, -2.41578050e-03, -6.47306439e-04,  6.00000000e-03
   47394, -2.31062272e-03, -9.57091277e-04,  6.00000000e-03
   47395, -2.16592956e-03, -1.25050002e-03,  6.00000000e-03
   47396, -1.98417674e-03, -1.52251237e-03,  6.00000000e-03
   47397, -1.76847411e-03, -1.76847411e-03,  6.00000000e-03
   47398, -1.98417674e-03,  1.52251237e-03,  6.66666667e-03
   47399, -2.16592956e-03,  1.25050002e-03,  6.66666667e-03
   47400, -2.31062272e-03,  9.57091277e-04,  6.66666667e-03
   47401, -2.41578050e-03,  6.47306439e-04,  6.66666667e-03
   47402, -2.47960360e-03,  3.26446010e-04,  6.66666667e-03
   47403, -2.50100000e-03,  2.22133423e-19,  6.66666667e-03
   47404, -2.47960360e-03, -3.26446010e-04,  6.66666667e-03
   47405, -2.41578050e-03, -6.47306439e-04,  6.66666667e-03
   47406, -2.31062272e-03, -9.57091277e-04,  6.66666667e-03
   47407, -2.16592956e-03, -1.25050002e-03,  6.66666667e-03
   47408, -1.98417674e-03, -1.52251237e-03,  6.66666667e-03
   47409, -1.76847411e-03, -1.76847411e-03,  6.66666667e-03
   47410, -1.98417674e-03,  1.52251237e-03,  7.33333333e-03
   47411, -2.16592956e-03,  1.25050002e-03,  7.33333333e-03
   47412, -2.31062272e-03,  9.57091277e-04,  7.33333333e-03
   47413, -2.41578050e-03,  6.47306439e-04,  7.33333333e-03
   47414, -2.47960360e-03,  3.26446010e-04,  7.33333333e-03
   47415, -2.50100000e-03,  2.22133423e-19,  7.33333333e-03
   47416, -2.47960360e-03, -3.26446010e-04,  7.33333333e-03
   47417, -2.41578050e-03, -6.47306439e-04,  7.33333333e-03
   47418, -2.31062272e-03, -9.57091277e-04,  7.33333333e-03
   47419, -2.16592956e-03, -1.25050002e-03,  7.33333333e-03
   47420, -1.98417674e-03, -1.52251237e-03,  7.33333333e-03
   47421, -1.76847411e-03, -1.76847411e-03,  7.33333333e-03
   47422, -1.98417674e-03,  1.52251237e-03,  8.00000000e-03
   47423, -2.16592956e-03,  1.25050002e-03,  8.00000000e-03
   47424, -2.31062272e-03,  9.57091277e-04,  8.00000000e-03
   47425, -2.41578050e-03,  6.47306439e-04,  8.00000000e-03
   47426, -2.47960360e-03,  3.26446010e-04,  8.00000000e-03
   47427, -2.50100000e-03,  2.22133423e-19,  8.00000000e-03
   47428, -2.47960360e-03, -3.26446010e-04,  8.00000000e-03
   47429, -2.41578050e-03, -6.47306439e-04,  8.00000000e-03
   47430, -2.31062272e-03, -9.57091277e-04,  8.00000000e-03
   47431, -2.16592956e-03, -1.25050002e-03,  8.00000000e-03
   47432, -1.98417674e-03, -1.52251237e-03,  8.00000000e-03
   47433, -1.76847411e-03, -1.76847411e-03,  8.00000000e-03
   47434, -1.98417674e-03,  1.52251237e-03,  8.66666667e-03
   47435, -2.16592956e-03,  1.25050002e-03,  8.66666667e-03
   47436, -2.31062272e-03,  9.57091277e-04,  8.66666667e-03
   47437, -2.41578050e-03,  6.47306439e-04,  8.66666667e-03
   47438, -2.47960360e-03,  3.26446010e-04,  8.66666667e-03
   47439, -2.50100000e-03,  2.22133423e-19,  8.66666667e-03
   47440, -2.47960360e-03, -3.26446010e-04,  8.66666667e-03
   47441, -2.41578050e-03, -6.47306439e-04,  8.66666667e-03
   47442, -2.31062272e-03, -9.57091277e-04,  8.66666667e-03
   47443, -2.16592956e-03, -1.25050002e-03,  8.66666667e-03
   47444, -1.98417674e-03, -1.52251237e-03,  8.66666667e-03
   47445, -1.76847411e-03, -1.76847411e-03,  8.66666667e-03
   47446, -1.98417674e-03,  1.52251237e-03,  9.33333333e-03
   47447, -2.16592956e-03,  1.25050002e-03,  9.33333333e-03
   47448, -2.31062272e-03,  9.57091277e-04,  9.33333333e-03
   47449, -2.41578050e-03,  6.47306439e-04,  9.33333333e-03
   47450, -2.47960360e-03,  3.26446010e-04,  9.33333333e-03
   47451, -2.50100000e-03,  2.22133423e-19,  9.33333333e-03
   47452, -2.47960360e-03, -3.26446010e-04,  9.33333333e-03
   47453, -2.41578050e-03, -6.47306439e-04,  9.33333333e-03
   47454, -2.31062272e-03, -9.57091277e-04,  9.33333333e-03
   47455, -2.16592956e-03, -1.25050002e-03,  9.33333333e-03
   47456, -1.98417674e-03, -1.52251237e-03,  9.33333333e-03
   47457, -1.76847411e-03, -1.76847411e-03,  9.33333333e-03
   47458, -1.98417674e-03,  1.52251237e-03,  1.00000000e-02
   47459, -2.16592956e-03,  1.25050002e-03,  1.00000000e-02
   47460, -2.31062272e-03,  9.57091277e-04,  1.00000000e-02
   47461, -2.41578050e-03,  6.47306439e-04,  1.00000000e-02
   47462, -2.47960360e-03,  3.26446010e-04,  1.00000000e-02
   47463, -2.50100000e-03,  2.22133423e-19,  1.00000000e-02
   47464, -2.47960360e-03, -3.26446010e-04,  1.00000000e-02
   47465, -2.41578050e-03, -6.47306439e-04,  1.00000000e-02
   47466, -2.31062272e-03, -9.57091277e-04,  1.00000000e-02
   47467, -2.16592956e-03, -1.25050002e-03,  1.00000000e-02
   47468, -1.98417674e-03, -1.52251237e-03,  1.00000000e-02
   47469, -1.76847411e-03, -1.76847411e-03,  1.00000000e-02
   47470, -1.98417674e-03,  1.52251237e-03,  1.06666667e-02
   47471, -2.16592956e-03,  1.25050002e-03,  1.06666667e-02
   47472, -2.31062272e-03,  9.57091277e-04,  1.06666667e-02
   47473, -2.41578050e-03,  6.47306439e-04,  1.06666667e-02
   47474, -2.47960360e-03,  3.26446010e-04,  1.06666667e-02
   47475, -2.50100000e-03,  2.22133423e-19,  1.06666667e-02
   47476, -2.47960360e-03, -3.26446010e-04,  1.06666667e-02
   47477, -2.41578050e-03, -6.47306439e-04,  1.06666667e-02
   47478, -2.31062272e-03, -9.57091277e-04,  1.06666667e-02
   47479, -2.16592956e-03, -1.25050002e-03,  1.06666667e-02
   47480, -1.98417674e-03, -1.52251237e-03,  1.06666667e-02
   47481, -1.76847411e-03, -1.76847411e-03,  1.06666667e-02
   47482, -1.98417674e-03,  1.52251237e-03,  1.13333333e-02
   47483, -2.16592956e-03,  1.25050002e-03,  1.13333333e-02
   47484, -2.31062272e-03,  9.57091277e-04,  1.13333333e-02
   47485, -2.41578050e-03,  6.47306439e-04,  1.13333333e-02
   47486, -2.47960360e-03,  3.26446010e-04,  1.13333333e-02
   47487, -2.50100000e-03,  2.22133423e-19,  1.13333333e-02
   47488, -2.47960360e-03, -3.26446010e-04,  1.13333333e-02
   47489, -2.41578050e-03, -6.47306439e-04,  1.13333333e-02
   47490, -2.31062272e-03, -9.57091277e-04,  1.13333333e-02
   47491, -2.16592956e-03, -1.25050002e-03,  1.13333333e-02
   47492, -1.98417674e-03, -1.52251237e-03,  1.13333333e-02
   47493, -1.76847411e-03, -1.76847411e-03,  1.13333333e-02
   47494, -1.98417674e-03,  1.52251237e-03,  1.20000000e-02
   47495, -2.16592956e-03,  1.25050002e-03,  1.20000000e-02
   47496, -2.31062272e-03,  9.57091277e-04,  1.20000000e-02
   47497, -2.41578050e-03,  6.47306439e-04,  1.20000000e-02
   47498, -2.47960360e-03,  3.26446010e-04,  1.20000000e-02
   47499, -2.50100000e-03,  2.22133423e-19,  1.20000000e-02
   47500, -2.47960360e-03, -3.26446010e-04,  1.20000000e-02
   47501, -2.41578050e-03, -6.47306439e-04,  1.20000000e-02
   47502, -2.31062272e-03, -9.57091277e-04,  1.20000000e-02
   47503, -2.16592956e-03, -1.25050002e-03,  1.20000000e-02
   47504, -1.98417674e-03, -1.52251237e-03,  1.20000000e-02
   47505, -1.76847411e-03, -1.76847411e-03,  1.20000000e-02
   47506, -1.98417674e-03,  1.52251237e-03,  1.26666667e-02
   47507, -2.16592956e-03,  1.25050002e-03,  1.26666667e-02
   47508, -2.31062272e-03,  9.57091277e-04,  1.26666667e-02
   47509, -2.41578050e-03,  6.47306439e-04,  1.26666667e-02
   47510, -2.47960360e-03,  3.26446010e-04,  1.26666667e-02
   47511, -2.50100000e-03,  2.22133423e-19,  1.26666667e-02
   47512, -2.47960360e-03, -3.26446010e-04,  1.26666667e-02
   47513, -2.41578050e-03, -6.47306439e-04,  1.26666667e-02
   47514, -2.31062272e-03, -9.57091277e-04,  1.26666667e-02
   47515, -2.16592956e-03, -1.25050002e-03,  1.26666667e-02
   47516, -1.98417674e-03, -1.52251237e-03,  1.26666667e-02
   47517, -1.76847411e-03, -1.76847411e-03,  1.26666667e-02
   47518, -1.98417674e-03,  1.52251237e-03,  1.33333333e-02
   47519, -2.16592956e-03,  1.25050002e-03,  1.33333333e-02
   47520, -2.31062272e-03,  9.57091277e-04,  1.33333333e-02
   47521, -2.41578050e-03,  6.47306439e-04,  1.33333333e-02
   47522, -2.47960360e-03,  3.26446010e-04,  1.33333333e-02
   47523, -2.50100000e-03,  2.22133423e-19,  1.33333333e-02
   47524, -2.47960360e-03, -3.26446010e-04,  1.33333333e-02
   47525, -2.41578050e-03, -6.47306439e-04,  1.33333333e-02
   47526, -2.31062272e-03, -9.57091277e-04,  1.33333333e-02
   47527, -2.16592956e-03, -1.25050002e-03,  1.33333333e-02
   47528, -1.98417674e-03, -1.52251237e-03,  1.33333333e-02
   47529, -1.76847411e-03, -1.76847411e-03,  1.33333333e-02
   47530, -1.98417674e-03,  1.52251237e-03,  1.40000000e-02
   47531, -2.16592956e-03,  1.25050002e-03,  1.40000000e-02
   47532, -2.31062272e-03,  9.57091277e-04,  1.40000000e-02
   47533, -2.41578050e-03,  6.47306439e-04,  1.40000000e-02
   47534, -2.47960360e-03,  3.26446010e-04,  1.40000000e-02
   47535, -2.50100000e-03,  2.22133423e-19,  1.40000000e-02
   47536, -2.47960360e-03, -3.26446010e-04,  1.40000000e-02
   47537, -2.41578050e-03, -6.47306439e-04,  1.40000000e-02
   47538, -2.31062272e-03, -9.57091277e-04,  1.40000000e-02
   47539, -2.16592956e-03, -1.25050002e-03,  1.40000000e-02
   47540, -1.98417674e-03, -1.52251237e-03,  1.40000000e-02
   47541, -1.76847411e-03, -1.76847411e-03,  1.40000000e-02
   47542, -1.98417674e-03,  1.52251237e-03,  1.46666667e-02
   47543, -2.16592956e-03,  1.25050002e-03,  1.46666667e-02
   47544, -2.31062272e-03,  9.57091277e-04,  1.46666667e-02
   47545, -2.41578050e-03,  6.47306439e-04,  1.46666667e-02
   47546, -2.47960360e-03,  3.26446010e-04,  1.46666667e-02
   47547, -2.50100000e-03,  2.22133423e-19,  1.46666667e-02
   47548, -2.47960360e-03, -3.26446010e-04,  1.46666667e-02
   47549, -2.41578050e-03, -6.47306439e-04,  1.46666667e-02
   47550, -2.31062272e-03, -9.57091277e-04,  1.46666667e-02
   47551, -2.16592956e-03, -1.25050002e-03,  1.46666667e-02
   47552, -1.98417674e-03, -1.52251237e-03,  1.46666667e-02
   47553, -1.76847411e-03, -1.76847411e-03,  1.46666667e-02
   47554, -1.98417674e-03,  1.52251237e-03,  1.53333333e-02
   47555, -2.16592956e-03,  1.25050002e-03,  1.53333333e-02
   47556, -2.31062272e-03,  9.57091277e-04,  1.53333333e-02
   47557, -2.41578050e-03,  6.47306439e-04,  1.53333333e-02
   47558, -2.47960360e-03,  3.26446010e-04,  1.53333333e-02
   47559, -2.50100000e-03,  2.22133423e-19,  1.53333333e-02
   47560, -2.47960360e-03, -3.26446010e-04,  1.53333333e-02
   47561, -2.41578050e-03, -6.47306439e-04,  1.53333333e-02
   47562, -2.31062272e-03, -9.57091277e-04,  1.53333333e-02
   47563, -2.16592956e-03, -1.25050002e-03,  1.53333333e-02
   47564, -1.98417674e-03, -1.52251237e-03,  1.53333333e-02
   47565, -1.76847411e-03, -1.76847411e-03,  1.53333333e-02
   47566, -1.98417674e-03,  1.52251237e-03,  1.60000000e-02
   47567, -2.16592956e-03,  1.25050002e-03,  1.60000000e-02
   47568, -2.31062272e-03,  9.57091277e-04,  1.60000000e-02
   47569, -2.41578050e-03,  6.47306439e-04,  1.60000000e-02
   47570, -2.47960360e-03,  3.26446010e-04,  1.60000000e-02
   47571, -2.50100000e-03,  2.22133423e-19,  1.60000000e-02
   47572, -2.47960360e-03, -3.26446010e-04,  1.60000000e-02
   47573, -2.41578050e-03, -6.47306439e-04,  1.60000000e-02
   47574, -2.31062272e-03, -9.57091277e-04,  1.60000000e-02
   47575, -2.16592956e-03, -1.25050002e-03,  1.60000000e-02
   47576, -1.98417674e-03, -1.52251237e-03,  1.60000000e-02
   47577, -1.76847411e-03, -1.76847411e-03,  1.60000000e-02
   47578, -1.98417674e-03,  1.52251237e-03,  1.66666667e-02
   47579, -2.16592956e-03,  1.25050002e-03,  1.66666667e-02
   47580, -2.31062272e-03,  9.57091277e-04,  1.66666667e-02
   47581, -2.41578050e-03,  6.47306439e-04,  1.66666667e-02
   47582, -2.47960360e-03,  3.26446010e-04,  1.66666667e-02
   47583, -2.50100000e-03,  2.22133423e-19,  1.66666667e-02
   47584, -2.47960360e-03, -3.26446010e-04,  1.66666667e-02
   47585, -2.41578050e-03, -6.47306439e-04,  1.66666667e-02
   47586, -2.31062272e-03, -9.57091277e-04,  1.66666667e-02
   47587, -2.16592956e-03, -1.25050002e-03,  1.66666667e-02
   47588, -1.98417674e-03, -1.52251237e-03,  1.66666667e-02
   47589, -1.76847411e-03, -1.76847411e-03,  1.66666667e-02
   47590, -1.98417674e-03,  1.52251237e-03,  1.73333333e-02
   47591, -2.16592956e-03,  1.25050002e-03,  1.73333333e-02
   47592, -2.31062272e-03,  9.57091277e-04,  1.73333333e-02
   47593, -2.41578050e-03,  6.47306439e-04,  1.73333333e-02
   47594, -2.47960360e-03,  3.26446010e-04,  1.73333333e-02
   47595, -2.50100000e-03,  2.22133423e-19,  1.73333333e-02
   47596, -2.47960360e-03, -3.26446010e-04,  1.73333333e-02
   47597, -2.41578050e-03, -6.47306439e-04,  1.73333333e-02
   47598, -2.31062272e-03, -9.57091277e-04,  1.73333333e-02
   47599, -2.16592956e-03, -1.25050002e-03,  1.73333333e-02
   47600, -1.98417674e-03, -1.52251237e-03,  1.73333333e-02
   47601, -1.76847411e-03, -1.76847411e-03,  1.73333333e-02
   47602, -1.98417674e-03,  1.52251237e-03,  1.80000000e-02
   47603, -2.16592956e-03,  1.25050002e-03,  1.80000000e-02
   47604, -2.31062272e-03,  9.57091277e-04,  1.80000000e-02
   47605, -2.41578050e-03,  6.47306439e-04,  1.80000000e-02
   47606, -2.47960360e-03,  3.26446010e-04,  1.80000000e-02
   47607, -2.50100000e-03,  2.22133423e-19,  1.80000000e-02
   47608, -2.47960360e-03, -3.26446010e-04,  1.80000000e-02
   47609, -2.41578050e-03, -6.47306439e-04,  1.80000000e-02
   47610, -2.31062272e-03, -9.57091277e-04,  1.80000000e-02
   47611, -2.16592956e-03, -1.25050002e-03,  1.80000000e-02
   47612, -1.98417674e-03, -1.52251237e-03,  1.80000000e-02
   47613, -1.76847411e-03, -1.76847411e-03,  1.80000000e-02
   47614, -1.98417674e-03,  1.52251237e-03,  1.86666667e-02
   47615, -2.16592956e-03,  1.25050002e-03,  1.86666667e-02
   47616, -2.31062272e-03,  9.57091277e-04,  1.86666667e-02
   47617, -2.41578050e-03,  6.47306439e-04,  1.86666667e-02
   47618, -2.47960360e-03,  3.26446010e-04,  1.86666667e-02
   47619, -2.50100000e-03,  2.22133423e-19,  1.86666667e-02
   47620, -2.47960360e-03, -3.26446010e-04,  1.86666667e-02
   47621, -2.41578050e-03, -6.47306439e-04,  1.86666667e-02
   47622, -2.31062272e-03, -9.57091277e-04,  1.86666667e-02
   47623, -2.16592956e-03, -1.25050002e-03,  1.86666667e-02
   47624, -1.98417674e-03, -1.52251237e-03,  1.86666667e-02
   47625, -1.76847411e-03, -1.76847411e-03,  1.86666667e-02
   47626, -1.98417674e-03,  1.52251237e-03,  1.93333333e-02
   47627, -2.16592956e-03,  1.25050002e-03,  1.93333333e-02
   47628, -2.31062272e-03,  9.57091277e-04,  1.93333333e-02
   47629, -2.41578050e-03,  6.47306439e-04,  1.93333333e-02
   47630, -2.47960360e-03,  3.26446010e-04,  1.93333333e-02
   47631, -2.50100000e-03,  2.22133423e-19,  1.93333333e-02
   47632, -2.47960360e-03, -3.26446010e-04,  1.93333333e-02
   47633, -2.41578050e-03, -6.47306439e-04,  1.93333333e-02
   47634, -2.31062272e-03, -9.57091277e-04,  1.93333333e-02
   47635, -2.16592956e-03, -1.25050002e-03,  1.93333333e-02
   47636, -1.98417674e-03, -1.52251237e-03,  1.93333333e-02
   47637, -1.76847411e-03, -1.76847411e-03,  1.93333333e-02
   47638, -1.98417674e-03,  1.52251237e-03,  2.00000000e-02
   47639, -2.16592956e-03,  1.25050002e-03,  2.00000000e-02
   47640, -2.31062272e-03,  9.57091277e-04,  2.00000000e-02
   47641, -2.41578050e-03,  6.47306439e-04,  2.00000000e-02
   47642, -2.47960360e-03,  3.26446010e-04,  2.00000000e-02
   47643, -2.50100000e-03,  2.22133423e-19,  2.00000000e-02
   47644, -2.47960360e-03, -3.26446010e-04,  2.00000000e-02
   47645, -2.41578050e-03, -6.47306439e-04,  2.00000000e-02
   47646, -2.31062272e-03, -9.57091277e-04,  2.00000000e-02
   47647, -2.16592956e-03, -1.25050002e-03,  2.00000000e-02
   47648, -1.98417674e-03, -1.52251237e-03,  2.00000000e-02
   47649, -1.76847411e-03, -1.76847411e-03,  2.00000000e-02
   47650, -1.98417674e-03,  1.52251237e-03,  2.06666667e-02
   47651, -2.16592956e-03,  1.25050002e-03,  2.06666667e-02
   47652, -2.31062272e-03,  9.57091277e-04,  2.06666667e-02
   47653, -2.41578050e-03,  6.47306439e-04,  2.06666667e-02
   47654, -2.47960360e-03,  3.26446010e-04,  2.06666667e-02
   47655, -2.50100000e-03,  2.22133423e-19,  2.06666667e-02
   47656, -2.47960360e-03, -3.26446010e-04,  2.06666667e-02
   47657, -2.41578050e-03, -6.47306439e-04,  2.06666667e-02
   47658, -2.31062272e-03, -9.57091277e-04,  2.06666667e-02
   47659, -2.16592956e-03, -1.25050002e-03,  2.06666667e-02
   47660, -1.98417674e-03, -1.52251237e-03,  2.06666667e-02
   47661, -1.76847411e-03, -1.76847411e-03,  2.06666667e-02
   47662, -1.98417674e-03,  1.52251237e-03,  2.13333333e-02
   47663, -2.16592956e-03,  1.25050002e-03,  2.13333333e-02
   47664, -2.31062272e-03,  9.57091277e-04,  2.13333333e-02
   47665, -2.41578050e-03,  6.47306439e-04,  2.13333333e-02
   47666, -2.47960360e-03,  3.26446010e-04,  2.13333333e-02
   47667, -2.50100000e-03,  2.22133423e-19,  2.13333333e-02
   47668, -2.47960360e-03, -3.26446010e-04,  2.13333333e-02
   47669, -2.41578050e-03, -6.47306439e-04,  2.13333333e-02
   47670, -2.31062272e-03, -9.57091277e-04,  2.13333333e-02
   47671, -2.16592956e-03, -1.25050002e-03,  2.13333333e-02
   47672, -1.98417674e-03, -1.52251237e-03,  2.13333333e-02
   47673, -1.76847411e-03, -1.76847411e-03,  2.13333333e-02
   47674, -1.98417674e-03,  1.52251237e-03,  2.20000000e-02
   47675, -2.16592956e-03,  1.25050002e-03,  2.20000000e-02
   47676, -2.31062272e-03,  9.57091277e-04,  2.20000000e-02
   47677, -2.41578050e-03,  6.47306439e-04,  2.20000000e-02
   47678, -2.47960360e-03,  3.26446010e-04,  2.20000000e-02
   47679, -2.50100000e-03,  2.22133423e-19,  2.20000000e-02
   47680, -2.47960360e-03, -3.26446010e-04,  2.20000000e-02
   47681, -2.41578050e-03, -6.47306439e-04,  2.20000000e-02
   47682, -2.31062272e-03, -9.57091277e-04,  2.20000000e-02
   47683, -2.16592956e-03, -1.25050002e-03,  2.20000000e-02
   47684, -1.98417674e-03, -1.52251237e-03,  2.20000000e-02
   47685, -1.76847411e-03, -1.76847411e-03,  2.20000000e-02
   47686, -1.98417674e-03,  1.52251237e-03,  2.26666667e-02
   47687, -2.16592956e-03,  1.25050002e-03,  2.26666667e-02
   47688, -2.31062272e-03,  9.57091277e-04,  2.26666667e-02
   47689, -2.41578050e-03,  6.47306439e-04,  2.26666667e-02
   47690, -2.47960360e-03,  3.26446010e-04,  2.26666667e-02
   47691, -2.50100000e-03,  2.22133423e-19,  2.26666667e-02
   47692, -2.47960360e-03, -3.26446010e-04,  2.26666667e-02
   47693, -2.41578050e-03, -6.47306439e-04,  2.26666667e-02
   47694, -2.31062272e-03, -9.57091277e-04,  2.26666667e-02
   47695, -2.16592956e-03, -1.25050002e-03,  2.26666667e-02
   47696, -1.98417674e-03, -1.52251237e-03,  2.26666667e-02
   47697, -1.76847411e-03, -1.76847411e-03,  2.26666667e-02
   47698, -1.98417674e-03,  1.52251237e-03,  2.33333333e-02
   47699, -2.16592956e-03,  1.25050002e-03,  2.33333333e-02
   47700, -2.31062272e-03,  9.57091277e-04,  2.33333333e-02
   47701, -2.41578050e-03,  6.47306439e-04,  2.33333333e-02
   47702, -2.47960360e-03,  3.26446010e-04,  2.33333333e-02
   47703, -2.50100000e-03,  2.22133423e-19,  2.33333333e-02
   47704, -2.47960360e-03, -3.26446010e-04,  2.33333333e-02
   47705, -2.41578050e-03, -6.47306439e-04,  2.33333333e-02
   47706, -2.31062272e-03, -9.57091277e-04,  2.33333333e-02
   47707, -2.16592956e-03, -1.25050002e-03,  2.33333333e-02
   47708, -1.98417674e-03, -1.52251237e-03,  2.33333333e-02
   47709, -1.76847411e-03, -1.76847411e-03,  2.33333333e-02
   47710, -1.98417674e-03,  1.52251237e-03,  2.40000000e-02
   47711, -2.16592956e-03,  1.25050002e-03,  2.40000000e-02
   47712, -2.31062272e-03,  9.57091277e-04,  2.40000000e-02
   47713, -2.41578050e-03,  6.47306439e-04,  2.40000000e-02
   47714, -2.47960360e-03,  3.26446010e-04,  2.40000000e-02
   47715, -2.50100000e-03,  2.22133423e-19,  2.40000000e-02
   47716, -2.47960360e-03, -3.26446010e-04,  2.40000000e-02
   47717, -2.41578050e-03, -6.47306439e-04,  2.40000000e-02
   47718, -2.31062272e-03, -9.57091277e-04,  2.40000000e-02
   47719, -2.16592956e-03, -1.25050002e-03,  2.40000000e-02
   47720, -1.98417674e-03, -1.52251237e-03,  2.40000000e-02
   47721, -1.76847411e-03, -1.76847411e-03,  2.40000000e-02
   47722, -1.98417674e-03,  1.52251237e-03,  2.46666667e-02
   47723, -2.16592956e-03,  1.25050002e-03,  2.46666667e-02
   47724, -2.31062272e-03,  9.57091277e-04,  2.46666667e-02
   47725, -2.41578050e-03,  6.47306439e-04,  2.46666667e-02
   47726, -2.47960360e-03,  3.26446010e-04,  2.46666667e-02
   47727, -2.50100000e-03,  2.22133423e-19,  2.46666667e-02
   47728, -2.47960360e-03, -3.26446010e-04,  2.46666667e-02
   47729, -2.41578050e-03, -6.47306439e-04,  2.46666667e-02
   47730, -2.31062272e-03, -9.57091277e-04,  2.46666667e-02
   47731, -2.16592956e-03, -1.25050002e-03,  2.46666667e-02
   47732, -1.98417674e-03, -1.52251237e-03,  2.46666667e-02
   47733, -1.76847411e-03, -1.76847411e-03,  2.46666667e-02
   47734, -1.98417674e-03,  1.52251237e-03,  2.53333333e-02
   47735, -2.16592956e-03,  1.25050002e-03,  2.53333333e-02
   47736, -2.31062272e-03,  9.57091277e-04,  2.53333333e-02
   47737, -2.41578050e-03,  6.47306439e-04,  2.53333333e-02
   47738, -2.47960360e-03,  3.26446010e-04,  2.53333333e-02
   47739, -2.50100000e-03,  2.22133423e-19,  2.53333333e-02
   47740, -2.47960360e-03, -3.26446010e-04,  2.53333333e-02
   47741, -2.41578050e-03, -6.47306439e-04,  2.53333333e-02
   47742, -2.31062272e-03, -9.57091277e-04,  2.53333333e-02
   47743, -2.16592956e-03, -1.25050002e-03,  2.53333333e-02
   47744, -1.98417674e-03, -1.52251237e-03,  2.53333333e-02
   47745, -1.76847411e-03, -1.76847411e-03,  2.53333333e-02
   47746, -1.98417674e-03,  1.52251237e-03,  2.60000000e-02
   47747, -2.16592956e-03,  1.25050002e-03,  2.60000000e-02
   47748, -2.31062272e-03,  9.57091277e-04,  2.60000000e-02
   47749, -2.41578050e-03,  6.47306439e-04,  2.60000000e-02
   47750, -2.47960360e-03,  3.26446010e-04,  2.60000000e-02
   47751, -2.50100000e-03,  2.22133423e-19,  2.60000000e-02
   47752, -2.47960360e-03, -3.26446010e-04,  2.60000000e-02
   47753, -2.41578050e-03, -6.47306439e-04,  2.60000000e-02
   47754, -2.31062272e-03, -9.57091277e-04,  2.60000000e-02
   47755, -2.16592956e-03, -1.25050002e-03,  2.60000000e-02
   47756, -1.98417674e-03, -1.52251237e-03,  2.60000000e-02
   47757, -1.76847411e-03, -1.76847411e-03,  2.60000000e-02
   47758, -1.98417674e-03,  1.52251237e-03,  2.66666667e-02
   47759, -2.16592956e-03,  1.25050002e-03,  2.66666667e-02
   47760, -2.31062272e-03,  9.57091277e-04,  2.66666667e-02
   47761, -2.41578050e-03,  6.47306439e-04,  2.66666667e-02
   47762, -2.47960360e-03,  3.26446010e-04,  2.66666667e-02
   47763, -2.50100000e-03,  2.22133423e-19,  2.66666667e-02
   47764, -2.47960360e-03, -3.26446010e-04,  2.66666667e-02
   47765, -2.41578050e-03, -6.47306439e-04,  2.66666667e-02
   47766, -2.31062272e-03, -9.57091277e-04,  2.66666667e-02
   47767, -2.16592956e-03, -1.25050002e-03,  2.66666667e-02
   47768, -1.98417674e-03, -1.52251237e-03,  2.66666667e-02
   47769, -1.76847411e-03, -1.76847411e-03,  2.66666667e-02
   47770, -1.98417674e-03,  1.52251237e-03,  2.73333333e-02
   47771, -2.16592956e-03,  1.25050002e-03,  2.73333333e-02
   47772, -2.31062272e-03,  9.57091277e-04,  2.73333333e-02
   47773, -2.41578050e-03,  6.47306439e-04,  2.73333333e-02
   47774, -2.47960360e-03,  3.26446010e-04,  2.73333333e-02
   47775, -2.50100000e-03,  2.22133423e-19,  2.73333333e-02
   47776, -2.47960360e-03, -3.26446010e-04,  2.73333333e-02
   47777, -2.41578050e-03, -6.47306439e-04,  2.73333333e-02
   47778, -2.31062272e-03, -9.57091277e-04,  2.73333333e-02
   47779, -2.16592956e-03, -1.25050002e-03,  2.73333333e-02
   47780, -1.98417674e-03, -1.52251237e-03,  2.73333333e-02
   47781, -1.76847411e-03, -1.76847411e-03,  2.73333333e-02
   47782, -1.98417674e-03,  1.52251237e-03,  2.80000000e-02
   47783, -2.16592956e-03,  1.25050002e-03,  2.80000000e-02
   47784, -2.31062272e-03,  9.57091277e-04,  2.80000000e-02
   47785, -2.41578050e-03,  6.47306439e-04,  2.80000000e-02
   47786, -2.47960360e-03,  3.26446010e-04,  2.80000000e-02
   47787, -2.50100000e-03,  2.22133423e-19,  2.80000000e-02
   47788, -2.47960360e-03, -3.26446010e-04,  2.80000000e-02
   47789, -2.41578050e-03, -6.47306439e-04,  2.80000000e-02
   47790, -2.31062272e-03, -9.57091277e-04,  2.80000000e-02
   47791, -2.16592956e-03, -1.25050002e-03,  2.80000000e-02
   47792, -1.98417674e-03, -1.52251237e-03,  2.80000000e-02
   47793, -1.76847411e-03, -1.76847411e-03,  2.80000000e-02
   47794, -1.98417674e-03,  1.52251237e-03,  2.86666667e-02
   47795, -2.16592956e-03,  1.25050002e-03,  2.86666667e-02
   47796, -2.31062272e-03,  9.57091277e-04,  2.86666667e-02
   47797, -2.41578050e-03,  6.47306439e-04,  2.86666667e-02
   47798, -2.47960360e-03,  3.26446010e-04,  2.86666667e-02
   47799, -2.50100000e-03,  2.22133423e-19,  2.86666667e-02
   47800, -2.47960360e-03, -3.26446010e-04,  2.86666667e-02
   47801, -2.41578050e-03, -6.47306439e-04,  2.86666667e-02
   47802, -2.31062272e-03, -9.57091277e-04,  2.86666667e-02
   47803, -2.16592956e-03, -1.25050002e-03,  2.86666667e-02
   47804, -1.98417674e-03, -1.52251237e-03,  2.86666667e-02
   47805, -1.76847411e-03, -1.76847411e-03,  2.86666667e-02
   47806, -1.98417674e-03,  1.52251237e-03,  2.93333333e-02
   47807, -2.16592956e-03,  1.25050002e-03,  2.93333333e-02
   47808, -2.31062272e-03,  9.57091277e-04,  2.93333333e-02
   47809, -2.41578050e-03,  6.47306439e-04,  2.93333333e-02
   47810, -2.47960360e-03,  3.26446010e-04,  2.93333333e-02
   47811, -2.50100000e-03,  2.22133423e-19,  2.93333333e-02
   47812, -2.47960360e-03, -3.26446010e-04,  2.93333333e-02
   47813, -2.41578050e-03, -6.47306439e-04,  2.93333333e-02
   47814, -2.31062272e-03, -9.57091277e-04,  2.93333333e-02
   47815, -2.16592956e-03, -1.25050002e-03,  2.93333333e-02
   47816, -1.98417674e-03, -1.52251237e-03,  2.93333333e-02
   47817, -1.76847411e-03, -1.76847411e-03,  2.93333333e-02
   47818, -1.98417674e-03,  1.52251237e-03,  3.00000000e-02
   47819, -2.16592956e-03,  1.25050002e-03,  3.00000000e-02
   47820, -2.31062272e-03,  9.57091277e-04,  3.00000000e-02
   47821, -2.41578050e-03,  6.47306439e-04,  3.00000000e-02
   47822, -2.47960360e-03,  3.26446010e-04,  3.00000000e-02
   47823, -2.50100000e-03,  2.22133423e-19,  3.00000000e-02
   47824, -2.47960360e-03, -3.26446010e-04,  3.00000000e-02
   47825, -2.41578050e-03, -6.47306439e-04,  3.00000000e-02
   47826, -2.31062272e-03, -9.57091277e-04,  3.00000000e-02
   47827, -2.16592956e-03, -1.25050002e-03,  3.00000000e-02
   47828, -1.98417674e-03, -1.52251237e-03,  3.00000000e-02
   47829, -1.76847411e-03, -1.76847411e-03,  3.00000000e-02
   47830, -1.52251237e-03, -1.98417674e-03,  0.00000000e+00
   47831, -1.25050002e-03, -2.16592956e-03,  0.00000000e+00
   47832, -9.57091277e-04, -2.31062272e-03,  0.00000000e+00
   47833, -6.47306439e-04, -2.41578050e-03,  0.00000000e+00
   47834, -3.26446010e-04, -2.47960360e-03,  0.00000000e+00
   47835, -2.22133423e-19, -2.50100000e-03,  0.00000000e+00
   47836,  3.26446010e-04, -2.47960360e-03,  0.00000000e+00
   47837,  6.47306439e-04, -2.41578050e-03,  0.00000000e+00
   47838,  9.57091277e-04, -2.31062272e-03,  0.00000000e+00
   47839,  1.25050002e-03, -2.16592956e-03,  0.00000000e+00
   47840,  1.52251237e-03, -1.98417674e-03,  0.00000000e+00
   47841, -1.52251237e-03, -1.98417674e-03,  6.66666667e-04
   47842, -1.25050002e-03, -2.16592956e-03,  6.66666667e-04
   47843, -9.57091277e-04, -2.31062272e-03,  6.66666667e-04
   47844, -6.47306439e-04, -2.41578050e-03,  6.66666667e-04
   47845, -3.26446010e-04, -2.47960360e-03,  6.66666667e-04
   47846, -2.22133423e-19, -2.50100000e-03,  6.66666667e-04
   47847,  3.26446010e-04, -2.47960360e-03,  6.66666667e-04
   47848,  6.47306439e-04, -2.41578050e-03,  6.66666667e-04
   47849,  9.57091277e-04, -2.31062272e-03,  6.66666667e-04
   47850,  1.25050002e-03, -2.16592956e-03,  6.66666667e-04
   47851,  1.52251237e-03, -1.98417674e-03,  6.66666667e-04
   47852, -1.52251237e-03, -1.98417674e-03,  1.33333333e-03
   47853, -1.25050002e-03, -2.16592956e-03,  1.33333333e-03
   47854, -9.57091277e-04, -2.31062272e-03,  1.33333333e-03
   47855, -6.47306439e-04, -2.41578050e-03,  1.33333333e-03
   47856, -3.26446010e-04, -2.47960360e-03,  1.33333333e-03
   47857, -2.22133423e-19, -2.50100000e-03,  1.33333333e-03
   47858,  3.26446010e-04, -2.47960360e-03,  1.33333333e-03
   47859,  6.47306439e-04, -2.41578050e-03,  1.33333333e-03
   47860,  9.57091277e-04, -2.31062272e-03,  1.33333333e-03
   47861,  1.25050002e-03, -2.16592956e-03,  1.33333333e-03
   47862,  1.52251237e-03, -1.98417674e-03,  1.33333333e-03
   47863, -1.52251237e-03, -1.98417674e-03,  2.00000000e-03
   47864, -1.25050002e-03, -2.16592956e-03,  2.00000000e-03
   47865, -9.57091277e-04, -2.31062272e-03,  2.00000000e-03
   47866, -6.47306439e-04, -2.41578050e-03,  2.00000000e-03
   47867, -3.26446010e-04, -2.47960360e-03,  2.00000000e-03
   47868, -2.22133423e-19, -2.50100000e-03,  2.00000000e-03
   47869,  3.26446010e-04, -2.47960360e-03,  2.00000000e-03
   47870,  6.47306439e-04, -2.41578050e-03,  2.00000000e-03
   47871,  9.57091277e-04, -2.31062272e-03,  2.00000000e-03
   47872,  1.25050002e-03, -2.16592956e-03,  2.00000000e-03
   47873,  1.52251237e-03, -1.98417674e-03,  2.00000000e-03
   47874, -1.52251237e-03, -1.98417674e-03,  2.66666667e-03
   47875, -1.25050002e-03, -2.16592956e-03,  2.66666667e-03
   47876, -9.57091277e-04, -2.31062272e-03,  2.66666667e-03
   47877, -6.47306439e-04, -2.41578050e-03,  2.66666667e-03
   47878, -3.26446010e-04, -2.47960360e-03,  2.66666667e-03
   47879, -2.22133423e-19, -2.50100000e-03,  2.66666667e-03
   47880,  3.26446010e-04, -2.47960360e-03,  2.66666667e-03
   47881,  6.47306439e-04, -2.41578050e-03,  2.66666667e-03
   47882,  9.57091277e-04, -2.31062272e-03,  2.66666667e-03
   47883,  1.25050002e-03, -2.16592956e-03,  2.66666667e-03
   47884,  1.52251237e-03, -1.98417674e-03,  2.66666667e-03
   47885, -1.52251237e-03, -1.98417674e-03,  3.33333333e-03
   47886, -1.25050002e-03, -2.16592956e-03,  3.33333333e-03
   47887, -9.57091277e-04, -2.31062272e-03,  3.33333333e-03
   47888, -6.47306439e-04, -2.41578050e-03,  3.33333333e-03
   47889, -3.26446010e-04, -2.47960360e-03,  3.33333333e-03
   47890, -2.22133423e-19, -2.50100000e-03,  3.33333333e-03
   47891,  3.26446010e-04, -2.47960360e-03,  3.33333333e-03
   47892,  6.47306439e-04, -2.41578050e-03,  3.33333333e-03
   47893,  9.57091277e-04, -2.31062272e-03,  3.33333333e-03
   47894,  1.25050002e-03, -2.16592956e-03,  3.33333333e-03
   47895,  1.52251237e-03, -1.98417674e-03,  3.33333333e-03
   47896, -1.52251237e-03, -1.98417674e-03,  4.00000000e-03
   47897, -1.25050002e-03, -2.16592956e-03,  4.00000000e-03
   47898, -9.57091277e-04, -2.31062272e-03,  4.00000000e-03
   47899, -6.47306439e-04, -2.41578050e-03,  4.00000000e-03
   47900, -3.26446010e-04, -2.47960360e-03,  4.00000000e-03
   47901, -2.22133423e-19, -2.50100000e-03,  4.00000000e-03
   47902,  3.26446010e-04, -2.47960360e-03,  4.00000000e-03
   47903,  6.47306439e-04, -2.41578050e-03,  4.00000000e-03
   47904,  9.57091277e-04, -2.31062272e-03,  4.00000000e-03
   47905,  1.25050002e-03, -2.16592956e-03,  4.00000000e-03
   47906,  1.52251237e-03, -1.98417674e-03,  4.00000000e-03
   47907, -1.52251237e-03, -1.98417674e-03,  4.66666667e-03
   47908, -1.25050002e-03, -2.16592956e-03,  4.66666667e-03
   47909, -9.57091277e-04, -2.31062272e-03,  4.66666667e-03
   47910, -6.47306439e-04, -2.41578050e-03,  4.66666667e-03
   47911, -3.26446010e-04, -2.47960360e-03,  4.66666667e-03
   47912, -2.22133423e-19, -2.50100000e-03,  4.66666667e-03
   47913,  3.26446010e-04, -2.47960360e-03,  4.66666667e-03
   47914,  6.47306439e-04, -2.41578050e-03,  4.66666667e-03
   47915,  9.57091277e-04, -2.31062272e-03,  4.66666667e-03
   47916,  1.25050002e-03, -2.16592956e-03,  4.66666667e-03
   47917,  1.52251237e-03, -1.98417674e-03,  4.66666667e-03
   47918, -1.52251237e-03, -1.98417674e-03,  5.33333333e-03
   47919, -1.25050002e-03, -2.16592956e-03,  5.33333333e-03
   47920, -9.57091277e-04, -2.31062272e-03,  5.33333333e-03
   47921, -6.47306439e-04, -2.41578050e-03,  5.33333333e-03
   47922, -3.26446010e-04, -2.47960360e-03,  5.33333333e-03
   47923, -2.22133423e-19, -2.50100000e-03,  5.33333333e-03
   47924,  3.26446010e-04, -2.47960360e-03,  5.33333333e-03
   47925,  6.47306439e-04, -2.41578050e-03,  5.33333333e-03
   47926,  9.57091277e-04, -2.31062272e-03,  5.33333333e-03
   47927,  1.25050002e-03, -2.16592956e-03,  5.33333333e-03
   47928,  1.52251237e-03, -1.98417674e-03,  5.33333333e-03
   47929, -1.52251237e-03, -1.98417674e-03,  6.00000000e-03
   47930, -1.25050002e-03, -2.16592956e-03,  6.00000000e-03
   47931, -9.57091277e-04, -2.31062272e-03,  6.00000000e-03
   47932, -6.47306439e-04, -2.41578050e-03,  6.00000000e-03
   47933, -3.26446010e-04, -2.47960360e-03,  6.00000000e-03
   47934, -2.22133423e-19, -2.50100000e-03,  6.00000000e-03
   47935,  3.26446010e-04, -2.47960360e-03,  6.00000000e-03
   47936,  6.47306439e-04, -2.41578050e-03,  6.00000000e-03
   47937,  9.57091277e-04, -2.31062272e-03,  6.00000000e-03
   47938,  1.25050002e-03, -2.16592956e-03,  6.00000000e-03
   47939,  1.52251237e-03, -1.98417674e-03,  6.00000000e-03
   47940, -1.52251237e-03, -1.98417674e-03,  6.66666667e-03
   47941, -1.25050002e-03, -2.16592956e-03,  6.66666667e-03
   47942, -9.57091277e-04, -2.31062272e-03,  6.66666667e-03
   47943, -6.47306439e-04, -2.41578050e-03,  6.66666667e-03
   47944, -3.26446010e-04, -2.47960360e-03,  6.66666667e-03
   47945, -2.22133423e-19, -2.50100000e-03,  6.66666667e-03
   47946,  3.26446010e-04, -2.47960360e-03,  6.66666667e-03
   47947,  6.47306439e-04, -2.41578050e-03,  6.66666667e-03
   47948,  9.57091277e-04, -2.31062272e-03,  6.66666667e-03
   47949,  1.25050002e-03, -2.16592956e-03,  6.66666667e-03
   47950,  1.52251237e-03, -1.98417674e-03,  6.66666667e-03
   47951, -1.52251237e-03, -1.98417674e-03,  7.33333333e-03
   47952, -1.25050002e-03, -2.16592956e-03,  7.33333333e-03
   47953, -9.57091277e-04, -2.31062272e-03,  7.33333333e-03
   47954, -6.47306439e-04, -2.41578050e-03,  7.33333333e-03
   47955, -3.26446010e-04, -2.47960360e-03,  7.33333333e-03
   47956, -2.22133423e-19, -2.50100000e-03,  7.33333333e-03
   47957,  3.26446010e-04, -2.47960360e-03,  7.33333333e-03
   47958,  6.47306439e-04, -2.41578050e-03,  7.33333333e-03
   47959,  9.57091277e-04, -2.31062272e-03,  7.33333333e-03
   47960,  1.25050002e-03, -2.16592956e-03,  7.33333333e-03
   47961,  1.52251237e-03, -1.98417674e-03,  7.33333333e-03
   47962, -1.52251237e-03, -1.98417674e-03,  8.00000000e-03
   47963, -1.25050002e-03, -2.16592956e-03,  8.00000000e-03
   47964, -9.57091277e-04, -2.31062272e-03,  8.00000000e-03
   47965, -6.47306439e-04, -2.41578050e-03,  8.00000000e-03
   47966, -3.26446010e-04, -2.47960360e-03,  8.00000000e-03
   47967, -2.22133423e-19, -2.50100000e-03,  8.00000000e-03
   47968,  3.26446010e-04, -2.47960360e-03,  8.00000000e-03
   47969,  6.47306439e-04, -2.41578050e-03,  8.00000000e-03
   47970,  9.57091277e-04, -2.31062272e-03,  8.00000000e-03
   47971,  1.25050002e-03, -2.16592956e-03,  8.00000000e-03
   47972,  1.52251237e-03, -1.98417674e-03,  8.00000000e-03
   47973, -1.52251237e-03, -1.98417674e-03,  8.66666667e-03
   47974, -1.25050002e-03, -2.16592956e-03,  8.66666667e-03
   47975, -9.57091277e-04, -2.31062272e-03,  8.66666667e-03
   47976, -6.47306439e-04, -2.41578050e-03,  8.66666667e-03
   47977, -3.26446010e-04, -2.47960360e-03,  8.66666667e-03
   47978, -2.22133423e-19, -2.50100000e-03,  8.66666667e-03
   47979,  3.26446010e-04, -2.47960360e-03,  8.66666667e-03
   47980,  6.47306439e-04, -2.41578050e-03,  8.66666667e-03
   47981,  9.57091277e-04, -2.31062272e-03,  8.66666667e-03
   47982,  1.25050002e-03, -2.16592956e-03,  8.66666667e-03
   47983,  1.52251237e-03, -1.98417674e-03,  8.66666667e-03
   47984, -1.52251237e-03, -1.98417674e-03,  9.33333333e-03
   47985, -1.25050002e-03, -2.16592956e-03,  9.33333333e-03
   47986, -9.57091277e-04, -2.31062272e-03,  9.33333333e-03
   47987, -6.47306439e-04, -2.41578050e-03,  9.33333333e-03
   47988, -3.26446010e-04, -2.47960360e-03,  9.33333333e-03
   47989, -2.22133423e-19, -2.50100000e-03,  9.33333333e-03
   47990,  3.26446010e-04, -2.47960360e-03,  9.33333333e-03
   47991,  6.47306439e-04, -2.41578050e-03,  9.33333333e-03
   47992,  9.57091277e-04, -2.31062272e-03,  9.33333333e-03
   47993,  1.25050002e-03, -2.16592956e-03,  9.33333333e-03
   47994,  1.52251237e-03, -1.98417674e-03,  9.33333333e-03
   47995, -1.52251237e-03, -1.98417674e-03,  1.00000000e-02
   47996, -1.25050002e-03, -2.16592956e-03,  1.00000000e-02
   47997, -9.57091277e-04, -2.31062272e-03,  1.00000000e-02
   47998, -6.47306439e-04, -2.41578050e-03,  1.00000000e-02
   47999, -3.26446010e-04, -2.47960360e-03,  1.00000000e-02
   48000, -2.22133423e-19, -2.50100000e-03,  1.00000000e-02
   48001,  3.26446010e-04, -2.47960360e-03,  1.00000000e-02
   48002,  6.47306439e-04, -2.41578050e-03,  1.00000000e-02
   48003,  9.57091277e-04, -2.31062272e-03,  1.00000000e-02
   48004,  1.25050002e-03, -2.16592956e-03,  1.00000000e-02
   48005,  1.52251237e-03, -1.98417674e-03,  1.00000000e-02
   48006, -1.52251237e-03, -1.98417674e-03,  1.06666667e-02
   48007, -1.25050002e-03, -2.16592956e-03,  1.06666667e-02
   48008, -9.57091277e-04, -2.31062272e-03,  1.06666667e-02
   48009, -6.47306439e-04, -2.41578050e-03,  1.06666667e-02
   48010, -3.26446010e-04, -2.47960360e-03,  1.06666667e-02
   48011, -2.22133423e-19, -2.50100000e-03,  1.06666667e-02
   48012,  3.26446010e-04, -2.47960360e-03,  1.06666667e-02
   48013,  6.47306439e-04, -2.41578050e-03,  1.06666667e-02
   48014,  9.57091277e-04, -2.31062272e-03,  1.06666667e-02
   48015,  1.25050002e-03, -2.16592956e-03,  1.06666667e-02
   48016,  1.52251237e-03, -1.98417674e-03,  1.06666667e-02
   48017, -1.52251237e-03, -1.98417674e-03,  1.13333333e-02
   48018, -1.25050002e-03, -2.16592956e-03,  1.13333333e-02
   48019, -9.57091277e-04, -2.31062272e-03,  1.13333333e-02
   48020, -6.47306439e-04, -2.41578050e-03,  1.13333333e-02
   48021, -3.26446010e-04, -2.47960360e-03,  1.13333333e-02
   48022, -2.22133423e-19, -2.50100000e-03,  1.13333333e-02
   48023,  3.26446010e-04, -2.47960360e-03,  1.13333333e-02
   48024,  6.47306439e-04, -2.41578050e-03,  1.13333333e-02
   48025,  9.57091277e-04, -2.31062272e-03,  1.13333333e-02
   48026,  1.25050002e-03, -2.16592956e-03,  1.13333333e-02
   48027,  1.52251237e-03, -1.98417674e-03,  1.13333333e-02
   48028, -1.52251237e-03, -1.98417674e-03,  1.20000000e-02
   48029, -1.25050002e-03, -2.16592956e-03,  1.20000000e-02
   48030, -9.57091277e-04, -2.31062272e-03,  1.20000000e-02
   48031, -6.47306439e-04, -2.41578050e-03,  1.20000000e-02
   48032, -3.26446010e-04, -2.47960360e-03,  1.20000000e-02
   48033, -2.22133423e-19, -2.50100000e-03,  1.20000000e-02
   48034,  3.26446010e-04, -2.47960360e-03,  1.20000000e-02
   48035,  6.47306439e-04, -2.41578050e-03,  1.20000000e-02
   48036,  9.57091277e-04, -2.31062272e-03,  1.20000000e-02
   48037,  1.25050002e-03, -2.16592956e-03,  1.20000000e-02
   48038,  1.52251237e-03, -1.98417674e-03,  1.20000000e-02
   48039, -1.52251237e-03, -1.98417674e-03,  1.26666667e-02
   48040, -1.25050002e-03, -2.16592956e-03,  1.26666667e-02
   48041, -9.57091277e-04, -2.31062272e-03,  1.26666667e-02
   48042, -6.47306439e-04, -2.41578050e-03,  1.26666667e-02
   48043, -3.26446010e-04, -2.47960360e-03,  1.26666667e-02
   48044, -2.22133423e-19, -2.50100000e-03,  1.26666667e-02
   48045,  3.26446010e-04, -2.47960360e-03,  1.26666667e-02
   48046,  6.47306439e-04, -2.41578050e-03,  1.26666667e-02
   48047,  9.57091277e-04, -2.31062272e-03,  1.26666667e-02
   48048,  1.25050002e-03, -2.16592956e-03,  1.26666667e-02
   48049,  1.52251237e-03, -1.98417674e-03,  1.26666667e-02
   48050, -1.52251237e-03, -1.98417674e-03,  1.33333333e-02
   48051, -1.25050002e-03, -2.16592956e-03,  1.33333333e-02
   48052, -9.57091277e-04, -2.31062272e-03,  1.33333333e-02
   48053, -6.47306439e-04, -2.41578050e-03,  1.33333333e-02
   48054, -3.26446010e-04, -2.47960360e-03,  1.33333333e-02
   48055, -2.22133423e-19, -2.50100000e-03,  1.33333333e-02
   48056,  3.26446010e-04, -2.47960360e-03,  1.33333333e-02
   48057,  6.47306439e-04, -2.41578050e-03,  1.33333333e-02
   48058,  9.57091277e-04, -2.31062272e-03,  1.33333333e-02
   48059,  1.25050002e-03, -2.16592956e-03,  1.33333333e-02
   48060,  1.52251237e-03, -1.98417674e-03,  1.33333333e-02
   48061, -1.52251237e-03, -1.98417674e-03,  1.40000000e-02
   48062, -1.25050002e-03, -2.16592956e-03,  1.40000000e-02
   48063, -9.57091277e-04, -2.31062272e-03,  1.40000000e-02
   48064, -6.47306439e-04, -2.41578050e-03,  1.40000000e-02
   48065, -3.26446010e-04, -2.47960360e-03,  1.40000000e-02
   48066, -2.22133423e-19, -2.50100000e-03,  1.40000000e-02
   48067,  3.26446010e-04, -2.47960360e-03,  1.40000000e-02
   48068,  6.47306439e-04, -2.41578050e-03,  1.40000000e-02
   48069,  9.57091277e-04, -2.31062272e-03,  1.40000000e-02
   48070,  1.25050002e-03, -2.16592956e-03,  1.40000000e-02
   48071,  1.52251237e-03, -1.98417674e-03,  1.40000000e-02
   48072, -1.52251237e-03, -1.98417674e-03,  1.46666667e-02
   48073, -1.25050002e-03, -2.16592956e-03,  1.46666667e-02
   48074, -9.57091277e-04, -2.31062272e-03,  1.46666667e-02
   48075, -6.47306439e-04, -2.41578050e-03,  1.46666667e-02
   48076, -3.26446010e-04, -2.47960360e-03,  1.46666667e-02
   48077, -2.22133423e-19, -2.50100000e-03,  1.46666667e-02
   48078,  3.26446010e-04, -2.47960360e-03,  1.46666667e-02
   48079,  6.47306439e-04, -2.41578050e-03,  1.46666667e-02
   48080,  9.57091277e-04, -2.31062272e-03,  1.46666667e-02
   48081,  1.25050002e-03, -2.16592956e-03,  1.46666667e-02
   48082,  1.52251237e-03, -1.98417674e-03,  1.46666667e-02
   48083, -1.52251237e-03, -1.98417674e-03,  1.53333333e-02
   48084, -1.25050002e-03, -2.16592956e-03,  1.53333333e-02
   48085, -9.57091277e-04, -2.31062272e-03,  1.53333333e-02
   48086, -6.47306439e-04, -2.41578050e-03,  1.53333333e-02
   48087, -3.26446010e-04, -2.47960360e-03,  1.53333333e-02
   48088, -2.22133423e-19, -2.50100000e-03,  1.53333333e-02
   48089,  3.26446010e-04, -2.47960360e-03,  1.53333333e-02
   48090,  6.47306439e-04, -2.41578050e-03,  1.53333333e-02
   48091,  9.57091277e-04, -2.31062272e-03,  1.53333333e-02
   48092,  1.25050002e-03, -2.16592956e-03,  1.53333333e-02
   48093,  1.52251237e-03, -1.98417674e-03,  1.53333333e-02
   48094, -1.52251237e-03, -1.98417674e-03,  1.60000000e-02
   48095, -1.25050002e-03, -2.16592956e-03,  1.60000000e-02
   48096, -9.57091277e-04, -2.31062272e-03,  1.60000000e-02
   48097, -6.47306439e-04, -2.41578050e-03,  1.60000000e-02
   48098, -3.26446010e-04, -2.47960360e-03,  1.60000000e-02
   48099, -2.22133423e-19, -2.50100000e-03,  1.60000000e-02
   48100,  3.26446010e-04, -2.47960360e-03,  1.60000000e-02
   48101,  6.47306439e-04, -2.41578050e-03,  1.60000000e-02
   48102,  9.57091277e-04, -2.31062272e-03,  1.60000000e-02
   48103,  1.25050002e-03, -2.16592956e-03,  1.60000000e-02
   48104,  1.52251237e-03, -1.98417674e-03,  1.60000000e-02
   48105, -1.52251237e-03, -1.98417674e-03,  1.66666667e-02
   48106, -1.25050002e-03, -2.16592956e-03,  1.66666667e-02
   48107, -9.57091277e-04, -2.31062272e-03,  1.66666667e-02
   48108, -6.47306439e-04, -2.41578050e-03,  1.66666667e-02
   48109, -3.26446010e-04, -2.47960360e-03,  1.66666667e-02
   48110, -2.22133423e-19, -2.50100000e-03,  1.66666667e-02
   48111,  3.26446010e-04, -2.47960360e-03,  1.66666667e-02
   48112,  6.47306439e-04, -2.41578050e-03,  1.66666667e-02
   48113,  9.57091277e-04, -2.31062272e-03,  1.66666667e-02
   48114,  1.25050002e-03, -2.16592956e-03,  1.66666667e-02
   48115,  1.52251237e-03, -1.98417674e-03,  1.66666667e-02
   48116, -1.52251237e-03, -1.98417674e-03,  1.73333333e-02
   48117, -1.25050002e-03, -2.16592956e-03,  1.73333333e-02
   48118, -9.57091277e-04, -2.31062272e-03,  1.73333333e-02
   48119, -6.47306439e-04, -2.41578050e-03,  1.73333333e-02
   48120, -3.26446010e-04, -2.47960360e-03,  1.73333333e-02
   48121, -2.22133423e-19, -2.50100000e-03,  1.73333333e-02
   48122,  3.26446010e-04, -2.47960360e-03,  1.73333333e-02
   48123,  6.47306439e-04, -2.41578050e-03,  1.73333333e-02
   48124,  9.57091277e-04, -2.31062272e-03,  1.73333333e-02
   48125,  1.25050002e-03, -2.16592956e-03,  1.73333333e-02
   48126,  1.52251237e-03, -1.98417674e-03,  1.73333333e-02
   48127, -1.52251237e-03, -1.98417674e-03,  1.80000000e-02
   48128, -1.25050002e-03, -2.16592956e-03,  1.80000000e-02
   48129, -9.57091277e-04, -2.31062272e-03,  1.80000000e-02
   48130, -6.47306439e-04, -2.41578050e-03,  1.80000000e-02
   48131, -3.26446010e-04, -2.47960360e-03,  1.80000000e-02
   48132, -2.22133423e-19, -2.50100000e-03,  1.80000000e-02
   48133,  3.26446010e-04, -2.47960360e-03,  1.80000000e-02
   48134,  6.47306439e-04, -2.41578050e-03,  1.80000000e-02
   48135,  9.57091277e-04, -2.31062272e-03,  1.80000000e-02
   48136,  1.25050002e-03, -2.16592956e-03,  1.80000000e-02
   48137,  1.52251237e-03, -1.98417674e-03,  1.80000000e-02
   48138, -1.52251237e-03, -1.98417674e-03,  1.86666667e-02
   48139, -1.25050002e-03, -2.16592956e-03,  1.86666667e-02
   48140, -9.57091277e-04, -2.31062272e-03,  1.86666667e-02
   48141, -6.47306439e-04, -2.41578050e-03,  1.86666667e-02
   48142, -3.26446010e-04, -2.47960360e-03,  1.86666667e-02
   48143, -2.22133423e-19, -2.50100000e-03,  1.86666667e-02
   48144,  3.26446010e-04, -2.47960360e-03,  1.86666667e-02
   48145,  6.47306439e-04, -2.41578050e-03,  1.86666667e-02
   48146,  9.57091277e-04, -2.31062272e-03,  1.86666667e-02
   48147,  1.25050002e-03, -2.16592956e-03,  1.86666667e-02
   48148,  1.52251237e-03, -1.98417674e-03,  1.86666667e-02
   48149, -1.52251237e-03, -1.98417674e-03,  1.93333333e-02
   48150, -1.25050002e-03, -2.16592956e-03,  1.93333333e-02
   48151, -9.57091277e-04, -2.31062272e-03,  1.93333333e-02
   48152, -6.47306439e-04, -2.41578050e-03,  1.93333333e-02
   48153, -3.26446010e-04, -2.47960360e-03,  1.93333333e-02
   48154, -2.22133423e-19, -2.50100000e-03,  1.93333333e-02
   48155,  3.26446010e-04, -2.47960360e-03,  1.93333333e-02
   48156,  6.47306439e-04, -2.41578050e-03,  1.93333333e-02
   48157,  9.57091277e-04, -2.31062272e-03,  1.93333333e-02
   48158,  1.25050002e-03, -2.16592956e-03,  1.93333333e-02
   48159,  1.52251237e-03, -1.98417674e-03,  1.93333333e-02
   48160, -1.52251237e-03, -1.98417674e-03,  2.00000000e-02
   48161, -1.25050002e-03, -2.16592956e-03,  2.00000000e-02
   48162, -9.57091277e-04, -2.31062272e-03,  2.00000000e-02
   48163, -6.47306439e-04, -2.41578050e-03,  2.00000000e-02
   48164, -3.26446010e-04, -2.47960360e-03,  2.00000000e-02
   48165, -2.22133423e-19, -2.50100000e-03,  2.00000000e-02
   48166,  3.26446010e-04, -2.47960360e-03,  2.00000000e-02
   48167,  6.47306439e-04, -2.41578050e-03,  2.00000000e-02
   48168,  9.57091277e-04, -2.31062272e-03,  2.00000000e-02
   48169,  1.25050002e-03, -2.16592956e-03,  2.00000000e-02
   48170,  1.52251237e-03, -1.98417674e-03,  2.00000000e-02
   48171, -1.52251237e-03, -1.98417674e-03,  2.06666667e-02
   48172, -1.25050002e-03, -2.16592956e-03,  2.06666667e-02
   48173, -9.57091277e-04, -2.31062272e-03,  2.06666667e-02
   48174, -6.47306439e-04, -2.41578050e-03,  2.06666667e-02
   48175, -3.26446010e-04, -2.47960360e-03,  2.06666667e-02
   48176, -2.22133423e-19, -2.50100000e-03,  2.06666667e-02
   48177,  3.26446010e-04, -2.47960360e-03,  2.06666667e-02
   48178,  6.47306439e-04, -2.41578050e-03,  2.06666667e-02
   48179,  9.57091277e-04, -2.31062272e-03,  2.06666667e-02
   48180,  1.25050002e-03, -2.16592956e-03,  2.06666667e-02
   48181,  1.52251237e-03, -1.98417674e-03,  2.06666667e-02
   48182, -1.52251237e-03, -1.98417674e-03,  2.13333333e-02
   48183, -1.25050002e-03, -2.16592956e-03,  2.13333333e-02
   48184, -9.57091277e-04, -2.31062272e-03,  2.13333333e-02
   48185, -6.47306439e-04, -2.41578050e-03,  2.13333333e-02
   48186, -3.26446010e-04, -2.47960360e-03,  2.13333333e-02
   48187, -2.22133423e-19, -2.50100000e-03,  2.13333333e-02
   48188,  3.26446010e-04, -2.47960360e-03,  2.13333333e-02
   48189,  6.47306439e-04, -2.41578050e-03,  2.13333333e-02
   48190,  9.57091277e-04, -2.31062272e-03,  2.13333333e-02
   48191,  1.25050002e-03, -2.16592956e-03,  2.13333333e-02
   48192,  1.52251237e-03, -1.98417674e-03,  2.13333333e-02
   48193, -1.52251237e-03, -1.98417674e-03,  2.20000000e-02
   48194, -1.25050002e-03, -2.16592956e-03,  2.20000000e-02
   48195, -9.57091277e-04, -2.31062272e-03,  2.20000000e-02
   48196, -6.47306439e-04, -2.41578050e-03,  2.20000000e-02
   48197, -3.26446010e-04, -2.47960360e-03,  2.20000000e-02
   48198, -2.22133423e-19, -2.50100000e-03,  2.20000000e-02
   48199,  3.26446010e-04, -2.47960360e-03,  2.20000000e-02
   48200,  6.47306439e-04, -2.41578050e-03,  2.20000000e-02
   48201,  9.57091277e-04, -2.31062272e-03,  2.20000000e-02
   48202,  1.25050002e-03, -2.16592956e-03,  2.20000000e-02
   48203,  1.52251237e-03, -1.98417674e-03,  2.20000000e-02
   48204, -1.52251237e-03, -1.98417674e-03,  2.26666667e-02
   48205, -1.25050002e-03, -2.16592956e-03,  2.26666667e-02
   48206, -9.57091277e-04, -2.31062272e-03,  2.26666667e-02
   48207, -6.47306439e-04, -2.41578050e-03,  2.26666667e-02
   48208, -3.26446010e-04, -2.47960360e-03,  2.26666667e-02
   48209, -2.22133423e-19, -2.50100000e-03,  2.26666667e-02
   48210,  3.26446010e-04, -2.47960360e-03,  2.26666667e-02
   48211,  6.47306439e-04, -2.41578050e-03,  2.26666667e-02
   48212,  9.57091277e-04, -2.31062272e-03,  2.26666667e-02
   48213,  1.25050002e-03, -2.16592956e-03,  2.26666667e-02
   48214,  1.52251237e-03, -1.98417674e-03,  2.26666667e-02
   48215, -1.52251237e-03, -1.98417674e-03,  2.33333333e-02
   48216, -1.25050002e-03, -2.16592956e-03,  2.33333333e-02
   48217, -9.57091277e-04, -2.31062272e-03,  2.33333333e-02
   48218, -6.47306439e-04, -2.41578050e-03,  2.33333333e-02
   48219, -3.26446010e-04, -2.47960360e-03,  2.33333333e-02
   48220, -2.22133423e-19, -2.50100000e-03,  2.33333333e-02
   48221,  3.26446010e-04, -2.47960360e-03,  2.33333333e-02
   48222,  6.47306439e-04, -2.41578050e-03,  2.33333333e-02
   48223,  9.57091277e-04, -2.31062272e-03,  2.33333333e-02
   48224,  1.25050002e-03, -2.16592956e-03,  2.33333333e-02
   48225,  1.52251237e-03, -1.98417674e-03,  2.33333333e-02
   48226, -1.52251237e-03, -1.98417674e-03,  2.40000000e-02
   48227, -1.25050002e-03, -2.16592956e-03,  2.40000000e-02
   48228, -9.57091277e-04, -2.31062272e-03,  2.40000000e-02
   48229, -6.47306439e-04, -2.41578050e-03,  2.40000000e-02
   48230, -3.26446010e-04, -2.47960360e-03,  2.40000000e-02
   48231, -2.22133423e-19, -2.50100000e-03,  2.40000000e-02
   48232,  3.26446010e-04, -2.47960360e-03,  2.40000000e-02
   48233,  6.47306439e-04, -2.41578050e-03,  2.40000000e-02
   48234,  9.57091277e-04, -2.31062272e-03,  2.40000000e-02
   48235,  1.25050002e-03, -2.16592956e-03,  2.40000000e-02
   48236,  1.52251237e-03, -1.98417674e-03,  2.40000000e-02
   48237, -1.52251237e-03, -1.98417674e-03,  2.46666667e-02
   48238, -1.25050002e-03, -2.16592956e-03,  2.46666667e-02
   48239, -9.57091277e-04, -2.31062272e-03,  2.46666667e-02
   48240, -6.47306439e-04, -2.41578050e-03,  2.46666667e-02
   48241, -3.26446010e-04, -2.47960360e-03,  2.46666667e-02
   48242, -2.22133423e-19, -2.50100000e-03,  2.46666667e-02
   48243,  3.26446010e-04, -2.47960360e-03,  2.46666667e-02
   48244,  6.47306439e-04, -2.41578050e-03,  2.46666667e-02
   48245,  9.57091277e-04, -2.31062272e-03,  2.46666667e-02
   48246,  1.25050002e-03, -2.16592956e-03,  2.46666667e-02
   48247,  1.52251237e-03, -1.98417674e-03,  2.46666667e-02
   48248, -1.52251237e-03, -1.98417674e-03,  2.53333333e-02
   48249, -1.25050002e-03, -2.16592956e-03,  2.53333333e-02
   48250, -9.57091277e-04, -2.31062272e-03,  2.53333333e-02
   48251, -6.47306439e-04, -2.41578050e-03,  2.53333333e-02
   48252, -3.26446010e-04, -2.47960360e-03,  2.53333333e-02
   48253, -2.22133423e-19, -2.50100000e-03,  2.53333333e-02
   48254,  3.26446010e-04, -2.47960360e-03,  2.53333333e-02
   48255,  6.47306439e-04, -2.41578050e-03,  2.53333333e-02
   48256,  9.57091277e-04, -2.31062272e-03,  2.53333333e-02
   48257,  1.25050002e-03, -2.16592956e-03,  2.53333333e-02
   48258,  1.52251237e-03, -1.98417674e-03,  2.53333333e-02
   48259, -1.52251237e-03, -1.98417674e-03,  2.60000000e-02
   48260, -1.25050002e-03, -2.16592956e-03,  2.60000000e-02
   48261, -9.57091277e-04, -2.31062272e-03,  2.60000000e-02
   48262, -6.47306439e-04, -2.41578050e-03,  2.60000000e-02
   48263, -3.26446010e-04, -2.47960360e-03,  2.60000000e-02
   48264, -2.22133423e-19, -2.50100000e-03,  2.60000000e-02
   48265,  3.26446010e-04, -2.47960360e-03,  2.60000000e-02
   48266,  6.47306439e-04, -2.41578050e-03,  2.60000000e-02
   48267,  9.57091277e-04, -2.31062272e-03,  2.60000000e-02
   48268,  1.25050002e-03, -2.16592956e-03,  2.60000000e-02
   48269,  1.52251237e-03, -1.98417674e-03,  2.60000000e-02
   48270, -1.52251237e-03, -1.98417674e-03,  2.66666667e-02
   48271, -1.25050002e-03, -2.16592956e-03,  2.66666667e-02
   48272, -9.57091277e-04, -2.31062272e-03,  2.66666667e-02
   48273, -6.47306439e-04, -2.41578050e-03,  2.66666667e-02
   48274, -3.26446010e-04, -2.47960360e-03,  2.66666667e-02
   48275, -2.22133423e-19, -2.50100000e-03,  2.66666667e-02
   48276,  3.26446010e-04, -2.47960360e-03,  2.66666667e-02
   48277,  6.47306439e-04, -2.41578050e-03,  2.66666667e-02
   48278,  9.57091277e-04, -2.31062272e-03,  2.66666667e-02
   48279,  1.25050002e-03, -2.16592956e-03,  2.66666667e-02
   48280,  1.52251237e-03, -1.98417674e-03,  2.66666667e-02
   48281, -1.52251237e-03, -1.98417674e-03,  2.73333333e-02
   48282, -1.25050002e-03, -2.16592956e-03,  2.73333333e-02
   48283, -9.57091277e-04, -2.31062272e-03,  2.73333333e-02
   48284, -6.47306439e-04, -2.41578050e-03,  2.73333333e-02
   48285, -3.26446010e-04, -2.47960360e-03,  2.73333333e-02
   48286, -2.22133423e-19, -2.50100000e-03,  2.73333333e-02
   48287,  3.26446010e-04, -2.47960360e-03,  2.73333333e-02
   48288,  6.47306439e-04, -2.41578050e-03,  2.73333333e-02
   48289,  9.57091277e-04, -2.31062272e-03,  2.73333333e-02
   48290,  1.25050002e-03, -2.16592956e-03,  2.73333333e-02
   48291,  1.52251237e-03, -1.98417674e-03,  2.73333333e-02
   48292, -1.52251237e-03, -1.98417674e-03,  2.80000000e-02
   48293, -1.25050002e-03, -2.16592956e-03,  2.80000000e-02
   48294, -9.57091277e-04, -2.31062272e-03,  2.80000000e-02
   48295, -6.47306439e-04, -2.41578050e-03,  2.80000000e-02
   48296, -3.26446010e-04, -2.47960360e-03,  2.80000000e-02
   48297, -2.22133423e-19, -2.50100000e-03,  2.80000000e-02
   48298,  3.26446010e-04, -2.47960360e-03,  2.80000000e-02
   48299,  6.47306439e-04, -2.41578050e-03,  2.80000000e-02
   48300,  9.57091277e-04, -2.31062272e-03,  2.80000000e-02
   48301,  1.25050002e-03, -2.16592956e-03,  2.80000000e-02
   48302,  1.52251237e-03, -1.98417674e-03,  2.80000000e-02
   48303, -1.52251237e-03, -1.98417674e-03,  2.86666667e-02
   48304, -1.25050002e-03, -2.16592956e-03,  2.86666667e-02
   48305, -9.57091277e-04, -2.31062272e-03,  2.86666667e-02
   48306, -6.47306439e-04, -2.41578050e-03,  2.86666667e-02
   48307, -3.26446010e-04, -2.47960360e-03,  2.86666667e-02
   48308, -2.22133423e-19, -2.50100000e-03,  2.86666667e-02
   48309,  3.26446010e-04, -2.47960360e-03,  2.86666667e-02
   48310,  6.47306439e-04, -2.41578050e-03,  2.86666667e-02
   48311,  9.57091277e-04, -2.31062272e-03,  2.86666667e-02
   48312,  1.25050002e-03, -2.16592956e-03,  2.86666667e-02
   48313,  1.52251237e-03, -1.98417674e-03,  2.86666667e-02
   48314, -1.52251237e-03, -1.98417674e-03,  2.93333333e-02
   48315, -1.25050002e-03, -2.16592956e-03,  2.93333333e-02
   48316, -9.57091277e-04, -2.31062272e-03,  2.93333333e-02
   48317, -6.47306439e-04, -2.41578050e-03,  2.93333333e-02
   48318, -3.26446010e-04, -2.47960360e-03,  2.93333333e-02
   48319, -2.22133423e-19, -2.50100000e-03,  2.93333333e-02
   48320,  3.26446010e-04, -2.47960360e-03,  2.93333333e-02
   48321,  6.47306439e-04, -2.41578050e-03,  2.93333333e-02
   48322,  9.57091277e-04, -2.31062272e-03,  2.93333333e-02
   48323,  1.25050002e-03, -2.16592956e-03,  2.93333333e-02
   48324,  1.52251237e-03, -1.98417674e-03,  2.93333333e-02
   48325, -1.52251237e-03, -1.98417674e-03,  3.00000000e-02
   48326, -1.25050002e-03, -2.16592956e-03,  3.00000000e-02
   48327, -9.57091277e-04, -2.31062272e-03,  3.00000000e-02
   48328, -6.47306439e-04, -2.41578050e-03,  3.00000000e-02
   48329, -3.26446010e-04, -2.47960360e-03,  3.00000000e-02
   48330, -2.22133423e-19, -2.50100000e-03,  3.00000000e-02
   48331,  3.26446010e-04, -2.47960360e-03,  3.00000000e-02
   48332,  6.47306439e-04, -2.41578050e-03,  3.00000000e-02
   48333,  9.57091277e-04, -2.31062272e-03,  3.00000000e-02
   48334,  1.25050002e-03, -2.16592956e-03,  3.00000000e-02
   48335,  1.52251237e-03, -1.98417674e-03,  3.00000000e-02
*ELEMENT, TYPE=SPRINGA, ELSET=WK_0
   41521,    32066,    46131
*SPRING, ELSET=WK_0

2.180104e-02
*ELEMENT, TYPE=SPRINGA, ELSET=WK_1
   41522,    32070,    46132
*SPRING, ELSET=WK_1

2.180104e-02
*ELEMENT, TYPE=SPRINGA, ELSET=WK_2
   41523,    32074,    46133
*SPRING, ELSET=WK_2

2.180104e-02
*ELEMENT, TYPE=SPRINGA, ELSET=WK_3
   41524,    32078,    46134
*SPRING, ELSET=WK_3

2.180104e-02
*ELEMENT, TYPE=SPRINGA, ELSET=WK_4
   41525,    32082,    46135
*SPRING, ELSET=WK_4

2.180104e-02
*ELEMENT, TYPE=SPRINGA, ELSET=WK_5
   41526,    32086,    46136
*SPRING, ELSET=WK_5

2.180104e-02
*ELEMENT, TYPE=SPRINGA, ELSET=WK_6
   41527,    32090,    46137
*SPRING, ELSET=WK_6

2.180104e-02
*ELEMENT, TYPE=SPRINGA, ELSET=WK_7
   41528,    32094,    46138
*SPRING, ELSET=WK_7

2.180104e-02
*ELEMENT, TYPE=SPRINGA, ELSET=WK_8
   41529,    32098,    46139
*SPRING, ELSET=WK_8

2.180104e-02
*ELEMENT, TYPE=SPRINGA, ELSET=WK_9
   41530,    32102,    46140
*SPRING, ELSET=WK_9

2.180104e-02
*ELEMENT, TYPE=SPRINGA, ELSET=WK_10
   41531,    32106,    46141
*SPRING, ELSET=WK_10

2.180104e-02
*ELEMENT, TYPE=SPRINGA, ELSET=WK_11
   41532,    32110,    46142
*SPRING, ELSET=WK_11

2.180104e-02
*ELEMENT, TYPE=SPRINGA, ELSET=WK_12
   41533,    32114,    46143
*SPRING, ELSET=WK_12

2.180104e-02
*ELEMENT, TYPE=SPRINGA, ELSET=WK_13
   41534,    32118,    46144
*SPRING, ELSET=WK_13

4.360209e-02
*ELEMENT, TYPE=SPRINGA, ELSET=WK_14
   41535,    32122,    46145
*SPRING, ELSET=WK_14

4.360209e-02
*ELEMENT, TYPE=SPRINGA, ELSET=WK_15
   41536,    32126,    46146
*SPRING, ELSET=WK_15

4.360209e-02
*ELEMENT, TYPE=SPRINGA, ELSET=WK_16
   41537,    32130,    46147
*SPRING, ELSET=WK_16

4.360209e-02
*ELEMENT, TYPE=SPRINGA, ELSET=WK_17
   41538,    32134,    46148
*SPRING, ELSET=WK_17

4.360209e-02
*ELEMENT, TYPE=SPRINGA, ELSET=WK_18
   41539,    32138,    46149
*SPRING, ELSET=WK_18

4.360209e-02
*ELEMENT, TYPE=SPRINGA, ELSET=WK_19
   41540,    32142,    46150
*SPRING, ELSET=WK_19

4.360209e-02
*ELEMENT, TYPE=SPRINGA, ELSET=WK_20
   41541,    32146,    46151
*SPRING, ELSET=WK_20

4.360209e-02
*ELEMENT, TYPE=SPRINGA, ELSET=WK_21
   41542,    32150,    46152
*SPRING, ELSET=WK_21

4.360209e-02
*ELEMENT, TYPE=SPRINGA, ELSET=WK_22
   41543,    32154,    46153
*SPRING, ELSET=WK_22

4.360209e-02
*ELEMENT, TYPE=SPRINGA, ELSET=WK_23
   41544,    32158,    46154
*SPRING, ELSET=WK_23

4.360209e-02
*ELEMENT, TYPE=SPRINGA, ELSET=WK_24
   41545,    32162,    46155
*SPRING, ELSET=WK_24

4.360209e-02
*ELEMENT, TYPE=SPRINGA, ELSET=WK_25
   41546,    32166,    46156
*SPRING, ELSET=WK_25

4.360209e-02
*ELEMENT, TYPE=SPRINGA, ELSET=WK_26
   41547,    32170,    46157
*SPRING, ELSET=WK_26

4.360209e-02
*ELEMENT, TYPE=SPRINGA, ELSET=WK_27
   41548,    32174,    46158
*SPRING, ELSET=WK_27

4.360209e-02
*ELEMENT, TYPE=SPRINGA, ELSET=WK_28
   41549,    32178,    46159
*SPRING, ELSET=WK_28

4.360209e-02
*ELEMENT, TYPE=SPRINGA, ELSET=WK_29
   41550,    32182,    46160
*SPRING, ELSET=WK_29

4.360209e-02
*ELEMENT, TYPE=SPRINGA, ELSET=WK_30
   41551,    32186,    46161
*SPRING, ELSET=WK_30

4.360209e-02
*ELEMENT, TYPE=SPRINGA, ELSET=WK_31
   41552,    32190,    46162
*SPRING, ELSET=WK_31

4.360209e-02
*ELEMENT, TYPE=SPRINGA, ELSET=WK_32
   41553,    32194,    46163
*SPRING, ELSET=WK_32

4.360209e-02
*ELEMENT, TYPE=SPRINGA, ELSET=WK_33
   41554,    32198,    46164
*SPRING, ELSET=WK_33

4.360209e-02
*ELEMENT, TYPE=SPRINGA, ELSET=WK_34
   41555,    32202,    46165
*SPRING, ELSET=WK_34

4.360209e-02
*ELEMENT, TYPE=SPRINGA, ELSET=WK_35
   41556,    32206,    46166
*SPRING, ELSET=WK_35

4.360209e-02
*ELEMENT, TYPE=SPRINGA, ELSET=WK_36
   41557,    32210,    46167
*SPRING, ELSET=WK_36

4.360209e-02
*ELEMENT, TYPE=SPRINGA, ELSET=WK_37
   41558,    32214,    46168
*SPRING, ELSET=WK_37

4.360209e-02
*ELEMENT, TYPE=SPRINGA, ELSET=WK_38
   41559,    32218,    46169
*SPRING, ELSET=WK_38

4.360209e-02
*ELEMENT, TYPE=SPRINGA, ELSET=WK_39
   41560,    32222,    46170
*SPRING, ELSET=WK_39

4.360209e-02
*ELEMENT, TYPE=SPRINGA, ELSET=WK_40
   41561,    32226,    46171
*SPRING, ELSET=WK_40

4.360209e-02
*ELEMENT, TYPE=SPRINGA, ELSET=WK_41
   41562,    32230,    46172
*SPRING, ELSET=WK_41

4.360209e-02
*ELEMENT, TYPE=SPRINGA, ELSET=WK_42
   41563,    32234,    46173
*SPRING, ELSET=WK_42

4.360209e-02
*ELEMENT, TYPE=SPRINGA, ELSET=WK_43
   41564,    32238,    46174
*SPRING, ELSET=WK_43

4.360209e-02
*ELEMENT, TYPE=SPRINGA, ELSET=WK_44
   41565,    32242,    46175
*SPRING, ELSET=WK_44

4.360209e-02
*ELEMENT, TYPE=SPRINGA, ELSET=WK_45
   41566,    32246,    46176
*SPRING, ELSET=WK_45

4.360209e-02
*ELEMENT, TYPE=SPRINGA, ELSET=WK_46
   41567,    32250,    46177
*SPRING, ELSET=WK_46

4.360209e-02
*ELEMENT, TYPE=SPRINGA, ELSET=WK_47
   41568,    32254,    46178
*SPRING, ELSET=WK_47

4.360209e-02
*ELEMENT, TYPE=SPRINGA, ELSET=WK_48
   41569,    32258,    46179
*SPRING, ELSET=WK_48

4.360209e-02
*ELEMENT, TYPE=SPRINGA, ELSET=WK_49
   41570,    32262,    46180
*SPRING, ELSET=WK_49

4.360209e-02
*ELEMENT, TYPE=SPRINGA, ELSET=WK_50
   41571,    32266,    46181
*SPRING, ELSET=WK_50

4.360209e-02
*ELEMENT, TYPE=SPRINGA, ELSET=WK_51
   41572,    32270,    46182
*SPRING, ELSET=WK_51

4.360209e-02
*ELEMENT, TYPE=SPRINGA, ELSET=WK_52
   41573,    32274,    46183
*SPRING, ELSET=WK_52

4.360209e-02
*ELEMENT, TYPE=SPRINGA, ELSET=WK_53
   41574,    32278,    46184
*SPRING, ELSET=WK_53

4.360209e-02
*ELEMENT, TYPE=SPRINGA, ELSET=WK_54
   41575,    32282,    46185
*SPRING, ELSET=WK_54

4.360209e-02
*ELEMENT, TYPE=SPRINGA, ELSET=WK_55
   41576,    32286,    46186
*SPRING, ELSET=WK_55

4.360209e-02
*ELEMENT, TYPE=SPRINGA, ELSET=WK_56
   41577,    32290,    46187
*SPRING, ELSET=WK_56

4.360209e-02
*ELEMENT, TYPE=SPRINGA, ELSET=WK_57
   41578,    32294,    46188
*SPRING, ELSET=WK_57

4.360209e-02
*ELEMENT, TYPE=SPRINGA, ELSET=WK_58
   41579,    32298,    46189
*SPRING, ELSET=WK_58

4.360209e-02
*ELEMENT, TYPE=SPRINGA, ELSET=WK_59
   41580,    32302,    46190
*SPRING, ELSET=WK_59

4.360209e-02
*ELEMENT, TYPE=SPRINGA, ELSET=WK_60
   41581,    32306,    46191
*SPRING, ELSET=WK_60

4.360209e-02
*ELEMENT, TYPE=SPRINGA, ELSET=WK_61
   41582,    32310,    46192
*SPRING, ELSET=WK_61

4.360209e-02
*ELEMENT, TYPE=SPRINGA, ELSET=WK_62
   41583,    32314,    46193
*SPRING, ELSET=WK_62

4.360209e-02
*ELEMENT, TYPE=SPRINGA, ELSET=WK_63
   41584,    32318,    46194
*SPRING, ELSET=WK_63

4.360209e-02
*ELEMENT, TYPE=SPRINGA, ELSET=WK_64
   41585,    32322,    46195
*SPRING, ELSET=WK_64

4.360209e-02
*ELEMENT, TYPE=SPRINGA, ELSET=WK_65
   41586,    32326,    46196
*SPRING, ELSET=WK_65

4.360209e-02
*ELEMENT, TYPE=SPRINGA, ELSET=WK_66
   41587,    32330,    46197
*SPRING, ELSET=WK_66

4.360209e-02
*ELEMENT, TYPE=SPRINGA, ELSET=WK_67
   41588,    32334,    46198
*SPRING, ELSET=WK_67

4.360209e-02
*ELEMENT, TYPE=SPRINGA, ELSET=WK_68
   41589,    32338,    46199
*SPRING, ELSET=WK_68

4.360209e-02
*ELEMENT, TYPE=SPRINGA, ELSET=WK_69
   41590,    32342,    46200
*SPRING, ELSET=WK_69

4.360209e-02
*ELEMENT, TYPE=SPRINGA, ELSET=WK_70
   41591,    32346,    46201
*SPRING, ELSET=WK_70

4.360209e-02
*ELEMENT, TYPE=SPRINGA, ELSET=WK_71
   41592,    32350,    46202
*SPRING, ELSET=WK_71

4.360209e-02
*ELEMENT, TYPE=SPRINGA, ELSET=WK_72
   41593,    32354,    46203
*SPRING, ELSET=WK_72

4.360209e-02
*ELEMENT, TYPE=SPRINGA, ELSET=WK_73
   41594,    32358,    46204
*SPRING, ELSET=WK_73

4.360209e-02
*ELEMENT, TYPE=SPRINGA, ELSET=WK_74
   41595,    32362,    46205
*SPRING, ELSET=WK_74

4.360209e-02
*ELEMENT, TYPE=SPRINGA, ELSET=WK_75
   41596,    32366,    46206
*SPRING, ELSET=WK_75

4.360209e-02
*ELEMENT, TYPE=SPRINGA, ELSET=WK_76
   41597,    32370,    46207
*SPRING, ELSET=WK_76

4.360209e-02
*ELEMENT, TYPE=SPRINGA, ELSET=WK_77
   41598,    32374,    46208
*SPRING, ELSET=WK_77

4.360209e-02
*ELEMENT, TYPE=SPRINGA, ELSET=WK_78
   41599,    32378,    46209
*SPRING, ELSET=WK_78

4.360209e-02
*ELEMENT, TYPE=SPRINGA, ELSET=WK_79
   41600,    32382,    46210
*SPRING, ELSET=WK_79

4.360209e-02
*ELEMENT, TYPE=SPRINGA, ELSET=WK_80
   41601,    32386,    46211
*SPRING, ELSET=WK_80

4.360209e-02
*ELEMENT, TYPE=SPRINGA, ELSET=WK_81
   41602,    32390,    46212
*SPRING, ELSET=WK_81

4.360209e-02
*ELEMENT, TYPE=SPRINGA, ELSET=WK_82
   41603,    32394,    46213
*SPRING, ELSET=WK_82

4.360209e-02
*ELEMENT, TYPE=SPRINGA, ELSET=WK_83
   41604,    32398,    46214
*SPRING, ELSET=WK_83

4.360209e-02
*ELEMENT, TYPE=SPRINGA, ELSET=WK_84
   41605,    32402,    46215
*SPRING, ELSET=WK_84

4.360209e-02
*ELEMENT, TYPE=SPRINGA, ELSET=WK_85
   41606,    32406,    46216
*SPRING, ELSET=WK_85

4.360209e-02
*ELEMENT, TYPE=SPRINGA, ELSET=WK_86
   41607,    32410,    46217
*SPRING, ELSET=WK_86

4.360209e-02
*ELEMENT, TYPE=SPRINGA, ELSET=WK_87
   41608,    32414,    46218
*SPRING, ELSET=WK_87

4.360209e-02
*ELEMENT, TYPE=SPRINGA, ELSET=WK_88
   41609,    32418,    46219
*SPRING, ELSET=WK_88

4.360209e-02
*ELEMENT, TYPE=SPRINGA, ELSET=WK_89
   41610,    32422,    46220
*SPRING, ELSET=WK_89

4.360209e-02
*ELEMENT, TYPE=SPRINGA, ELSET=WK_90
   41611,    32426,    46221
*SPRING, ELSET=WK_90

4.360209e-02
*ELEMENT, TYPE=SPRINGA, ELSET=WK_91
   41612,    32430,    46222
*SPRING, ELSET=WK_91

4.360209e-02
*ELEMENT, TYPE=SPRINGA, ELSET=WK_92
   41613,    32434,    46223
*SPRING, ELSET=WK_92

4.360209e-02
*ELEMENT, TYPE=SPRINGA, ELSET=WK_93
   41614,    32438,    46224
*SPRING, ELSET=WK_93

4.360209e-02
*ELEMENT, TYPE=SPRINGA, ELSET=WK_94
   41615,    32442,    46225
*SPRING, ELSET=WK_94

4.360209e-02
*ELEMENT, TYPE=SPRINGA, ELSET=WK_95
   41616,    32446,    46226
*SPRING, ELSET=WK_95

4.360209e-02
*ELEMENT, TYPE=SPRINGA, ELSET=WK_96
   41617,    32450,    46227
*SPRING, ELSET=WK_96

4.360209e-02
*ELEMENT, TYPE=SPRINGA, ELSET=WK_97
   41618,    32454,    46228
*SPRING, ELSET=WK_97

4.360209e-02
*ELEMENT, TYPE=SPRINGA, ELSET=WK_98
   41619,    32458,    46229
*SPRING, ELSET=WK_98

4.360209e-02
*ELEMENT, TYPE=SPRINGA, ELSET=WK_99
   41620,    32462,    46230
*SPRING, ELSET=WK_99

4.360209e-02
*ELEMENT, TYPE=SPRINGA, ELSET=WK_100
   41621,    32466,    46231
*SPRING, ELSET=WK_100

4.360209e-02
*ELEMENT, TYPE=SPRINGA, ELSET=WK_101
   41622,    32470,    46232
*SPRING, ELSET=WK_101

4.360209e-02
*ELEMENT, TYPE=SPRINGA, ELSET=WK_102
   41623,    32474,    46233
*SPRING, ELSET=WK_102

4.360209e-02
*ELEMENT, TYPE=SPRINGA, ELSET=WK_103
   41624,    32478,    46234
*SPRING, ELSET=WK_103

4.360209e-02
*ELEMENT, TYPE=SPRINGA, ELSET=WK_104
   41625,    32482,    46235
*SPRING, ELSET=WK_104

4.360209e-02
*ELEMENT, TYPE=SPRINGA, ELSET=WK_105
   41626,    32486,    46236
*SPRING, ELSET=WK_105

4.360209e-02
*ELEMENT, TYPE=SPRINGA, ELSET=WK_106
   41627,    32490,    46237
*SPRING, ELSET=WK_106

4.360209e-02
*ELEMENT, TYPE=SPRINGA, ELSET=WK_107
   41628,    32494,    46238
*SPRING, ELSET=WK_107

4.360209e-02
*ELEMENT, TYPE=SPRINGA, ELSET=WK_108
   41629,    32498,    46239
*SPRING, ELSET=WK_108

4.360209e-02
*ELEMENT, TYPE=SPRINGA, ELSET=WK_109
   41630,    32502,    46240
*SPRING, ELSET=WK_109

4.360209e-02
*ELEMENT, TYPE=SPRINGA, ELSET=WK_110
   41631,    32506,    46241
*SPRING, ELSET=WK_110

4.360209e-02
*ELEMENT, TYPE=SPRINGA, ELSET=WK_111
   41632,    32510,    46242
*SPRING, ELSET=WK_111

4.360209e-02
*ELEMENT, TYPE=SPRINGA, ELSET=WK_112
   41633,    32514,    46243
*SPRING, ELSET=WK_112

4.360209e-02
*ELEMENT, TYPE=SPRINGA, ELSET=WK_113
   41634,    32518,    46244
*SPRING, ELSET=WK_113

4.360209e-02
*ELEMENT, TYPE=SPRINGA, ELSET=WK_114
   41635,    32522,    46245
*SPRING, ELSET=WK_114

4.360209e-02
*ELEMENT, TYPE=SPRINGA, ELSET=WK_115
   41636,    32526,    46246
*SPRING, ELSET=WK_115

4.360209e-02
*ELEMENT, TYPE=SPRINGA, ELSET=WK_116
   41637,    32530,    46247
*SPRING, ELSET=WK_116

4.360209e-02
*ELEMENT, TYPE=SPRINGA, ELSET=WK_117
   41638,    32534,    46248
*SPRING, ELSET=WK_117

4.360209e-02
*ELEMENT, TYPE=SPRINGA, ELSET=WK_118
   41639,    32538,    46249
*SPRING, ELSET=WK_118

4.360209e-02
*ELEMENT, TYPE=SPRINGA, ELSET=WK_119
   41640,    32542,    46250
*SPRING, ELSET=WK_119

4.360209e-02
*ELEMENT, TYPE=SPRINGA, ELSET=WK_120
   41641,    32546,    46251
*SPRING, ELSET=WK_120

4.360209e-02
*ELEMENT, TYPE=SPRINGA, ELSET=WK_121
   41642,    32550,    46252
*SPRING, ELSET=WK_121

4.360209e-02
*ELEMENT, TYPE=SPRINGA, ELSET=WK_122
   41643,    32554,    46253
*SPRING, ELSET=WK_122

4.360209e-02
*ELEMENT, TYPE=SPRINGA, ELSET=WK_123
   41644,    32558,    46254
*SPRING, ELSET=WK_123

4.360209e-02
*ELEMENT, TYPE=SPRINGA, ELSET=WK_124
   41645,    32562,    46255
*SPRING, ELSET=WK_124

4.360209e-02
*ELEMENT, TYPE=SPRINGA, ELSET=WK_125
   41646,    32566,    46256
*SPRING, ELSET=WK_125

4.360209e-02
*ELEMENT, TYPE=SPRINGA, ELSET=WK_126
   41647,    32570,    46257
*SPRING, ELSET=WK_126

4.360209e-02
*ELEMENT, TYPE=SPRINGA, ELSET=WK_127
   41648,    32574,    46258
*SPRING, ELSET=WK_127

4.360209e-02
*ELEMENT, TYPE=SPRINGA, ELSET=WK_128
   41649,    32578,    46259
*SPRING, ELSET=WK_128

4.360209e-02
*ELEMENT, TYPE=SPRINGA, ELSET=WK_129
   41650,    32582,    46260
*SPRING, ELSET=WK_129

4.360209e-02
*ELEMENT, TYPE=SPRINGA, ELSET=WK_130
   41651,    32586,    46261
*SPRING, ELSET=WK_130

4.360209e-02
*ELEMENT, TYPE=SPRINGA, ELSET=WK_131
   41652,    32590,    46262
*SPRING, ELSET=WK_131

4.360209e-02
*ELEMENT, TYPE=SPRINGA, ELSET=WK_132
   41653,    32594,    46263
*SPRING, ELSET=WK_132

4.360209e-02
*ELEMENT, TYPE=SPRINGA, ELSET=WK_133
   41654,    32598,    46264
*SPRING, ELSET=WK_133

4.360209e-02
*ELEMENT, TYPE=SPRINGA, ELSET=WK_134
   41655,    32602,    46265
*SPRING, ELSET=WK_134

4.360209e-02
*ELEMENT, TYPE=SPRINGA, ELSET=WK_135
   41656,    32606,    46266
*SPRING, ELSET=WK_135

4.360209e-02
*ELEMENT, TYPE=SPRINGA, ELSET=WK_136
   41657,    32610,    46267
*SPRING, ELSET=WK_136

4.360209e-02
*ELEMENT, TYPE=SPRINGA, ELSET=WK_137
   41658,    32614,    46268
*SPRING, ELSET=WK_137

4.360209e-02
*ELEMENT, TYPE=SPRINGA, ELSET=WK_138
   41659,    32618,    46269
*SPRING, ELSET=WK_138

4.360209e-02
*ELEMENT, TYPE=SPRINGA, ELSET=WK_139
   41660,    32622,    46270
*SPRING, ELSET=WK_139

4.360209e-02
*ELEMENT, TYPE=SPRINGA, ELSET=WK_140
   41661,    32626,    46271
*SPRING, ELSET=WK_140

4.360209e-02
*ELEMENT, TYPE=SPRINGA, ELSET=WK_141
   41662,    32630,    46272
*SPRING, ELSET=WK_141

4.360209e-02
*ELEMENT, TYPE=SPRINGA, ELSET=WK_142
   41663,    32634,    46273
*SPRING, ELSET=WK_142

4.360209e-02
*ELEMENT, TYPE=SPRINGA, ELSET=WK_143
   41664,    32638,    46274
*SPRING, ELSET=WK_143

4.360209e-02
*ELEMENT, TYPE=SPRINGA, ELSET=WK_144
   41665,    32642,    46275
*SPRING, ELSET=WK_144

4.360209e-02
*ELEMENT, TYPE=SPRINGA, ELSET=WK_145
   41666,    32646,    46276
*SPRING, ELSET=WK_145

4.360209e-02
*ELEMENT, TYPE=SPRINGA, ELSET=WK_146
   41667,    32650,    46277
*SPRING, ELSET=WK_146

4.360209e-02
*ELEMENT, TYPE=SPRINGA, ELSET=WK_147
   41668,    32654,    46278
*SPRING, ELSET=WK_147

4.360209e-02
*ELEMENT, TYPE=SPRINGA, ELSET=WK_148
   41669,    32658,    46279
*SPRING, ELSET=WK_148

4.360209e-02
*ELEMENT, TYPE=SPRINGA, ELSET=WK_149
   41670,    32662,    46280
*SPRING, ELSET=WK_149

4.360209e-02
*ELEMENT, TYPE=SPRINGA, ELSET=WK_150
   41671,    32666,    46281
*SPRING, ELSET=WK_150

4.360209e-02
*ELEMENT, TYPE=SPRINGA, ELSET=WK_151
   41672,    32670,    46282
*SPRING, ELSET=WK_151

4.360209e-02
*ELEMENT, TYPE=SPRINGA, ELSET=WK_152
   41673,    32674,    46283
*SPRING, ELSET=WK_152

4.360209e-02
*ELEMENT, TYPE=SPRINGA, ELSET=WK_153
   41674,    32678,    46284
*SPRING, ELSET=WK_153

4.360209e-02
*ELEMENT, TYPE=SPRINGA, ELSET=WK_154
   41675,    32682,    46285
*SPRING, ELSET=WK_154

4.360209e-02
*ELEMENT, TYPE=SPRINGA, ELSET=WK_155
   41676,    32686,    46286
*SPRING, ELSET=WK_155

4.360209e-02
*ELEMENT, TYPE=SPRINGA, ELSET=WK_156
   41677,    32690,    46287
*SPRING, ELSET=WK_156

4.360209e-02
*ELEMENT, TYPE=SPRINGA, ELSET=WK_157
   41678,    32694,    46288
*SPRING, ELSET=WK_157

4.360209e-02
*ELEMENT, TYPE=SPRINGA, ELSET=WK_158
   41679,    32698,    46289
*SPRING, ELSET=WK_158

4.360209e-02
*ELEMENT, TYPE=SPRINGA, ELSET=WK_159
   41680,    32702,    46290
*SPRING, ELSET=WK_159

4.360209e-02
*ELEMENT, TYPE=SPRINGA, ELSET=WK_160
   41681,    32706,    46291
*SPRING, ELSET=WK_160

4.360209e-02
*ELEMENT, TYPE=SPRINGA, ELSET=WK_161
   41682,    32710,    46292
*SPRING, ELSET=WK_161

4.360209e-02
*ELEMENT, TYPE=SPRINGA, ELSET=WK_162
   41683,    32714,    46293
*SPRING, ELSET=WK_162

4.360209e-02
*ELEMENT, TYPE=SPRINGA, ELSET=WK_163
   41684,    32718,    46294
*SPRING, ELSET=WK_163

4.360209e-02
*ELEMENT, TYPE=SPRINGA, ELSET=WK_164
   41685,    32722,    46295
*SPRING, ELSET=WK_164

4.360209e-02
*ELEMENT, TYPE=SPRINGA, ELSET=WK_165
   41686,    32726,    46296
*SPRING, ELSET=WK_165

4.360209e-02
*ELEMENT, TYPE=SPRINGA, ELSET=WK_166
   41687,    32730,    46297
*SPRING, ELSET=WK_166

4.360209e-02
*ELEMENT, TYPE=SPRINGA, ELSET=WK_167
   41688,    32734,    46298
*SPRING, ELSET=WK_167

4.360209e-02
*ELEMENT, TYPE=SPRINGA, ELSET=WK_168
   41689,    32738,    46299
*SPRING, ELSET=WK_168

4.360209e-02
*ELEMENT, TYPE=SPRINGA, ELSET=WK_169
   41690,    32742,    46300
*SPRING, ELSET=WK_169

4.360209e-02
*ELEMENT, TYPE=SPRINGA, ELSET=WK_170
   41691,    32746,    46301
*SPRING, ELSET=WK_170

4.360209e-02
*ELEMENT, TYPE=SPRINGA, ELSET=WK_171
   41692,    32750,    46302
*SPRING, ELSET=WK_171

4.360209e-02
*ELEMENT, TYPE=SPRINGA, ELSET=WK_172
   41693,    32754,    46303
*SPRING, ELSET=WK_172

4.360209e-02
*ELEMENT, TYPE=SPRINGA, ELSET=WK_173
   41694,    32758,    46304
*SPRING, ELSET=WK_173

4.360209e-02
*ELEMENT, TYPE=SPRINGA, ELSET=WK_174
   41695,    32762,    46305
*SPRING, ELSET=WK_174

4.360209e-02
*ELEMENT, TYPE=SPRINGA, ELSET=WK_175
   41696,    32766,    46306
*SPRING, ELSET=WK_175

4.360209e-02
*ELEMENT, TYPE=SPRINGA, ELSET=WK_176
   41697,    32770,    46307
*SPRING, ELSET=WK_176

4.360209e-02
*ELEMENT, TYPE=SPRINGA, ELSET=WK_177
   41698,    32774,    46308
*SPRING, ELSET=WK_177

4.360209e-02
*ELEMENT, TYPE=SPRINGA, ELSET=WK_178
   41699,    32778,    46309
*SPRING, ELSET=WK_178

4.360209e-02
*ELEMENT, TYPE=SPRINGA, ELSET=WK_179
   41700,    32782,    46310
*SPRING, ELSET=WK_179

4.360209e-02
*ELEMENT, TYPE=SPRINGA, ELSET=WK_180
   41701,    32786,    46311
*SPRING, ELSET=WK_180

4.360209e-02
*ELEMENT, TYPE=SPRINGA, ELSET=WK_181
   41702,    32790,    46312
*SPRING, ELSET=WK_181

4.360209e-02
*ELEMENT, TYPE=SPRINGA, ELSET=WK_182
   41703,    32794,    46313
*SPRING, ELSET=WK_182

4.360209e-02
*ELEMENT, TYPE=SPRINGA, ELSET=WK_183
   41704,    32798,    46314
*SPRING, ELSET=WK_183

4.360209e-02
*ELEMENT, TYPE=SPRINGA, ELSET=WK_184
   41705,    32802,    46315
*SPRING, ELSET=WK_184

4.360209e-02
*ELEMENT, TYPE=SPRINGA, ELSET=WK_185
   41706,    32806,    46316
*SPRING, ELSET=WK_185

4.360209e-02
*ELEMENT, TYPE=SPRINGA, ELSET=WK_186
   41707,    32810,    46317
*SPRING, ELSET=WK_186

4.360209e-02
*ELEMENT, TYPE=SPRINGA, ELSET=WK_187
   41708,    32814,    46318
*SPRING, ELSET=WK_187

4.360209e-02
*ELEMENT, TYPE=SPRINGA, ELSET=WK_188
   41709,    32818,    46319
*SPRING, ELSET=WK_188

4.360209e-02
*ELEMENT, TYPE=SPRINGA, ELSET=WK_189
   41710,    32822,    46320
*SPRING, ELSET=WK_189

4.360209e-02
*ELEMENT, TYPE=SPRINGA, ELSET=WK_190
   41711,    32826,    46321
*SPRING, ELSET=WK_190

4.360209e-02
*ELEMENT, TYPE=SPRINGA, ELSET=WK_191
   41712,    32830,    46322
*SPRING, ELSET=WK_191

4.360209e-02
*ELEMENT, TYPE=SPRINGA, ELSET=WK_192
   41713,    32834,    46323
*SPRING, ELSET=WK_192

4.360209e-02
*ELEMENT, TYPE=SPRINGA, ELSET=WK_193
   41714,    32838,    46324
*SPRING, ELSET=WK_193

4.360209e-02
*ELEMENT, TYPE=SPRINGA, ELSET=WK_194
   41715,    32842,    46325
*SPRING, ELSET=WK_194

4.360209e-02
*ELEMENT, TYPE=SPRINGA, ELSET=WK_195
   41716,    32846,    46326
*SPRING, ELSET=WK_195

4.360209e-02
*ELEMENT, TYPE=SPRINGA, ELSET=WK_196
   41717,    32850,    46327
*SPRING, ELSET=WK_196

4.360209e-02
*ELEMENT, TYPE=SPRINGA, ELSET=WK_197
   41718,    32854,    46328
*SPRING, ELSET=WK_197

4.360209e-02
*ELEMENT, TYPE=SPRINGA, ELSET=WK_198
   41719,    32858,    46329
*SPRING, ELSET=WK_198

4.360209e-02
*ELEMENT, TYPE=SPRINGA, ELSET=WK_199
   41720,    32862,    46330
*SPRING, ELSET=WK_199

4.360209e-02
*ELEMENT, TYPE=SPRINGA, ELSET=WK_200
   41721,    32866,    46331
*SPRING, ELSET=WK_200

4.360209e-02
*ELEMENT, TYPE=SPRINGA, ELSET=WK_201
   41722,    32870,    46332
*SPRING, ELSET=WK_201

4.360209e-02
*ELEMENT, TYPE=SPRINGA, ELSET=WK_202
   41723,    32874,    46333
*SPRING, ELSET=WK_202

4.360209e-02
*ELEMENT, TYPE=SPRINGA, ELSET=WK_203
   41724,    32878,    46334
*SPRING, ELSET=WK_203

4.360209e-02
*ELEMENT, TYPE=SPRINGA, ELSET=WK_204
   41725,    32882,    46335
*SPRING, ELSET=WK_204

4.360209e-02
*ELEMENT, TYPE=SPRINGA, ELSET=WK_205
   41726,    32886,    46336
*SPRING, ELSET=WK_205

4.360209e-02
*ELEMENT, TYPE=SPRINGA, ELSET=WK_206
   41727,    32890,    46337
*SPRING, ELSET=WK_206

4.360209e-02
*ELEMENT, TYPE=SPRINGA, ELSET=WK_207
   41728,    32894,    46338
*SPRING, ELSET=WK_207

4.360209e-02
*ELEMENT, TYPE=SPRINGA, ELSET=WK_208
   41729,    32898,    46339
*SPRING, ELSET=WK_208

4.360209e-02
*ELEMENT, TYPE=SPRINGA, ELSET=WK_209
   41730,    32902,    46340
*SPRING, ELSET=WK_209

4.360209e-02
*ELEMENT, TYPE=SPRINGA, ELSET=WK_210
   41731,    32906,    46341
*SPRING, ELSET=WK_210

4.360209e-02
*ELEMENT, TYPE=SPRINGA, ELSET=WK_211
   41732,    32910,    46342
*SPRING, ELSET=WK_211

4.360209e-02
*ELEMENT, TYPE=SPRINGA, ELSET=WK_212
   41733,    32914,    46343
*SPRING, ELSET=WK_212

4.360209e-02
*ELEMENT, TYPE=SPRINGA, ELSET=WK_213
   41734,    32918,    46344
*SPRING, ELSET=WK_213

4.360209e-02
*ELEMENT, TYPE=SPRINGA, ELSET=WK_214
   41735,    32922,    46345
*SPRING, ELSET=WK_214

4.360209e-02
*ELEMENT, TYPE=SPRINGA, ELSET=WK_215
   41736,    32926,    46346
*SPRING, ELSET=WK_215

4.360209e-02
*ELEMENT, TYPE=SPRINGA, ELSET=WK_216
   41737,    32930,    46347
*SPRING, ELSET=WK_216

4.360209e-02
*ELEMENT, TYPE=SPRINGA, ELSET=WK_217
   41738,    32934,    46348
*SPRING, ELSET=WK_217

4.360209e-02
*ELEMENT, TYPE=SPRINGA, ELSET=WK_218
   41739,    32938,    46349
*SPRING, ELSET=WK_218

4.360209e-02
*ELEMENT, TYPE=SPRINGA, ELSET=WK_219
   41740,    32942,    46350
*SPRING, ELSET=WK_219

4.360209e-02
*ELEMENT, TYPE=SPRINGA, ELSET=WK_220
   41741,    32946,    46351
*SPRING, ELSET=WK_220

4.360209e-02
*ELEMENT, TYPE=SPRINGA, ELSET=WK_221
   41742,    32950,    46352
*SPRING, ELSET=WK_221

4.360209e-02
*ELEMENT, TYPE=SPRINGA, ELSET=WK_222
   41743,    32954,    46353
*SPRING, ELSET=WK_222

4.360209e-02
*ELEMENT, TYPE=SPRINGA, ELSET=WK_223
   41744,    32958,    46354
*SPRING, ELSET=WK_223

4.360209e-02
*ELEMENT, TYPE=SPRINGA, ELSET=WK_224
   41745,    32962,    46355
*SPRING, ELSET=WK_224

4.360209e-02
*ELEMENT, TYPE=SPRINGA, ELSET=WK_225
   41746,    32966,    46356
*SPRING, ELSET=WK_225

4.360209e-02
*ELEMENT, TYPE=SPRINGA, ELSET=WK_226
   41747,    32970,    46357
*SPRING, ELSET=WK_226

4.360209e-02
*ELEMENT, TYPE=SPRINGA, ELSET=WK_227
   41748,    32974,    46358
*SPRING, ELSET=WK_227

4.360209e-02
*ELEMENT, TYPE=SPRINGA, ELSET=WK_228
   41749,    32978,    46359
*SPRING, ELSET=WK_228

4.360209e-02
*ELEMENT, TYPE=SPRINGA, ELSET=WK_229
   41750,    32982,    46360
*SPRING, ELSET=WK_229

4.360209e-02
*ELEMENT, TYPE=SPRINGA, ELSET=WK_230
   41751,    32986,    46361
*SPRING, ELSET=WK_230

4.360209e-02
*ELEMENT, TYPE=SPRINGA, ELSET=WK_231
   41752,    32990,    46362
*SPRING, ELSET=WK_231

4.360209e-02
*ELEMENT, TYPE=SPRINGA, ELSET=WK_232
   41753,    32994,    46363
*SPRING, ELSET=WK_232

4.360209e-02
*ELEMENT, TYPE=SPRINGA, ELSET=WK_233
   41754,    32998,    46364
*SPRING, ELSET=WK_233

4.360209e-02
*ELEMENT, TYPE=SPRINGA, ELSET=WK_234
   41755,    33002,    46365
*SPRING, ELSET=WK_234

4.360209e-02
*ELEMENT, TYPE=SPRINGA, ELSET=WK_235
   41756,    33006,    46366
*SPRING, ELSET=WK_235

4.360209e-02
*ELEMENT, TYPE=SPRINGA, ELSET=WK_236
   41757,    33010,    46367
*SPRING, ELSET=WK_236

4.360209e-02
*ELEMENT, TYPE=SPRINGA, ELSET=WK_237
   41758,    33014,    46368
*SPRING, ELSET=WK_237

4.360209e-02
*ELEMENT, TYPE=SPRINGA, ELSET=WK_238
   41759,    33018,    46369
*SPRING, ELSET=WK_238

4.360209e-02
*ELEMENT, TYPE=SPRINGA, ELSET=WK_239
   41760,    33022,    46370
*SPRING, ELSET=WK_239

4.360209e-02
*ELEMENT, TYPE=SPRINGA, ELSET=WK_240
   41761,    33026,    46371
*SPRING, ELSET=WK_240

4.360209e-02
*ELEMENT, TYPE=SPRINGA, ELSET=WK_241
   41762,    33030,    46372
*SPRING, ELSET=WK_241

4.360209e-02
*ELEMENT, TYPE=SPRINGA, ELSET=WK_242
   41763,    33034,    46373
*SPRING, ELSET=WK_242

4.360209e-02
*ELEMENT, TYPE=SPRINGA, ELSET=WK_243
   41764,    33038,    46374
*SPRING, ELSET=WK_243

4.360209e-02
*ELEMENT, TYPE=SPRINGA, ELSET=WK_244
   41765,    33042,    46375
*SPRING, ELSET=WK_244

4.360209e-02
*ELEMENT, TYPE=SPRINGA, ELSET=WK_245
   41766,    33046,    46376
*SPRING, ELSET=WK_245

4.360209e-02
*ELEMENT, TYPE=SPRINGA, ELSET=WK_246
   41767,    33050,    46377
*SPRING, ELSET=WK_246

4.360209e-02
*ELEMENT, TYPE=SPRINGA, ELSET=WK_247
   41768,    33054,    46378
*SPRING, ELSET=WK_247

4.360209e-02
*ELEMENT, TYPE=SPRINGA, ELSET=WK_248
   41769,    33058,    46379
*SPRING, ELSET=WK_248

4.360209e-02
*ELEMENT, TYPE=SPRINGA, ELSET=WK_249
   41770,    33062,    46380
*SPRING, ELSET=WK_249

4.360209e-02
*ELEMENT, TYPE=SPRINGA, ELSET=WK_250
   41771,    33066,    46381
*SPRING, ELSET=WK_250

4.360209e-02
*ELEMENT, TYPE=SPRINGA, ELSET=WK_251
   41772,    33070,    46382
*SPRING, ELSET=WK_251

4.360209e-02
*ELEMENT, TYPE=SPRINGA, ELSET=WK_252
   41773,    33074,    46383
*SPRING, ELSET=WK_252

4.360209e-02
*ELEMENT, TYPE=SPRINGA, ELSET=WK_253
   41774,    33078,    46384
*SPRING, ELSET=WK_253

4.360209e-02
*ELEMENT, TYPE=SPRINGA, ELSET=WK_254
   41775,    33082,    46385
*SPRING, ELSET=WK_254

4.360209e-02
*ELEMENT, TYPE=SPRINGA, ELSET=WK_255
   41776,    33086,    46386
*SPRING, ELSET=WK_255

4.360209e-02
*ELEMENT, TYPE=SPRINGA, ELSET=WK_256
   41777,    33090,    46387
*SPRING, ELSET=WK_256

4.360209e-02
*ELEMENT, TYPE=SPRINGA, ELSET=WK_257
   41778,    33094,    46388
*SPRING, ELSET=WK_257

4.360209e-02
*ELEMENT, TYPE=SPRINGA, ELSET=WK_258
   41779,    33098,    46389
*SPRING, ELSET=WK_258

4.360209e-02
*ELEMENT, TYPE=SPRINGA, ELSET=WK_259
   41780,    33102,    46390
*SPRING, ELSET=WK_259

4.360209e-02
*ELEMENT, TYPE=SPRINGA, ELSET=WK_260
   41781,    33106,    46391
*SPRING, ELSET=WK_260

4.360209e-02
*ELEMENT, TYPE=SPRINGA, ELSET=WK_261
   41782,    33110,    46392
*SPRING, ELSET=WK_261

4.360209e-02
*ELEMENT, TYPE=SPRINGA, ELSET=WK_262
   41783,    33114,    46393
*SPRING, ELSET=WK_262

4.360209e-02
*ELEMENT, TYPE=SPRINGA, ELSET=WK_263
   41784,    33118,    46394
*SPRING, ELSET=WK_263

4.360209e-02
*ELEMENT, TYPE=SPRINGA, ELSET=WK_264
   41785,    33122,    46395
*SPRING, ELSET=WK_264

4.360209e-02
*ELEMENT, TYPE=SPRINGA, ELSET=WK_265
   41786,    33126,    46396
*SPRING, ELSET=WK_265

4.360209e-02
*ELEMENT, TYPE=SPRINGA, ELSET=WK_266
   41787,    33130,    46397
*SPRING, ELSET=WK_266

4.360209e-02
*ELEMENT, TYPE=SPRINGA, ELSET=WK_267
   41788,    33134,    46398
*SPRING, ELSET=WK_267

4.360209e-02
*ELEMENT, TYPE=SPRINGA, ELSET=WK_268
   41789,    33138,    46399
*SPRING, ELSET=WK_268

4.360209e-02
*ELEMENT, TYPE=SPRINGA, ELSET=WK_269
   41790,    33142,    46400
*SPRING, ELSET=WK_269

4.360209e-02
*ELEMENT, TYPE=SPRINGA, ELSET=WK_270
   41791,    33146,    46401
*SPRING, ELSET=WK_270

4.360209e-02
*ELEMENT, TYPE=SPRINGA, ELSET=WK_271
   41792,    33150,    46402
*SPRING, ELSET=WK_271

4.360209e-02
*ELEMENT, TYPE=SPRINGA, ELSET=WK_272
   41793,    33154,    46403
*SPRING, ELSET=WK_272

4.360209e-02
*ELEMENT, TYPE=SPRINGA, ELSET=WK_273
   41794,    33158,    46404
*SPRING, ELSET=WK_273

4.360209e-02
*ELEMENT, TYPE=SPRINGA, ELSET=WK_274
   41795,    33162,    46405
*SPRING, ELSET=WK_274

4.360209e-02
*ELEMENT, TYPE=SPRINGA, ELSET=WK_275
   41796,    33166,    46406
*SPRING, ELSET=WK_275

4.360209e-02
*ELEMENT, TYPE=SPRINGA, ELSET=WK_276
   41797,    33170,    46407
*SPRING, ELSET=WK_276

4.360209e-02
*ELEMENT, TYPE=SPRINGA, ELSET=WK_277
   41798,    33174,    46408
*SPRING, ELSET=WK_277

4.360209e-02
*ELEMENT, TYPE=SPRINGA, ELSET=WK_278
   41799,    33178,    46409
*SPRING, ELSET=WK_278

4.360209e-02
*ELEMENT, TYPE=SPRINGA, ELSET=WK_279
   41800,    33182,    46410
*SPRING, ELSET=WK_279

4.360209e-02
*ELEMENT, TYPE=SPRINGA, ELSET=WK_280
   41801,    33186,    46411
*SPRING, ELSET=WK_280

4.360209e-02
*ELEMENT, TYPE=SPRINGA, ELSET=WK_281
   41802,    33190,    46412
*SPRING, ELSET=WK_281

4.360209e-02
*ELEMENT, TYPE=SPRINGA, ELSET=WK_282
   41803,    33194,    46413
*SPRING, ELSET=WK_282

4.360209e-02
*ELEMENT, TYPE=SPRINGA, ELSET=WK_283
   41804,    33198,    46414
*SPRING, ELSET=WK_283

4.360209e-02
*ELEMENT, TYPE=SPRINGA, ELSET=WK_284
   41805,    33202,    46415
*SPRING, ELSET=WK_284

4.360209e-02
*ELEMENT, TYPE=SPRINGA, ELSET=WK_285
   41806,    33206,    46416
*SPRING, ELSET=WK_285

4.360209e-02
*ELEMENT, TYPE=SPRINGA, ELSET=WK_286
   41807,    33210,    46417
*SPRING, ELSET=WK_286

4.360209e-02
*ELEMENT, TYPE=SPRINGA, ELSET=WK_287
   41808,    33214,    46418
*SPRING, ELSET=WK_287

4.360209e-02
*ELEMENT, TYPE=SPRINGA, ELSET=WK_288
   41809,    33218,    46419
*SPRING, ELSET=WK_288

4.360209e-02
*ELEMENT, TYPE=SPRINGA, ELSET=WK_289
   41810,    33222,    46420
*SPRING, ELSET=WK_289

4.360209e-02
*ELEMENT, TYPE=SPRINGA, ELSET=WK_290
   41811,    33226,    46421
*SPRING, ELSET=WK_290

4.360209e-02
*ELEMENT, TYPE=SPRINGA, ELSET=WK_291
   41812,    33230,    46422
*SPRING, ELSET=WK_291

4.360209e-02
*ELEMENT, TYPE=SPRINGA, ELSET=WK_292
   41813,    33234,    46423
*SPRING, ELSET=WK_292

4.360209e-02
*ELEMENT, TYPE=SPRINGA, ELSET=WK_293
   41814,    33238,    46424
*SPRING, ELSET=WK_293

4.360209e-02
*ELEMENT, TYPE=SPRINGA, ELSET=WK_294
   41815,    33242,    46425
*SPRING, ELSET=WK_294

4.360209e-02
*ELEMENT, TYPE=SPRINGA, ELSET=WK_295
   41816,    33246,    46426
*SPRING, ELSET=WK_295

4.360209e-02
*ELEMENT, TYPE=SPRINGA, ELSET=WK_296
   41817,    33250,    46427
*SPRING, ELSET=WK_296

4.360209e-02
*ELEMENT, TYPE=SPRINGA, ELSET=WK_297
   41818,    33254,    46428
*SPRING, ELSET=WK_297

4.360209e-02
*ELEMENT, TYPE=SPRINGA, ELSET=WK_298
   41819,    33258,    46429
*SPRING, ELSET=WK_298

4.360209e-02
*ELEMENT, TYPE=SPRINGA, ELSET=WK_299
   41820,    33262,    46430
*SPRING, ELSET=WK_299

4.360209e-02
*ELEMENT, TYPE=SPRINGA, ELSET=WK_300
   41821,    33266,    46431
*SPRING, ELSET=WK_300

4.360209e-02
*ELEMENT, TYPE=SPRINGA, ELSET=WK_301
   41822,    33270,    46432
*SPRING, ELSET=WK_301

4.360209e-02
*ELEMENT, TYPE=SPRINGA, ELSET=WK_302
   41823,    33274,    46433
*SPRING, ELSET=WK_302

4.360209e-02
*ELEMENT, TYPE=SPRINGA, ELSET=WK_303
   41824,    33278,    46434
*SPRING, ELSET=WK_303

4.360209e-02
*ELEMENT, TYPE=SPRINGA, ELSET=WK_304
   41825,    33282,    46435
*SPRING, ELSET=WK_304

4.360209e-02
*ELEMENT, TYPE=SPRINGA, ELSET=WK_305
   41826,    33286,    46436
*SPRING, ELSET=WK_305

4.360209e-02
*ELEMENT, TYPE=SPRINGA, ELSET=WK_306
   41827,    33290,    46437
*SPRING, ELSET=WK_306

4.360209e-02
*ELEMENT, TYPE=SPRINGA, ELSET=WK_307
   41828,    33294,    46438
*SPRING, ELSET=WK_307

4.360209e-02
*ELEMENT, TYPE=SPRINGA, ELSET=WK_308
   41829,    33298,    46439
*SPRING, ELSET=WK_308

4.360209e-02
*ELEMENT, TYPE=SPRINGA, ELSET=WK_309
   41830,    33302,    46440
*SPRING, ELSET=WK_309

4.360209e-02
*ELEMENT, TYPE=SPRINGA, ELSET=WK_310
   41831,    33306,    46441
*SPRING, ELSET=WK_310

4.360209e-02
*ELEMENT, TYPE=SPRINGA, ELSET=WK_311
   41832,    33310,    46442
*SPRING, ELSET=WK_311

4.360209e-02
*ELEMENT, TYPE=SPRINGA, ELSET=WK_312
   41833,    33314,    46443
*SPRING, ELSET=WK_312

4.360209e-02
*ELEMENT, TYPE=SPRINGA, ELSET=WK_313
   41834,    33318,    46444
*SPRING, ELSET=WK_313

4.360209e-02
*ELEMENT, TYPE=SPRINGA, ELSET=WK_314
   41835,    33322,    46445
*SPRING, ELSET=WK_314

4.360209e-02
*ELEMENT, TYPE=SPRINGA, ELSET=WK_315
   41836,    33326,    46446
*SPRING, ELSET=WK_315

4.360209e-02
*ELEMENT, TYPE=SPRINGA, ELSET=WK_316
   41837,    33330,    46447
*SPRING, ELSET=WK_316

4.360209e-02
*ELEMENT, TYPE=SPRINGA, ELSET=WK_317
   41838,    33334,    46448
*SPRING, ELSET=WK_317

4.360209e-02
*ELEMENT, TYPE=SPRINGA, ELSET=WK_318
   41839,    33338,    46449
*SPRING, ELSET=WK_318

4.360209e-02
*ELEMENT, TYPE=SPRINGA, ELSET=WK_319
   41840,    33342,    46450
*SPRING, ELSET=WK_319

4.360209e-02
*ELEMENT, TYPE=SPRINGA, ELSET=WK_320
   41841,    33346,    46451
*SPRING, ELSET=WK_320

4.360209e-02
*ELEMENT, TYPE=SPRINGA, ELSET=WK_321
   41842,    33350,    46452
*SPRING, ELSET=WK_321

4.360209e-02
*ELEMENT, TYPE=SPRINGA, ELSET=WK_322
   41843,    33354,    46453
*SPRING, ELSET=WK_322

4.360209e-02
*ELEMENT, TYPE=SPRINGA, ELSET=WK_323
   41844,    33358,    46454
*SPRING, ELSET=WK_323

4.360209e-02
*ELEMENT, TYPE=SPRINGA, ELSET=WK_324
   41845,    33362,    46455
*SPRING, ELSET=WK_324

4.360209e-02
*ELEMENT, TYPE=SPRINGA, ELSET=WK_325
   41846,    33366,    46456
*SPRING, ELSET=WK_325

4.360209e-02
*ELEMENT, TYPE=SPRINGA, ELSET=WK_326
   41847,    33370,    46457
*SPRING, ELSET=WK_326

4.360209e-02
*ELEMENT, TYPE=SPRINGA, ELSET=WK_327
   41848,    33374,    46458
*SPRING, ELSET=WK_327

4.360209e-02
*ELEMENT, TYPE=SPRINGA, ELSET=WK_328
   41849,    33378,    46459
*SPRING, ELSET=WK_328

4.360209e-02
*ELEMENT, TYPE=SPRINGA, ELSET=WK_329
   41850,    33382,    46460
*SPRING, ELSET=WK_329

4.360209e-02
*ELEMENT, TYPE=SPRINGA, ELSET=WK_330
   41851,    33386,    46461
*SPRING, ELSET=WK_330

4.360209e-02
*ELEMENT, TYPE=SPRINGA, ELSET=WK_331
   41852,    33390,    46462
*SPRING, ELSET=WK_331

4.360209e-02
*ELEMENT, TYPE=SPRINGA, ELSET=WK_332
   41853,    33394,    46463
*SPRING, ELSET=WK_332

4.360209e-02
*ELEMENT, TYPE=SPRINGA, ELSET=WK_333
   41854,    33398,    46464
*SPRING, ELSET=WK_333

4.360209e-02
*ELEMENT, TYPE=SPRINGA, ELSET=WK_334
   41855,    33402,    46465
*SPRING, ELSET=WK_334

4.360209e-02
*ELEMENT, TYPE=SPRINGA, ELSET=WK_335
   41856,    33406,    46466
*SPRING, ELSET=WK_335

4.360209e-02
*ELEMENT, TYPE=SPRINGA, ELSET=WK_336
   41857,    33410,    46467
*SPRING, ELSET=WK_336

4.360209e-02
*ELEMENT, TYPE=SPRINGA, ELSET=WK_337
   41858,    33414,    46468
*SPRING, ELSET=WK_337

4.360209e-02
*ELEMENT, TYPE=SPRINGA, ELSET=WK_338
   41859,    33418,    46469
*SPRING, ELSET=WK_338

4.360209e-02
*ELEMENT, TYPE=SPRINGA, ELSET=WK_339
   41860,    33422,    46470
*SPRING, ELSET=WK_339

4.360209e-02
*ELEMENT, TYPE=SPRINGA, ELSET=WK_340
   41861,    33426,    46471
*SPRING, ELSET=WK_340

4.360209e-02
*ELEMENT, TYPE=SPRINGA, ELSET=WK_341
   41862,    33430,    46472
*SPRING, ELSET=WK_341

4.360209e-02
*ELEMENT, TYPE=SPRINGA, ELSET=WK_342
   41863,    33434,    46473
*SPRING, ELSET=WK_342

4.360209e-02
*ELEMENT, TYPE=SPRINGA, ELSET=WK_343
   41864,    33438,    46474
*SPRING, ELSET=WK_343

4.360209e-02
*ELEMENT, TYPE=SPRINGA, ELSET=WK_344
   41865,    33442,    46475
*SPRING, ELSET=WK_344

4.360209e-02
*ELEMENT, TYPE=SPRINGA, ELSET=WK_345
   41866,    33446,    46476
*SPRING, ELSET=WK_345

4.360209e-02
*ELEMENT, TYPE=SPRINGA, ELSET=WK_346
   41867,    33450,    46477
*SPRING, ELSET=WK_346

4.360209e-02
*ELEMENT, TYPE=SPRINGA, ELSET=WK_347
   41868,    33454,    46478
*SPRING, ELSET=WK_347

4.360209e-02
*ELEMENT, TYPE=SPRINGA, ELSET=WK_348
   41869,    33458,    46479
*SPRING, ELSET=WK_348

4.360209e-02
*ELEMENT, TYPE=SPRINGA, ELSET=WK_349
   41870,    33462,    46480
*SPRING, ELSET=WK_349

4.360209e-02
*ELEMENT, TYPE=SPRINGA, ELSET=WK_350
   41871,    33466,    46481
*SPRING, ELSET=WK_350

4.360209e-02
*ELEMENT, TYPE=SPRINGA, ELSET=WK_351
   41872,    33470,    46482
*SPRING, ELSET=WK_351

4.360209e-02
*ELEMENT, TYPE=SPRINGA, ELSET=WK_352
   41873,    33474,    46483
*SPRING, ELSET=WK_352

4.360209e-02
*ELEMENT, TYPE=SPRINGA, ELSET=WK_353
   41874,    33478,    46484
*SPRING, ELSET=WK_353

4.360209e-02
*ELEMENT, TYPE=SPRINGA, ELSET=WK_354
   41875,    33482,    46485
*SPRING, ELSET=WK_354

4.360209e-02
*ELEMENT, TYPE=SPRINGA, ELSET=WK_355
   41876,    33486,    46486
*SPRING, ELSET=WK_355

4.360209e-02
*ELEMENT, TYPE=SPRINGA, ELSET=WK_356
   41877,    33490,    46487
*SPRING, ELSET=WK_356

4.360209e-02
*ELEMENT, TYPE=SPRINGA, ELSET=WK_357
   41878,    33494,    46488
*SPRING, ELSET=WK_357

4.360209e-02
*ELEMENT, TYPE=SPRINGA, ELSET=WK_358
   41879,    33498,    46489
*SPRING, ELSET=WK_358

4.360209e-02
*ELEMENT, TYPE=SPRINGA, ELSET=WK_359
   41880,    33502,    46490
*SPRING, ELSET=WK_359

4.360209e-02
*ELEMENT, TYPE=SPRINGA, ELSET=WK_360
   41881,    33506,    46491
*SPRING, ELSET=WK_360

4.360209e-02
*ELEMENT, TYPE=SPRINGA, ELSET=WK_361
   41882,    33510,    46492
*SPRING, ELSET=WK_361

4.360209e-02
*ELEMENT, TYPE=SPRINGA, ELSET=WK_362
   41883,    33514,    46493
*SPRING, ELSET=WK_362

4.360209e-02
*ELEMENT, TYPE=SPRINGA, ELSET=WK_363
   41884,    33518,    46494
*SPRING, ELSET=WK_363

4.360209e-02
*ELEMENT, TYPE=SPRINGA, ELSET=WK_364
   41885,    33522,    46495
*SPRING, ELSET=WK_364

4.360209e-02
*ELEMENT, TYPE=SPRINGA, ELSET=WK_365
   41886,    33526,    46496
*SPRING, ELSET=WK_365

4.360209e-02
*ELEMENT, TYPE=SPRINGA, ELSET=WK_366
   41887,    33530,    46497
*SPRING, ELSET=WK_366

4.360209e-02
*ELEMENT, TYPE=SPRINGA, ELSET=WK_367
   41888,    33534,    46498
*SPRING, ELSET=WK_367

4.360209e-02
*ELEMENT, TYPE=SPRINGA, ELSET=WK_368
   41889,    33538,    46499
*SPRING, ELSET=WK_368

4.360209e-02
*ELEMENT, TYPE=SPRINGA, ELSET=WK_369
   41890,    33542,    46500
*SPRING, ELSET=WK_369

4.360209e-02
*ELEMENT, TYPE=SPRINGA, ELSET=WK_370
   41891,    33546,    46501
*SPRING, ELSET=WK_370

4.360209e-02
*ELEMENT, TYPE=SPRINGA, ELSET=WK_371
   41892,    33550,    46502
*SPRING, ELSET=WK_371

4.360209e-02
*ELEMENT, TYPE=SPRINGA, ELSET=WK_372
   41893,    33554,    46503
*SPRING, ELSET=WK_372

4.360209e-02
*ELEMENT, TYPE=SPRINGA, ELSET=WK_373
   41894,    33558,    46504
*SPRING, ELSET=WK_373

4.360209e-02
*ELEMENT, TYPE=SPRINGA, ELSET=WK_374
   41895,    33562,    46505
*SPRING, ELSET=WK_374

4.360209e-02
*ELEMENT, TYPE=SPRINGA, ELSET=WK_375
   41896,    33566,    46506
*SPRING, ELSET=WK_375

4.360209e-02
*ELEMENT, TYPE=SPRINGA, ELSET=WK_376
   41897,    33570,    46507
*SPRING, ELSET=WK_376

4.360209e-02
*ELEMENT, TYPE=SPRINGA, ELSET=WK_377
   41898,    33574,    46508
*SPRING, ELSET=WK_377

4.360209e-02
*ELEMENT, TYPE=SPRINGA, ELSET=WK_378
   41899,    33578,    46509
*SPRING, ELSET=WK_378

4.360209e-02
*ELEMENT, TYPE=SPRINGA, ELSET=WK_379
   41900,    33582,    46510
*SPRING, ELSET=WK_379

4.360209e-02
*ELEMENT, TYPE=SPRINGA, ELSET=WK_380
   41901,    33586,    46511
*SPRING, ELSET=WK_380

4.360209e-02
*ELEMENT, TYPE=SPRINGA, ELSET=WK_381
   41902,    33590,    46512
*SPRING, ELSET=WK_381

4.360209e-02
*ELEMENT, TYPE=SPRINGA, ELSET=WK_382
   41903,    33594,    46513
*SPRING, ELSET=WK_382

4.360209e-02
*ELEMENT, TYPE=SPRINGA, ELSET=WK_383
   41904,    33598,    46514
*SPRING, ELSET=WK_383

4.360209e-02
*ELEMENT, TYPE=SPRINGA, ELSET=WK_384
   41905,    33602,    46515
*SPRING, ELSET=WK_384

4.360209e-02
*ELEMENT, TYPE=SPRINGA, ELSET=WK_385
   41906,    33606,    46516
*SPRING, ELSET=WK_385

4.360209e-02
*ELEMENT, TYPE=SPRINGA, ELSET=WK_386
   41907,    33610,    46517
*SPRING, ELSET=WK_386

4.360209e-02
*ELEMENT, TYPE=SPRINGA, ELSET=WK_387
   41908,    33614,    46518
*SPRING, ELSET=WK_387

4.360209e-02
*ELEMENT, TYPE=SPRINGA, ELSET=WK_388
   41909,    33618,    46519
*SPRING, ELSET=WK_388

4.360209e-02
*ELEMENT, TYPE=SPRINGA, ELSET=WK_389
   41910,    33622,    46520
*SPRING, ELSET=WK_389

4.360209e-02
*ELEMENT, TYPE=SPRINGA, ELSET=WK_390
   41911,    33626,    46521
*SPRING, ELSET=WK_390

4.360209e-02
*ELEMENT, TYPE=SPRINGA, ELSET=WK_391
   41912,    33630,    46522
*SPRING, ELSET=WK_391

4.360209e-02
*ELEMENT, TYPE=SPRINGA, ELSET=WK_392
   41913,    33634,    46523
*SPRING, ELSET=WK_392

4.360209e-02
*ELEMENT, TYPE=SPRINGA, ELSET=WK_393
   41914,    33638,    46524
*SPRING, ELSET=WK_393

4.360209e-02
*ELEMENT, TYPE=SPRINGA, ELSET=WK_394
   41915,    33642,    46525
*SPRING, ELSET=WK_394

4.360209e-02
*ELEMENT, TYPE=SPRINGA, ELSET=WK_395
   41916,    33646,    46526
*SPRING, ELSET=WK_395

4.360209e-02
*ELEMENT, TYPE=SPRINGA, ELSET=WK_396
   41917,    33650,    46527
*SPRING, ELSET=WK_396

4.360209e-02
*ELEMENT, TYPE=SPRINGA, ELSET=WK_397
   41918,    33654,    46528
*SPRING, ELSET=WK_397

4.360209e-02
*ELEMENT, TYPE=SPRINGA, ELSET=WK_398
   41919,    33658,    46529
*SPRING, ELSET=WK_398

4.360209e-02
*ELEMENT, TYPE=SPRINGA, ELSET=WK_399
   41920,    33662,    46530
*SPRING, ELSET=WK_399

4.360209e-02
*ELEMENT, TYPE=SPRINGA, ELSET=WK_400
   41921,    33666,    46531
*SPRING, ELSET=WK_400

4.360209e-02
*ELEMENT, TYPE=SPRINGA, ELSET=WK_401
   41922,    33670,    46532
*SPRING, ELSET=WK_401

4.360209e-02
*ELEMENT, TYPE=SPRINGA, ELSET=WK_402
   41923,    33674,    46533
*SPRING, ELSET=WK_402

4.360209e-02
*ELEMENT, TYPE=SPRINGA, ELSET=WK_403
   41924,    33678,    46534
*SPRING, ELSET=WK_403

4.360209e-02
*ELEMENT, TYPE=SPRINGA, ELSET=WK_404
   41925,    33682,    46535
*SPRING, ELSET=WK_404

4.360209e-02
*ELEMENT, TYPE=SPRINGA, ELSET=WK_405
   41926,    33686,    46536
*SPRING, ELSET=WK_405

4.360209e-02
*ELEMENT, TYPE=SPRINGA, ELSET=WK_406
   41927,    33690,    46537
*SPRING, ELSET=WK_406

4.360209e-02
*ELEMENT, TYPE=SPRINGA, ELSET=WK_407
   41928,    33694,    46538
*SPRING, ELSET=WK_407

4.360209e-02
*ELEMENT, TYPE=SPRINGA, ELSET=WK_408
   41929,    33698,    46539
*SPRING, ELSET=WK_408

4.360209e-02
*ELEMENT, TYPE=SPRINGA, ELSET=WK_409
   41930,    33702,    46540
*SPRING, ELSET=WK_409

4.360209e-02
*ELEMENT, TYPE=SPRINGA, ELSET=WK_410
   41931,    33706,    46541
*SPRING, ELSET=WK_410

4.360209e-02
*ELEMENT, TYPE=SPRINGA, ELSET=WK_411
   41932,    33710,    46542
*SPRING, ELSET=WK_411

4.360209e-02
*ELEMENT, TYPE=SPRINGA, ELSET=WK_412
   41933,    33714,    46543
*SPRING, ELSET=WK_412

4.360209e-02
*ELEMENT, TYPE=SPRINGA, ELSET=WK_413
   41934,    33718,    46544
*SPRING, ELSET=WK_413

4.360209e-02
*ELEMENT, TYPE=SPRINGA, ELSET=WK_414
   41935,    33722,    46545
*SPRING, ELSET=WK_414

4.360209e-02
*ELEMENT, TYPE=SPRINGA, ELSET=WK_415
   41936,    33726,    46546
*SPRING, ELSET=WK_415

4.360209e-02
*ELEMENT, TYPE=SPRINGA, ELSET=WK_416
   41937,    33730,    46547
*SPRING, ELSET=WK_416

4.360209e-02
*ELEMENT, TYPE=SPRINGA, ELSET=WK_417
   41938,    33734,    46548
*SPRING, ELSET=WK_417

4.360209e-02
*ELEMENT, TYPE=SPRINGA, ELSET=WK_418
   41939,    33738,    46549
*SPRING, ELSET=WK_418

4.360209e-02
*ELEMENT, TYPE=SPRINGA, ELSET=WK_419
   41940,    33742,    46550
*SPRING, ELSET=WK_419

4.360209e-02
*ELEMENT, TYPE=SPRINGA, ELSET=WK_420
   41941,    33746,    46551
*SPRING, ELSET=WK_420

4.360209e-02
*ELEMENT, TYPE=SPRINGA, ELSET=WK_421
   41942,    33750,    46552
*SPRING, ELSET=WK_421

4.360209e-02
*ELEMENT, TYPE=SPRINGA, ELSET=WK_422
   41943,    33754,    46553
*SPRING, ELSET=WK_422

4.360209e-02
*ELEMENT, TYPE=SPRINGA, ELSET=WK_423
   41944,    33758,    46554
*SPRING, ELSET=WK_423

4.360209e-02
*ELEMENT, TYPE=SPRINGA, ELSET=WK_424
   41945,    33762,    46555
*SPRING, ELSET=WK_424

4.360209e-02
*ELEMENT, TYPE=SPRINGA, ELSET=WK_425
   41946,    33766,    46556
*SPRING, ELSET=WK_425

4.360209e-02
*ELEMENT, TYPE=SPRINGA, ELSET=WK_426
   41947,    33770,    46557
*SPRING, ELSET=WK_426

4.360209e-02
*ELEMENT, TYPE=SPRINGA, ELSET=WK_427
   41948,    33774,    46558
*SPRING, ELSET=WK_427

4.360209e-02
*ELEMENT, TYPE=SPRINGA, ELSET=WK_428
   41949,    33778,    46559
*SPRING, ELSET=WK_428

4.360209e-02
*ELEMENT, TYPE=SPRINGA, ELSET=WK_429
   41950,    33782,    46560
*SPRING, ELSET=WK_429

4.360209e-02
*ELEMENT, TYPE=SPRINGA, ELSET=WK_430
   41951,    33786,    46561
*SPRING, ELSET=WK_430

4.360209e-02
*ELEMENT, TYPE=SPRINGA, ELSET=WK_431
   41952,    33790,    46562
*SPRING, ELSET=WK_431

4.360209e-02
*ELEMENT, TYPE=SPRINGA, ELSET=WK_432
   41953,    33794,    46563
*SPRING, ELSET=WK_432

4.360209e-02
*ELEMENT, TYPE=SPRINGA, ELSET=WK_433
   41954,    33798,    46564
*SPRING, ELSET=WK_433

3.270157e-02
*ELEMENT, TYPE=SPRINGA, ELSET=WK_434
   41955,    33802,    46565
*SPRING, ELSET=WK_434

2.180104e-02
*ELEMENT, TYPE=SPRINGA, ELSET=WK_435
   41956,    33806,    46566
*SPRING, ELSET=WK_435

2.180104e-02
*ELEMENT, TYPE=SPRINGA, ELSET=WK_436
   41957,    33810,    46567
*SPRING, ELSET=WK_436

2.180104e-02
*ELEMENT, TYPE=SPRINGA, ELSET=WK_437
   41958,    33814,    46568
*SPRING, ELSET=WK_437

3.270157e-02
*ELEMENT, TYPE=SPRINGA, ELSET=WK_438
   41959,    33818,    46569
*SPRING, ELSET=WK_438

4.360209e-02
*ELEMENT, TYPE=SPRINGA, ELSET=WK_439
   41960,    33822,    46570
*SPRING, ELSET=WK_439

4.360209e-02
*ELEMENT, TYPE=SPRINGA, ELSET=WK_440
   41961,    33826,    46571
*SPRING, ELSET=WK_440

4.360209e-02
*ELEMENT, TYPE=SPRINGA, ELSET=WK_441
   41962,    33830,    46572
*SPRING, ELSET=WK_441

4.360209e-02
*ELEMENT, TYPE=SPRINGA, ELSET=WK_442
   41963,    33834,    46573
*SPRING, ELSET=WK_442

4.360209e-02
*ELEMENT, TYPE=SPRINGA, ELSET=WK_443
   41964,    33838,    46574
*SPRING, ELSET=WK_443

4.360209e-02
*ELEMENT, TYPE=SPRINGA, ELSET=WK_444
   41965,    33842,    46575
*SPRING, ELSET=WK_444

4.360209e-02
*ELEMENT, TYPE=SPRINGA, ELSET=WK_445
   41966,    33846,    46576
*SPRING, ELSET=WK_445

4.360209e-02
*ELEMENT, TYPE=SPRINGA, ELSET=WK_446
   41967,    33850,    46577
*SPRING, ELSET=WK_446

2.180104e-02
*ELEMENT, TYPE=SPRINGA, ELSET=WK_447
   41968,    33866,    46578
*SPRING, ELSET=WK_447

2.180104e-02
*ELEMENT, TYPE=SPRINGA, ELSET=WK_448
   41969,    33870,    46579
*SPRING, ELSET=WK_448

4.360209e-02
*ELEMENT, TYPE=SPRINGA, ELSET=WK_449
   41970,    33874,    46580
*SPRING, ELSET=WK_449

4.360209e-02
*ELEMENT, TYPE=SPRINGA, ELSET=WK_450
   41971,    33878,    46581
*SPRING, ELSET=WK_450

4.360209e-02
*ELEMENT, TYPE=SPRINGA, ELSET=WK_451
   41972,    33882,    46582
*SPRING, ELSET=WK_451

4.360209e-02
*ELEMENT, TYPE=SPRINGA, ELSET=WK_452
   41973,    33886,    46583
*SPRING, ELSET=WK_452

4.360209e-02
*ELEMENT, TYPE=SPRINGA, ELSET=WK_453
   41974,    33890,    46584
*SPRING, ELSET=WK_453

4.360209e-02
*ELEMENT, TYPE=SPRINGA, ELSET=WK_454
   41975,    33894,    46585
*SPRING, ELSET=WK_454

4.360209e-02
*ELEMENT, TYPE=SPRINGA, ELSET=WK_455
   41976,    33898,    46586
*SPRING, ELSET=WK_455

4.360209e-02
*ELEMENT, TYPE=SPRINGA, ELSET=WK_456
   41977,    33902,    46587
*SPRING, ELSET=WK_456

3.270156e-02
*ELEMENT, TYPE=SPRINGA, ELSET=WK_457
   41978,    33906,    46588
*SPRING, ELSET=WK_457

2.180104e-02
*ELEMENT, TYPE=SPRINGA, ELSET=WK_458
   41979,    33910,    46589
*SPRING, ELSET=WK_458

2.180104e-02
*ELEMENT, TYPE=SPRINGA, ELSET=WK_459
   41980,    33914,    46590
*SPRING, ELSET=WK_459

2.180104e-02
*ELEMENT, TYPE=SPRINGA, ELSET=WK_460
   41981,    33918,    46591
*SPRING, ELSET=WK_460

3.270156e-02
*ELEMENT, TYPE=SPRINGA, ELSET=WK_461
   41982,    33922,    46592
*SPRING, ELSET=WK_461

4.360209e-02
*ELEMENT, TYPE=SPRINGA, ELSET=WK_462
   41983,    33926,    46593
*SPRING, ELSET=WK_462

4.360209e-02
*ELEMENT, TYPE=SPRINGA, ELSET=WK_463
   41984,    33930,    46594
*SPRING, ELSET=WK_463

4.360209e-02
*ELEMENT, TYPE=SPRINGA, ELSET=WK_464
   41985,    33934,    46595
*SPRING, ELSET=WK_464

4.360209e-02
*ELEMENT, TYPE=SPRINGA, ELSET=WK_465
   41986,    33938,    46596
*SPRING, ELSET=WK_465

4.360209e-02
*ELEMENT, TYPE=SPRINGA, ELSET=WK_466
   41987,    33942,    46597
*SPRING, ELSET=WK_466

4.360209e-02
*ELEMENT, TYPE=SPRINGA, ELSET=WK_467
   41988,    33946,    46598
*SPRING, ELSET=WK_467

4.360209e-02
*ELEMENT, TYPE=SPRINGA, ELSET=WK_468
   41989,    33950,    46599
*SPRING, ELSET=WK_468

4.360209e-02
*ELEMENT, TYPE=SPRINGA, ELSET=WK_469
   41990,    33954,    46600
*SPRING, ELSET=WK_469

4.360209e-02
*ELEMENT, TYPE=SPRINGA, ELSET=WK_470
   41991,    33958,    46601
*SPRING, ELSET=WK_470

4.360209e-02
*ELEMENT, TYPE=SPRINGA, ELSET=WK_471
   41992,    33962,    46602
*SPRING, ELSET=WK_471

4.360209e-02
*ELEMENT, TYPE=SPRINGA, ELSET=WK_472
   41993,    33966,    46603
*SPRING, ELSET=WK_472

4.360209e-02
*ELEMENT, TYPE=SPRINGA, ELSET=WK_473
   41994,    33970,    46604
*SPRING, ELSET=WK_473

4.360209e-02
*ELEMENT, TYPE=SPRINGA, ELSET=WK_474
   41995,    33974,    46605
*SPRING, ELSET=WK_474

4.360209e-02
*ELEMENT, TYPE=SPRINGA, ELSET=WK_475
   41996,    33978,    46606
*SPRING, ELSET=WK_475

4.360209e-02
*ELEMENT, TYPE=SPRINGA, ELSET=WK_476
   41997,    33982,    46607
*SPRING, ELSET=WK_476

4.360209e-02
*ELEMENT, TYPE=SPRINGA, ELSET=WK_477
   41998,    33986,    46608
*SPRING, ELSET=WK_477

4.360209e-02
*ELEMENT, TYPE=SPRINGA, ELSET=WK_478
   41999,    33990,    46609
*SPRING, ELSET=WK_478

4.360209e-02
*ELEMENT, TYPE=SPRINGA, ELSET=WK_479
   42000,    33994,    46610
*SPRING, ELSET=WK_479

4.360209e-02
*ELEMENT, TYPE=SPRINGA, ELSET=WK_480
   42001,    33998,    46611
*SPRING, ELSET=WK_480

4.360209e-02
*ELEMENT, TYPE=SPRINGA, ELSET=WK_481
   42002,    34002,    46612
*SPRING, ELSET=WK_481

4.360209e-02
*ELEMENT, TYPE=SPRINGA, ELSET=WK_482
   42003,    34006,    46613
*SPRING, ELSET=WK_482

4.360209e-02
*ELEMENT, TYPE=SPRINGA, ELSET=WK_483
   42004,    34010,    46614
*SPRING, ELSET=WK_483

4.360209e-02
*ELEMENT, TYPE=SPRINGA, ELSET=WK_484
   42005,    34014,    46615
*SPRING, ELSET=WK_484

4.360209e-02
*ELEMENT, TYPE=SPRINGA, ELSET=WK_485
   42006,    34018,    46616
*SPRING, ELSET=WK_485

4.360209e-02
*ELEMENT, TYPE=SPRINGA, ELSET=WK_486
   42007,    34022,    46617
*SPRING, ELSET=WK_486

4.360209e-02
*ELEMENT, TYPE=SPRINGA, ELSET=WK_487
   42008,    34026,    46618
*SPRING, ELSET=WK_487

4.360209e-02
*ELEMENT, TYPE=SPRINGA, ELSET=WK_488
   42009,    34030,    46619
*SPRING, ELSET=WK_488

4.360209e-02
*ELEMENT, TYPE=SPRINGA, ELSET=WK_489
   42010,    34034,    46620
*SPRING, ELSET=WK_489

4.360209e-02
*ELEMENT, TYPE=SPRINGA, ELSET=WK_490
   42011,    34038,    46621
*SPRING, ELSET=WK_490

4.360209e-02
*ELEMENT, TYPE=SPRINGA, ELSET=WK_491
   42012,    34042,    46622
*SPRING, ELSET=WK_491

4.360209e-02
*ELEMENT, TYPE=SPRINGA, ELSET=WK_492
   42013,    34046,    46623
*SPRING, ELSET=WK_492

4.360209e-02
*ELEMENT, TYPE=SPRINGA, ELSET=WK_493
   42014,    34050,    46624
*SPRING, ELSET=WK_493

4.360209e-02
*ELEMENT, TYPE=SPRINGA, ELSET=WK_494
   42015,    34054,    46625
*SPRING, ELSET=WK_494

4.360209e-02
*ELEMENT, TYPE=SPRINGA, ELSET=WK_495
   42016,    34058,    46626
*SPRING, ELSET=WK_495

4.360209e-02
*ELEMENT, TYPE=SPRINGA, ELSET=WK_496
   42017,    34062,    46627
*SPRING, ELSET=WK_496

4.360209e-02
*ELEMENT, TYPE=SPRINGA, ELSET=WK_497
   42018,    34066,    46628
*SPRING, ELSET=WK_497

4.360209e-02
*ELEMENT, TYPE=SPRINGA, ELSET=WK_498
   42019,    34070,    46629
*SPRING, ELSET=WK_498

4.360209e-02
*ELEMENT, TYPE=SPRINGA, ELSET=WK_499
   42020,    34074,    46630
*SPRING, ELSET=WK_499

4.360209e-02
*ELEMENT, TYPE=SPRINGA, ELSET=WK_500
   42021,    34078,    46631
*SPRING, ELSET=WK_500

4.360209e-02
*ELEMENT, TYPE=SPRINGA, ELSET=WK_501
   42022,    34082,    46632
*SPRING, ELSET=WK_501

4.360209e-02
*ELEMENT, TYPE=SPRINGA, ELSET=WK_502
   42023,    34086,    46633
*SPRING, ELSET=WK_502

4.360209e-02
*ELEMENT, TYPE=SPRINGA, ELSET=WK_503
   42024,    34090,    46634
*SPRING, ELSET=WK_503

4.360209e-02
*ELEMENT, TYPE=SPRINGA, ELSET=WK_504
   42025,    34094,    46635
*SPRING, ELSET=WK_504

4.360209e-02
*ELEMENT, TYPE=SPRINGA, ELSET=WK_505
   42026,    34098,    46636
*SPRING, ELSET=WK_505

4.360209e-02
*ELEMENT, TYPE=SPRINGA, ELSET=WK_506
   42027,    34102,    46637
*SPRING, ELSET=WK_506

4.360209e-02
*ELEMENT, TYPE=SPRINGA, ELSET=WK_507
   42028,    34106,    46638
*SPRING, ELSET=WK_507

4.360209e-02
*ELEMENT, TYPE=SPRINGA, ELSET=WK_508
   42029,    34110,    46639
*SPRING, ELSET=WK_508

4.360209e-02
*ELEMENT, TYPE=SPRINGA, ELSET=WK_509
   42030,    34114,    46640
*SPRING, ELSET=WK_509

4.360209e-02
*ELEMENT, TYPE=SPRINGA, ELSET=WK_510
   42031,    34118,    46641
*SPRING, ELSET=WK_510

4.360209e-02
*ELEMENT, TYPE=SPRINGA, ELSET=WK_511
   42032,    34122,    46642
*SPRING, ELSET=WK_511

4.360209e-02
*ELEMENT, TYPE=SPRINGA, ELSET=WK_512
   42033,    34126,    46643
*SPRING, ELSET=WK_512

4.360209e-02
*ELEMENT, TYPE=SPRINGA, ELSET=WK_513
   42034,    34130,    46644
*SPRING, ELSET=WK_513

4.360209e-02
*ELEMENT, TYPE=SPRINGA, ELSET=WK_514
   42035,    34134,    46645
*SPRING, ELSET=WK_514

4.360209e-02
*ELEMENT, TYPE=SPRINGA, ELSET=WK_515
   42036,    34138,    46646
*SPRING, ELSET=WK_515

4.360209e-02
*ELEMENT, TYPE=SPRINGA, ELSET=WK_516
   42037,    34142,    46647
*SPRING, ELSET=WK_516

4.360209e-02
*ELEMENT, TYPE=SPRINGA, ELSET=WK_517
   42038,    34146,    46648
*SPRING, ELSET=WK_517

4.360209e-02
*ELEMENT, TYPE=SPRINGA, ELSET=WK_518
   42039,    34150,    46649
*SPRING, ELSET=WK_518

4.360209e-02
*ELEMENT, TYPE=SPRINGA, ELSET=WK_519
   42040,    34154,    46650
*SPRING, ELSET=WK_519

4.360209e-02
*ELEMENT, TYPE=SPRINGA, ELSET=WK_520
   42041,    34158,    46651
*SPRING, ELSET=WK_520

4.360209e-02
*ELEMENT, TYPE=SPRINGA, ELSET=WK_521
   42042,    34162,    46652
*SPRING, ELSET=WK_521

4.360209e-02
*ELEMENT, TYPE=SPRINGA, ELSET=WK_522
   42043,    34166,    46653
*SPRING, ELSET=WK_522

4.360209e-02
*ELEMENT, TYPE=SPRINGA, ELSET=WK_523
   42044,    34170,    46654
*SPRING, ELSET=WK_523

4.360209e-02
*ELEMENT, TYPE=SPRINGA, ELSET=WK_524
   42045,    34174,    46655
*SPRING, ELSET=WK_524

4.360209e-02
*ELEMENT, TYPE=SPRINGA, ELSET=WK_525
   42046,    34178,    46656
*SPRING, ELSET=WK_525

4.360209e-02
*ELEMENT, TYPE=SPRINGA, ELSET=WK_526
   42047,    34182,    46657
*SPRING, ELSET=WK_526

4.360209e-02
*ELEMENT, TYPE=SPRINGA, ELSET=WK_527
   42048,    34186,    46658
*SPRING, ELSET=WK_527

4.360209e-02
*ELEMENT, TYPE=SPRINGA, ELSET=WK_528
   42049,    34190,    46659
*SPRING, ELSET=WK_528

4.360209e-02
*ELEMENT, TYPE=SPRINGA, ELSET=WK_529
   42050,    34194,    46660
*SPRING, ELSET=WK_529

4.360209e-02
*ELEMENT, TYPE=SPRINGA, ELSET=WK_530
   42051,    34198,    46661
*SPRING, ELSET=WK_530

4.360209e-02
*ELEMENT, TYPE=SPRINGA, ELSET=WK_531
   42052,    34202,    46662
*SPRING, ELSET=WK_531

4.360209e-02
*ELEMENT, TYPE=SPRINGA, ELSET=WK_532
   42053,    34206,    46663
*SPRING, ELSET=WK_532

4.360209e-02
*ELEMENT, TYPE=SPRINGA, ELSET=WK_533
   42054,    34210,    46664
*SPRING, ELSET=WK_533

4.360209e-02
*ELEMENT, TYPE=SPRINGA, ELSET=WK_534
   42055,    34214,    46665
*SPRING, ELSET=WK_534

4.360209e-02
*ELEMENT, TYPE=SPRINGA, ELSET=WK_535
   42056,    34218,    46666
*SPRING, ELSET=WK_535

4.360209e-02
*ELEMENT, TYPE=SPRINGA, ELSET=WK_536
   42057,    34222,    46667
*SPRING, ELSET=WK_536

4.360209e-02
*ELEMENT, TYPE=SPRINGA, ELSET=WK_537
   42058,    34226,    46668
*SPRING, ELSET=WK_537

4.360209e-02
*ELEMENT, TYPE=SPRINGA, ELSET=WK_538
   42059,    34230,    46669
*SPRING, ELSET=WK_538

4.360209e-02
*ELEMENT, TYPE=SPRINGA, ELSET=WK_539
   42060,    34234,    46670
*SPRING, ELSET=WK_539

4.360209e-02
*ELEMENT, TYPE=SPRINGA, ELSET=WK_540
   42061,    34238,    46671
*SPRING, ELSET=WK_540

4.360209e-02
*ELEMENT, TYPE=SPRINGA, ELSET=WK_541
   42062,    34242,    46672
*SPRING, ELSET=WK_541

4.360209e-02
*ELEMENT, TYPE=SPRINGA, ELSET=WK_542
   42063,    34246,    46673
*SPRING, ELSET=WK_542

4.360209e-02
*ELEMENT, TYPE=SPRINGA, ELSET=WK_543
   42064,    34250,    46674
*SPRING, ELSET=WK_543

4.360209e-02
*ELEMENT, TYPE=SPRINGA, ELSET=WK_544
   42065,    34254,    46675
*SPRING, ELSET=WK_544

4.360209e-02
*ELEMENT, TYPE=SPRINGA, ELSET=WK_545
   42066,    34258,    46676
*SPRING, ELSET=WK_545

4.360209e-02
*ELEMENT, TYPE=SPRINGA, ELSET=WK_546
   42067,    34262,    46677
*SPRING, ELSET=WK_546

4.360209e-02
*ELEMENT, TYPE=SPRINGA, ELSET=WK_547
   42068,    34266,    46678
*SPRING, ELSET=WK_547

4.360209e-02
*ELEMENT, TYPE=SPRINGA, ELSET=WK_548
   42069,    34270,    46679
*SPRING, ELSET=WK_548

4.360209e-02
*ELEMENT, TYPE=SPRINGA, ELSET=WK_549
   42070,    34274,    46680
*SPRING, ELSET=WK_549

4.360209e-02
*ELEMENT, TYPE=SPRINGA, ELSET=WK_550
   42071,    34278,    46681
*SPRING, ELSET=WK_550

4.360209e-02
*ELEMENT, TYPE=SPRINGA, ELSET=WK_551
   42072,    34282,    46682
*SPRING, ELSET=WK_551

4.360209e-02
*ELEMENT, TYPE=SPRINGA, ELSET=WK_552
   42073,    34286,    46683
*SPRING, ELSET=WK_552

4.360209e-02
*ELEMENT, TYPE=SPRINGA, ELSET=WK_553
   42074,    34290,    46684
*SPRING, ELSET=WK_553

4.360209e-02
*ELEMENT, TYPE=SPRINGA, ELSET=WK_554
   42075,    34294,    46685
*SPRING, ELSET=WK_554

4.360209e-02
*ELEMENT, TYPE=SPRINGA, ELSET=WK_555
   42076,    34298,    46686
*SPRING, ELSET=WK_555

4.360209e-02
*ELEMENT, TYPE=SPRINGA, ELSET=WK_556
   42077,    34302,    46687
*SPRING, ELSET=WK_556

4.360209e-02
*ELEMENT, TYPE=SPRINGA, ELSET=WK_557
   42078,    34306,    46688
*SPRING, ELSET=WK_557

4.360209e-02
*ELEMENT, TYPE=SPRINGA, ELSET=WK_558
   42079,    34310,    46689
*SPRING, ELSET=WK_558

4.360209e-02
*ELEMENT, TYPE=SPRINGA, ELSET=WK_559
   42080,    34314,    46690
*SPRING, ELSET=WK_559

4.360209e-02
*ELEMENT, TYPE=SPRINGA, ELSET=WK_560
   42081,    34318,    46691
*SPRING, ELSET=WK_560

4.360209e-02
*ELEMENT, TYPE=SPRINGA, ELSET=WK_561
   42082,    34322,    46692
*SPRING, ELSET=WK_561

4.360209e-02
*ELEMENT, TYPE=SPRINGA, ELSET=WK_562
   42083,    34326,    46693
*SPRING, ELSET=WK_562

4.360209e-02
*ELEMENT, TYPE=SPRINGA, ELSET=WK_563
   42084,    34330,    46694
*SPRING, ELSET=WK_563

4.360209e-02
*ELEMENT, TYPE=SPRINGA, ELSET=WK_564
   42085,    34334,    46695
*SPRING, ELSET=WK_564

4.360209e-02
*ELEMENT, TYPE=SPRINGA, ELSET=WK_565
   42086,    34338,    46696
*SPRING, ELSET=WK_565

4.360209e-02
*ELEMENT, TYPE=SPRINGA, ELSET=WK_566
   42087,    34342,    46697
*SPRING, ELSET=WK_566

4.360209e-02
*ELEMENT, TYPE=SPRINGA, ELSET=WK_567
   42088,    34346,    46698
*SPRING, ELSET=WK_567

4.360209e-02
*ELEMENT, TYPE=SPRINGA, ELSET=WK_568
   42089,    34350,    46699
*SPRING, ELSET=WK_568

4.360209e-02
*ELEMENT, TYPE=SPRINGA, ELSET=WK_569
   42090,    34354,    46700
*SPRING, ELSET=WK_569

4.360209e-02
*ELEMENT, TYPE=SPRINGA, ELSET=WK_570
   42091,    34358,    46701
*SPRING, ELSET=WK_570

4.360209e-02
*ELEMENT, TYPE=SPRINGA, ELSET=WK_571
   42092,    34362,    46702
*SPRING, ELSET=WK_571

4.360209e-02
*ELEMENT, TYPE=SPRINGA, ELSET=WK_572
   42093,    34366,    46703
*SPRING, ELSET=WK_572

4.360209e-02
*ELEMENT, TYPE=SPRINGA, ELSET=WK_573
   42094,    34370,    46704
*SPRING, ELSET=WK_573

4.360209e-02
*ELEMENT, TYPE=SPRINGA, ELSET=WK_574
   42095,    34374,    46705
*SPRING, ELSET=WK_574

4.360209e-02
*ELEMENT, TYPE=SPRINGA, ELSET=WK_575
   42096,    34378,    46706
*SPRING, ELSET=WK_575

4.360209e-02
*ELEMENT, TYPE=SPRINGA, ELSET=WK_576
   42097,    34382,    46707
*SPRING, ELSET=WK_576

4.360209e-02
*ELEMENT, TYPE=SPRINGA, ELSET=WK_577
   42098,    34386,    46708
*SPRING, ELSET=WK_577

4.360209e-02
*ELEMENT, TYPE=SPRINGA, ELSET=WK_578
   42099,    34390,    46709
*SPRING, ELSET=WK_578

4.360209e-02
*ELEMENT, TYPE=SPRINGA, ELSET=WK_579
   42100,    34394,    46710
*SPRING, ELSET=WK_579

4.360209e-02
*ELEMENT, TYPE=SPRINGA, ELSET=WK_580
   42101,    34398,    46711
*SPRING, ELSET=WK_580

4.360209e-02
*ELEMENT, TYPE=SPRINGA, ELSET=WK_581
   42102,    34402,    46712
*SPRING, ELSET=WK_581

4.360209e-02
*ELEMENT, TYPE=SPRINGA, ELSET=WK_582
   42103,    34406,    46713
*SPRING, ELSET=WK_582

2.180104e-02
*ELEMENT, TYPE=SPRINGA, ELSET=WK_583
   42104,    34410,    46714
*SPRING, ELSET=WK_583

2.180104e-02
*ELEMENT, TYPE=SPRINGA, ELSET=WK_584
   42105,    34414,    46715
*SPRING, ELSET=WK_584

2.180104e-02
*ELEMENT, TYPE=SPRINGA, ELSET=WK_585
   42106,    34418,    46716
*SPRING, ELSET=WK_585

2.180104e-02
*ELEMENT, TYPE=SPRINGA, ELSET=WK_586
   42107,    34422,    46717
*SPRING, ELSET=WK_586

2.180104e-02
*ELEMENT, TYPE=SPRINGA, ELSET=WK_587
   42108,    34426,    46718
*SPRING, ELSET=WK_587

2.180104e-02
*ELEMENT, TYPE=SPRINGA, ELSET=WK_588
   42109,    34430,    46719
*SPRING, ELSET=WK_588

2.180104e-02
*ELEMENT, TYPE=SPRINGA, ELSET=WK_589
   42110,    34434,    46720
*SPRING, ELSET=WK_589

2.180104e-02
*ELEMENT, TYPE=SPRINGA, ELSET=WK_590
   42111,    34438,    46721
*SPRING, ELSET=WK_590

2.180104e-02
*ELEMENT, TYPE=SPRINGA, ELSET=WK_591
   42112,    34442,    46722
*SPRING, ELSET=WK_591

2.180104e-02
*ELEMENT, TYPE=SPRINGA, ELSET=WK_592
   42113,    34446,    46723
*SPRING, ELSET=WK_592

2.180104e-02
*ELEMENT, TYPE=SPRINGA, ELSET=WK_593
   42114,    34450,    46724
*SPRING, ELSET=WK_593

2.180104e-02
*ELEMENT, TYPE=SPRINGA, ELSET=WK_594
   42115,    34454,    46725
*SPRING, ELSET=WK_594

2.180104e-02
*ELEMENT, TYPE=SPRINGA, ELSET=WK_595
   42116,    34458,    46726
*SPRING, ELSET=WK_595

2.180104e-02
*ELEMENT, TYPE=SPRINGA, ELSET=WK_596
   42117,    34462,    46727
*SPRING, ELSET=WK_596

2.180104e-02
*ELEMENT, TYPE=SPRINGA, ELSET=WK_597
   42118,    34466,    46728
*SPRING, ELSET=WK_597

2.180104e-02
*ELEMENT, TYPE=SPRINGA, ELSET=WK_598
   42119,    34470,    46729
*SPRING, ELSET=WK_598

2.180104e-02
*ELEMENT, TYPE=SPRINGA, ELSET=WK_599
   42120,    34474,    46730
*SPRING, ELSET=WK_599

2.180104e-02
*ELEMENT, TYPE=SPRINGA, ELSET=WK_600
   42121,    34478,    46731
*SPRING, ELSET=WK_600

2.180104e-02
*ELEMENT, TYPE=SPRINGA, ELSET=WK_601
   42122,    34482,    46732
*SPRING, ELSET=WK_601

2.180104e-02
*ELEMENT, TYPE=SPRINGA, ELSET=WK_602
   42123,    34486,    46733
*SPRING, ELSET=WK_602

2.180104e-02
*ELEMENT, TYPE=SPRINGA, ELSET=WK_603
   42124,    34490,    46734
*SPRING, ELSET=WK_603

2.180104e-02
*ELEMENT, TYPE=SPRINGA, ELSET=WK_604
   42125,    34494,    46735
*SPRING, ELSET=WK_604

2.180104e-02
*ELEMENT, TYPE=SPRINGA, ELSET=WK_605
   42126,    34498,    46736
*SPRING, ELSET=WK_605

2.180104e-02
*ELEMENT, TYPE=SPRINGA, ELSET=WK_606
   42127,    34502,    46737
*SPRING, ELSET=WK_606

2.180104e-02
*ELEMENT, TYPE=SPRINGA, ELSET=WK_607
   42128,    34506,    46738
*SPRING, ELSET=WK_607

4.360209e-02
*ELEMENT, TYPE=SPRINGA, ELSET=WK_608
   42129,    34510,    46739
*SPRING, ELSET=WK_608

4.360209e-02
*ELEMENT, TYPE=SPRINGA, ELSET=WK_609
   42130,    34514,    46740
*SPRING, ELSET=WK_609

4.360209e-02
*ELEMENT, TYPE=SPRINGA, ELSET=WK_610
   42131,    34518,    46741
*SPRING, ELSET=WK_610

4.360209e-02
*ELEMENT, TYPE=SPRINGA, ELSET=WK_611
   42132,    34522,    46742
*SPRING, ELSET=WK_611

4.360209e-02
*ELEMENT, TYPE=SPRINGA, ELSET=WK_612
   42133,    34526,    46743
*SPRING, ELSET=WK_612

4.360209e-02
*ELEMENT, TYPE=SPRINGA, ELSET=WK_613
   42134,    34530,    46744
*SPRING, ELSET=WK_613

4.360209e-02
*ELEMENT, TYPE=SPRINGA, ELSET=WK_614
   42135,    34534,    46745
*SPRING, ELSET=WK_614

4.360209e-02
*ELEMENT, TYPE=SPRINGA, ELSET=WK_615
   42136,    34538,    46746
*SPRING, ELSET=WK_615

4.360209e-02
*ELEMENT, TYPE=SPRINGA, ELSET=WK_616
   42137,    34542,    46747
*SPRING, ELSET=WK_616

4.360209e-02
*ELEMENT, TYPE=SPRINGA, ELSET=WK_617
   42138,    34546,    46748
*SPRING, ELSET=WK_617

4.360209e-02
*ELEMENT, TYPE=SPRINGA, ELSET=WK_618
   42139,    34550,    46749
*SPRING, ELSET=WK_618

4.360209e-02
*ELEMENT, TYPE=SPRINGA, ELSET=WK_619
   42140,    34554,    46750
*SPRING, ELSET=WK_619

4.360209e-02
*ELEMENT, TYPE=SPRINGA, ELSET=WK_620
   42141,    34558,    46751
*SPRING, ELSET=WK_620

4.360209e-02
*ELEMENT, TYPE=SPRINGA, ELSET=WK_621
   42142,    34562,    46752
*SPRING, ELSET=WK_621

4.360209e-02
*ELEMENT, TYPE=SPRINGA, ELSET=WK_622
   42143,    34566,    46753
*SPRING, ELSET=WK_622

4.360209e-02
*ELEMENT, TYPE=SPRINGA, ELSET=WK_623
   42144,    34570,    46754
*SPRING, ELSET=WK_623

4.360209e-02
*ELEMENT, TYPE=SPRINGA, ELSET=WK_624
   42145,    34574,    46755
*SPRING, ELSET=WK_624

4.360209e-02
*ELEMENT, TYPE=SPRINGA, ELSET=WK_625
   42146,    34578,    46756
*SPRING, ELSET=WK_625

4.360209e-02
*ELEMENT, TYPE=SPRINGA, ELSET=WK_626
   42147,    34582,    46757
*SPRING, ELSET=WK_626

4.360209e-02
*ELEMENT, TYPE=SPRINGA, ELSET=WK_627
   42148,    34586,    46758
*SPRING, ELSET=WK_627

4.360209e-02
*ELEMENT, TYPE=SPRINGA, ELSET=WK_628
   42149,    34590,    46759
*SPRING, ELSET=WK_628

4.360209e-02
*ELEMENT, TYPE=SPRINGA, ELSET=WK_629
   42150,    34594,    46760
*SPRING, ELSET=WK_629

4.360209e-02
*ELEMENT, TYPE=SPRINGA, ELSET=WK_630
   42151,    34598,    46761
*SPRING, ELSET=WK_630

4.360209e-02
*ELEMENT, TYPE=SPRINGA, ELSET=WK_631
   42152,    34602,    46762
*SPRING, ELSET=WK_631

4.360209e-02
*ELEMENT, TYPE=SPRINGA, ELSET=WK_632
   42153,    34606,    46763
*SPRING, ELSET=WK_632

4.360209e-02
*ELEMENT, TYPE=SPRINGA, ELSET=WK_633
   42154,    34610,    46764
*SPRING, ELSET=WK_633

4.360209e-02
*ELEMENT, TYPE=SPRINGA, ELSET=WK_634
   42155,    34614,    46765
*SPRING, ELSET=WK_634

4.360209e-02
*ELEMENT, TYPE=SPRINGA, ELSET=WK_635
   42156,    34618,    46766
*SPRING, ELSET=WK_635

4.360209e-02
*ELEMENT, TYPE=SPRINGA, ELSET=WK_636
   42157,    34622,    46767
*SPRING, ELSET=WK_636

4.360209e-02
*ELEMENT, TYPE=SPRINGA, ELSET=WK_637
   42158,    34626,    46768
*SPRING, ELSET=WK_637

4.360209e-02
*ELEMENT, TYPE=SPRINGA, ELSET=WK_638
   42159,    34630,    46769
*SPRING, ELSET=WK_638

4.360209e-02
*ELEMENT, TYPE=SPRINGA, ELSET=WK_639
   42160,    34634,    46770
*SPRING, ELSET=WK_639

4.360209e-02
*ELEMENT, TYPE=SPRINGA, ELSET=WK_640
   42161,    34638,    46771
*SPRING, ELSET=WK_640

4.360209e-02
*ELEMENT, TYPE=SPRINGA, ELSET=WK_641
   42162,    34642,    46772
*SPRING, ELSET=WK_641

4.360209e-02
*ELEMENT, TYPE=SPRINGA, ELSET=WK_642
   42163,    34646,    46773
*SPRING, ELSET=WK_642

4.360209e-02
*ELEMENT, TYPE=SPRINGA, ELSET=WK_643
   42164,    34650,    46774
*SPRING, ELSET=WK_643

4.360209e-02
*ELEMENT, TYPE=SPRINGA, ELSET=WK_644
   42165,    34654,    46775
*SPRING, ELSET=WK_644

4.360209e-02
*ELEMENT, TYPE=SPRINGA, ELSET=WK_645
   42166,    34658,    46776
*SPRING, ELSET=WK_645

4.360209e-02
*ELEMENT, TYPE=SPRINGA, ELSET=WK_646
   42167,    34662,    46777
*SPRING, ELSET=WK_646

4.360209e-02
*ELEMENT, TYPE=SPRINGA, ELSET=WK_647
   42168,    34666,    46778
*SPRING, ELSET=WK_647

4.360209e-02
*ELEMENT, TYPE=SPRINGA, ELSET=WK_648
   42169,    34670,    46779
*SPRING, ELSET=WK_648

4.360209e-02
*ELEMENT, TYPE=SPRINGA, ELSET=WK_649
   42170,    34674,    46780
*SPRING, ELSET=WK_649

4.360209e-02
*ELEMENT, TYPE=SPRINGA, ELSET=WK_650
   42171,    34678,    46781
*SPRING, ELSET=WK_650

4.360209e-02
*ELEMENT, TYPE=SPRINGA, ELSET=WK_651
   42172,    34682,    46782
*SPRING, ELSET=WK_651

4.360209e-02
*ELEMENT, TYPE=SPRINGA, ELSET=WK_652
   42173,    34686,    46783
*SPRING, ELSET=WK_652

4.360209e-02
*ELEMENT, TYPE=SPRINGA, ELSET=WK_653
   42174,    34690,    46784
*SPRING, ELSET=WK_653

4.360209e-02
*ELEMENT, TYPE=SPRINGA, ELSET=WK_654
   42175,    34694,    46785
*SPRING, ELSET=WK_654

4.360209e-02
*ELEMENT, TYPE=SPRINGA, ELSET=WK_655
   42176,    34698,    46786
*SPRING, ELSET=WK_655

4.360209e-02
*ELEMENT, TYPE=SPRINGA, ELSET=WK_656
   42177,    34702,    46787
*SPRING, ELSET=WK_656

4.360209e-02
*ELEMENT, TYPE=SPRINGA, ELSET=WK_657
   42178,    34706,    46788
*SPRING, ELSET=WK_657

4.360209e-02
*ELEMENT, TYPE=SPRINGA, ELSET=WK_658
   42179,    34710,    46789
*SPRING, ELSET=WK_658

4.360209e-02
*ELEMENT, TYPE=SPRINGA, ELSET=WK_659
   42180,    34714,    46790
*SPRING, ELSET=WK_659

4.360209e-02
*ELEMENT, TYPE=SPRINGA, ELSET=WK_660
   42181,    34718,    46791
*SPRING, ELSET=WK_660

4.360209e-02
*ELEMENT, TYPE=SPRINGA, ELSET=WK_661
   42182,    34722,    46792
*SPRING, ELSET=WK_661

4.360209e-02
*ELEMENT, TYPE=SPRINGA, ELSET=WK_662
   42183,    34726,    46793
*SPRING, ELSET=WK_662

4.360209e-02
*ELEMENT, TYPE=SPRINGA, ELSET=WK_663
   42184,    34730,    46794
*SPRING, ELSET=WK_663

4.360209e-02
*ELEMENT, TYPE=SPRINGA, ELSET=WK_664
   42185,    34734,    46795
*SPRING, ELSET=WK_664

4.360209e-02
*ELEMENT, TYPE=SPRINGA, ELSET=WK_665
   42186,    34738,    46796
*SPRING, ELSET=WK_665

4.360209e-02
*ELEMENT, TYPE=SPRINGA, ELSET=WK_666
   42187,    34742,    46797
*SPRING, ELSET=WK_666

4.360209e-02
*ELEMENT, TYPE=SPRINGA, ELSET=WK_667
   42188,    34746,    46798
*SPRING, ELSET=WK_667

4.360209e-02
*ELEMENT, TYPE=SPRINGA, ELSET=WK_668
   42189,    34750,    46799
*SPRING, ELSET=WK_668

4.360209e-02
*ELEMENT, TYPE=SPRINGA, ELSET=WK_669
   42190,    34754,    46800
*SPRING, ELSET=WK_669

4.360209e-02
*ELEMENT, TYPE=SPRINGA, ELSET=WK_670
   42191,    34758,    46801
*SPRING, ELSET=WK_670

4.360209e-02
*ELEMENT, TYPE=SPRINGA, ELSET=WK_671
   42192,    34762,    46802
*SPRING, ELSET=WK_671

4.360209e-02
*ELEMENT, TYPE=SPRINGA, ELSET=WK_672
   42193,    34766,    46803
*SPRING, ELSET=WK_672

4.360209e-02
*ELEMENT, TYPE=SPRINGA, ELSET=WK_673
   42194,    34770,    46804
*SPRING, ELSET=WK_673

4.360209e-02
*ELEMENT, TYPE=SPRINGA, ELSET=WK_674
   42195,    34774,    46805
*SPRING, ELSET=WK_674

4.360209e-02
*ELEMENT, TYPE=SPRINGA, ELSET=WK_675
   42196,    34778,    46806
*SPRING, ELSET=WK_675

4.360209e-02
*ELEMENT, TYPE=SPRINGA, ELSET=WK_676
   42197,    34782,    46807
*SPRING, ELSET=WK_676

4.360209e-02
*ELEMENT, TYPE=SPRINGA, ELSET=WK_677
   42198,    34786,    46808
*SPRING, ELSET=WK_677

4.360209e-02
*ELEMENT, TYPE=SPRINGA, ELSET=WK_678
   42199,    34790,    46809
*SPRING, ELSET=WK_678

4.360209e-02
*ELEMENT, TYPE=SPRINGA, ELSET=WK_679
   42200,    34794,    46810
*SPRING, ELSET=WK_679

4.360209e-02
*ELEMENT, TYPE=SPRINGA, ELSET=WK_680
   42201,    34798,    46811
*SPRING, ELSET=WK_680

4.360209e-02
*ELEMENT, TYPE=SPRINGA, ELSET=WK_681
   42202,    34802,    46812
*SPRING, ELSET=WK_681

4.360209e-02
*ELEMENT, TYPE=SPRINGA, ELSET=WK_682
   42203,    34806,    46813
*SPRING, ELSET=WK_682

4.360209e-02
*ELEMENT, TYPE=SPRINGA, ELSET=WK_683
   42204,    34810,    46814
*SPRING, ELSET=WK_683

4.360209e-02
*ELEMENT, TYPE=SPRINGA, ELSET=WK_684
   42205,    34814,    46815
*SPRING, ELSET=WK_684

4.360209e-02
*ELEMENT, TYPE=SPRINGA, ELSET=WK_685
   42206,    34818,    46816
*SPRING, ELSET=WK_685

4.360209e-02
*ELEMENT, TYPE=SPRINGA, ELSET=WK_686
   42207,    34822,    46817
*SPRING, ELSET=WK_686

4.360209e-02
*ELEMENT, TYPE=SPRINGA, ELSET=WK_687
   42208,    34826,    46818
*SPRING, ELSET=WK_687

4.360209e-02
*ELEMENT, TYPE=SPRINGA, ELSET=WK_688
   42209,    34830,    46819
*SPRING, ELSET=WK_688

4.360209e-02
*ELEMENT, TYPE=SPRINGA, ELSET=WK_689
   42210,    34834,    46820
*SPRING, ELSET=WK_689

4.360209e-02
*ELEMENT, TYPE=SPRINGA, ELSET=WK_690
   42211,    34838,    46821
*SPRING, ELSET=WK_690

4.360209e-02
*ELEMENT, TYPE=SPRINGA, ELSET=WK_691
   42212,    34842,    46822
*SPRING, ELSET=WK_691

4.360209e-02
*ELEMENT, TYPE=SPRINGA, ELSET=WK_692
   42213,    34846,    46823
*SPRING, ELSET=WK_692

4.360209e-02
*ELEMENT, TYPE=SPRINGA, ELSET=WK_693
   42214,    34850,    46824
*SPRING, ELSET=WK_693

4.360209e-02
*ELEMENT, TYPE=SPRINGA, ELSET=WK_694
   42215,    34854,    46825
*SPRING, ELSET=WK_694

4.360209e-02
*ELEMENT, TYPE=SPRINGA, ELSET=WK_695
   42216,    34858,    46826
*SPRING, ELSET=WK_695

4.360209e-02
*ELEMENT, TYPE=SPRINGA, ELSET=WK_696
   42217,    34862,    46827
*SPRING, ELSET=WK_696

4.360209e-02
*ELEMENT, TYPE=SPRINGA, ELSET=WK_697
   42218,    34866,    46828
*SPRING, ELSET=WK_697

4.360209e-02
*ELEMENT, TYPE=SPRINGA, ELSET=WK_698
   42219,    34870,    46829
*SPRING, ELSET=WK_698

4.360209e-02
*ELEMENT, TYPE=SPRINGA, ELSET=WK_699
   42220,    34874,    46830
*SPRING, ELSET=WK_699

4.360209e-02
*ELEMENT, TYPE=SPRINGA, ELSET=WK_700
   42221,    34878,    46831
*SPRING, ELSET=WK_700

4.360209e-02
*ELEMENT, TYPE=SPRINGA, ELSET=WK_701
   42222,    34882,    46832
*SPRING, ELSET=WK_701

4.360209e-02
*ELEMENT, TYPE=SPRINGA, ELSET=WK_702
   42223,    34886,    46833
*SPRING, ELSET=WK_702

4.360209e-02
*ELEMENT, TYPE=SPRINGA, ELSET=WK_703
   42224,    34890,    46834
*SPRING, ELSET=WK_703

4.360209e-02
*ELEMENT, TYPE=SPRINGA, ELSET=WK_704
   42225,    34894,    46835
*SPRING, ELSET=WK_704

4.360209e-02
*ELEMENT, TYPE=SPRINGA, ELSET=WK_705
   42226,    34898,    46836
*SPRING, ELSET=WK_705

4.360209e-02
*ELEMENT, TYPE=SPRINGA, ELSET=WK_706
   42227,    34902,    46837
*SPRING, ELSET=WK_706

4.360209e-02
*ELEMENT, TYPE=SPRINGA, ELSET=WK_707
   42228,    34906,    46838
*SPRING, ELSET=WK_707

4.360209e-02
*ELEMENT, TYPE=SPRINGA, ELSET=WK_708
   42229,    34910,    46839
*SPRING, ELSET=WK_708

4.360209e-02
*ELEMENT, TYPE=SPRINGA, ELSET=WK_709
   42230,    34914,    46840
*SPRING, ELSET=WK_709

4.360209e-02
*ELEMENT, TYPE=SPRINGA, ELSET=WK_710
   42231,    34918,    46841
*SPRING, ELSET=WK_710

4.360209e-02
*ELEMENT, TYPE=SPRINGA, ELSET=WK_711
   42232,    34922,    46842
*SPRING, ELSET=WK_711

4.360209e-02
*ELEMENT, TYPE=SPRINGA, ELSET=WK_712
   42233,    34926,    46843
*SPRING, ELSET=WK_712

4.360209e-02
*ELEMENT, TYPE=SPRINGA, ELSET=WK_713
   42234,    34930,    46844
*SPRING, ELSET=WK_713

4.360209e-02
*ELEMENT, TYPE=SPRINGA, ELSET=WK_714
   42235,    34934,    46845
*SPRING, ELSET=WK_714

4.360209e-02
*ELEMENT, TYPE=SPRINGA, ELSET=WK_715
   42236,    34938,    46846
*SPRING, ELSET=WK_715

4.360209e-02
*ELEMENT, TYPE=SPRINGA, ELSET=WK_716
   42237,    34942,    46847
*SPRING, ELSET=WK_716

4.360209e-02
*ELEMENT, TYPE=SPRINGA, ELSET=WK_717
   42238,    34946,    46848
*SPRING, ELSET=WK_717

4.360209e-02
*ELEMENT, TYPE=SPRINGA, ELSET=WK_718
   42239,    34950,    46849
*SPRING, ELSET=WK_718

4.360209e-02
*ELEMENT, TYPE=SPRINGA, ELSET=WK_719
   42240,    34954,    46850
*SPRING, ELSET=WK_719

4.360209e-02
*ELEMENT, TYPE=SPRINGA, ELSET=WK_720
   42241,    34958,    46851
*SPRING, ELSET=WK_720

4.360209e-02
*ELEMENT, TYPE=SPRINGA, ELSET=WK_721
   42242,    34962,    46852
*SPRING, ELSET=WK_721

4.360209e-02
*ELEMENT, TYPE=SPRINGA, ELSET=WK_722
   42243,    34966,    46853
*SPRING, ELSET=WK_722

4.360209e-02
*ELEMENT, TYPE=SPRINGA, ELSET=WK_723
   42244,    34970,    46854
*SPRING, ELSET=WK_723

4.360209e-02
*ELEMENT, TYPE=SPRINGA, ELSET=WK_724
   42245,    34974,    46855
*SPRING, ELSET=WK_724

4.360209e-02
*ELEMENT, TYPE=SPRINGA, ELSET=WK_725
   42246,    34978,    46856
*SPRING, ELSET=WK_725

4.360209e-02
*ELEMENT, TYPE=SPRINGA, ELSET=WK_726
   42247,    34982,    46857
*SPRING, ELSET=WK_726

4.360209e-02
*ELEMENT, TYPE=SPRINGA, ELSET=WK_727
   42248,    34986,    46858
*SPRING, ELSET=WK_727

4.360209e-02
*ELEMENT, TYPE=SPRINGA, ELSET=WK_728
   42249,    34990,    46859
*SPRING, ELSET=WK_728

4.360209e-02
*ELEMENT, TYPE=SPRINGA, ELSET=WK_729
   42250,    34994,    46860
*SPRING, ELSET=WK_729

4.360209e-02
*ELEMENT, TYPE=SPRINGA, ELSET=WK_730
   42251,    34998,    46861
*SPRING, ELSET=WK_730

4.360209e-02
*ELEMENT, TYPE=SPRINGA, ELSET=WK_731
   42252,    35002,    46862
*SPRING, ELSET=WK_731

4.360209e-02
*ELEMENT, TYPE=SPRINGA, ELSET=WK_732
   42253,    35006,    46863
*SPRING, ELSET=WK_732

4.360209e-02
*ELEMENT, TYPE=SPRINGA, ELSET=WK_733
   42254,    35010,    46864
*SPRING, ELSET=WK_733

4.360209e-02
*ELEMENT, TYPE=SPRINGA, ELSET=WK_734
   42255,    35014,    46865
*SPRING, ELSET=WK_734

4.360209e-02
*ELEMENT, TYPE=SPRINGA, ELSET=WK_735
   42256,    35018,    46866
*SPRING, ELSET=WK_735

4.360209e-02
*ELEMENT, TYPE=SPRINGA, ELSET=WK_736
   42257,    35022,    46867
*SPRING, ELSET=WK_736

4.360209e-02
*ELEMENT, TYPE=SPRINGA, ELSET=WK_737
   42258,    35026,    46868
*SPRING, ELSET=WK_737

4.360209e-02
*ELEMENT, TYPE=SPRINGA, ELSET=WK_738
   42259,    35030,    46869
*SPRING, ELSET=WK_738

4.360209e-02
*ELEMENT, TYPE=SPRINGA, ELSET=WK_739
   42260,    35034,    46870
*SPRING, ELSET=WK_739

4.360209e-02
*ELEMENT, TYPE=SPRINGA, ELSET=WK_740
   42261,    35038,    46871
*SPRING, ELSET=WK_740

4.360209e-02
*ELEMENT, TYPE=SPRINGA, ELSET=WK_741
   42262,    35042,    46872
*SPRING, ELSET=WK_741

4.360209e-02
*ELEMENT, TYPE=SPRINGA, ELSET=WK_742
   42263,    35046,    46873
*SPRING, ELSET=WK_742

4.360209e-02
*ELEMENT, TYPE=SPRINGA, ELSET=WK_743
   42264,    35050,    46874
*SPRING, ELSET=WK_743

4.360209e-02
*ELEMENT, TYPE=SPRINGA, ELSET=WK_744
   42265,    35054,    46875
*SPRING, ELSET=WK_744

4.360209e-02
*ELEMENT, TYPE=SPRINGA, ELSET=WK_745
   42266,    35058,    46876
*SPRING, ELSET=WK_745

4.360209e-02
*ELEMENT, TYPE=SPRINGA, ELSET=WK_746
   42267,    35062,    46877
*SPRING, ELSET=WK_746

4.360209e-02
*ELEMENT, TYPE=SPRINGA, ELSET=WK_747
   42268,    35066,    46878
*SPRING, ELSET=WK_747

4.360209e-02
*ELEMENT, TYPE=SPRINGA, ELSET=WK_748
   42269,    35070,    46879
*SPRING, ELSET=WK_748

4.360209e-02
*ELEMENT, TYPE=SPRINGA, ELSET=WK_749
   42270,    35074,    46880
*SPRING, ELSET=WK_749

4.360209e-02
*ELEMENT, TYPE=SPRINGA, ELSET=WK_750
   42271,    35078,    46881
*SPRING, ELSET=WK_750

4.360209e-02
*ELEMENT, TYPE=SPRINGA, ELSET=WK_751
   42272,    35082,    46882
*SPRING, ELSET=WK_751

4.360209e-02
*ELEMENT, TYPE=SPRINGA, ELSET=WK_752
   42273,    35086,    46883
*SPRING, ELSET=WK_752

4.360209e-02
*ELEMENT, TYPE=SPRINGA, ELSET=WK_753
   42274,    35090,    46884
*SPRING, ELSET=WK_753

4.360209e-02
*ELEMENT, TYPE=SPRINGA, ELSET=WK_754
   42275,    35094,    46885
*SPRING, ELSET=WK_754

4.360209e-02
*ELEMENT, TYPE=SPRINGA, ELSET=WK_755
   42276,    35098,    46886
*SPRING, ELSET=WK_755

4.360209e-02
*ELEMENT, TYPE=SPRINGA, ELSET=WK_756
   42277,    35102,    46887
*SPRING, ELSET=WK_756

4.360209e-02
*ELEMENT, TYPE=SPRINGA, ELSET=WK_757
   42278,    35106,    46888
*SPRING, ELSET=WK_757

4.360209e-02
*ELEMENT, TYPE=SPRINGA, ELSET=WK_758
   42279,    35110,    46889
*SPRING, ELSET=WK_758

4.360209e-02
*ELEMENT, TYPE=SPRINGA, ELSET=WK_759
   42280,    35114,    46890
*SPRING, ELSET=WK_759

4.360209e-02
*ELEMENT, TYPE=SPRINGA, ELSET=WK_760
   42281,    35118,    46891
*SPRING, ELSET=WK_760

4.360209e-02
*ELEMENT, TYPE=SPRINGA, ELSET=WK_761
   42282,    35122,    46892
*SPRING, ELSET=WK_761

4.360209e-02
*ELEMENT, TYPE=SPRINGA, ELSET=WK_762
   42283,    35126,    46893
*SPRING, ELSET=WK_762

4.360209e-02
*ELEMENT, TYPE=SPRINGA, ELSET=WK_763
   42284,    35130,    46894
*SPRING, ELSET=WK_763

4.360209e-02
*ELEMENT, TYPE=SPRINGA, ELSET=WK_764
   42285,    35134,    46895
*SPRING, ELSET=WK_764

4.360209e-02
*ELEMENT, TYPE=SPRINGA, ELSET=WK_765
   42286,    35138,    46896
*SPRING, ELSET=WK_765

4.360209e-02
*ELEMENT, TYPE=SPRINGA, ELSET=WK_766
   42287,    35142,    46897
*SPRING, ELSET=WK_766

4.360209e-02
*ELEMENT, TYPE=SPRINGA, ELSET=WK_767
   42288,    35146,    46898
*SPRING, ELSET=WK_767

4.360209e-02
*ELEMENT, TYPE=SPRINGA, ELSET=WK_768
   42289,    35150,    46899
*SPRING, ELSET=WK_768

4.360209e-02
*ELEMENT, TYPE=SPRINGA, ELSET=WK_769
   42290,    35154,    46900
*SPRING, ELSET=WK_769

4.360209e-02
*ELEMENT, TYPE=SPRINGA, ELSET=WK_770
   42291,    35158,    46901
*SPRING, ELSET=WK_770

4.360209e-02
*ELEMENT, TYPE=SPRINGA, ELSET=WK_771
   42292,    35162,    46902
*SPRING, ELSET=WK_771

4.360209e-02
*ELEMENT, TYPE=SPRINGA, ELSET=WK_772
   42293,    35166,    46903
*SPRING, ELSET=WK_772

4.360209e-02
*ELEMENT, TYPE=SPRINGA, ELSET=WK_773
   42294,    35170,    46904
*SPRING, ELSET=WK_773

4.360209e-02
*ELEMENT, TYPE=SPRINGA, ELSET=WK_774
   42295,    35174,    46905
*SPRING, ELSET=WK_774

4.360209e-02
*ELEMENT, TYPE=SPRINGA, ELSET=WK_775
   42296,    35178,    46906
*SPRING, ELSET=WK_775

4.360209e-02
*ELEMENT, TYPE=SPRINGA, ELSET=WK_776
   42297,    35182,    46907
*SPRING, ELSET=WK_776

4.360209e-02
*ELEMENT, TYPE=SPRINGA, ELSET=WK_777
   42298,    35186,    46908
*SPRING, ELSET=WK_777

4.360209e-02
*ELEMENT, TYPE=SPRINGA, ELSET=WK_778
   42299,    35190,    46909
*SPRING, ELSET=WK_778

4.360209e-02
*ELEMENT, TYPE=SPRINGA, ELSET=WK_779
   42300,    35194,    46910
*SPRING, ELSET=WK_779

4.360209e-02
*ELEMENT, TYPE=SPRINGA, ELSET=WK_780
   42301,    35198,    46911
*SPRING, ELSET=WK_780

4.360209e-02
*ELEMENT, TYPE=SPRINGA, ELSET=WK_781
   42302,    35202,    46912
*SPRING, ELSET=WK_781

4.360209e-02
*ELEMENT, TYPE=SPRINGA, ELSET=WK_782
   42303,    35206,    46913
*SPRING, ELSET=WK_782

4.360209e-02
*ELEMENT, TYPE=SPRINGA, ELSET=WK_783
   42304,    35210,    46914
*SPRING, ELSET=WK_783

4.360209e-02
*ELEMENT, TYPE=SPRINGA, ELSET=WK_784
   42305,    35214,    46915
*SPRING, ELSET=WK_784

4.360209e-02
*ELEMENT, TYPE=SPRINGA, ELSET=WK_785
   42306,    35218,    46916
*SPRING, ELSET=WK_785

4.360209e-02
*ELEMENT, TYPE=SPRINGA, ELSET=WK_786
   42307,    35222,    46917
*SPRING, ELSET=WK_786

4.360209e-02
*ELEMENT, TYPE=SPRINGA, ELSET=WK_787
   42308,    35226,    46918
*SPRING, ELSET=WK_787

4.360209e-02
*ELEMENT, TYPE=SPRINGA, ELSET=WK_788
   42309,    35230,    46919
*SPRING, ELSET=WK_788

4.360209e-02
*ELEMENT, TYPE=SPRINGA, ELSET=WK_789
   42310,    35234,    46920
*SPRING, ELSET=WK_789

4.360209e-02
*ELEMENT, TYPE=SPRINGA, ELSET=WK_790
   42311,    35238,    46921
*SPRING, ELSET=WK_790

4.360209e-02
*ELEMENT, TYPE=SPRINGA, ELSET=WK_791
   42312,    35242,    46922
*SPRING, ELSET=WK_791

4.360209e-02
*ELEMENT, TYPE=SPRINGA, ELSET=WK_792
   42313,    35246,    46923
*SPRING, ELSET=WK_792

4.360209e-02
*ELEMENT, TYPE=SPRINGA, ELSET=WK_793
   42314,    35250,    46924
*SPRING, ELSET=WK_793

4.360209e-02
*ELEMENT, TYPE=SPRINGA, ELSET=WK_794
   42315,    35254,    46925
*SPRING, ELSET=WK_794

4.360209e-02
*ELEMENT, TYPE=SPRINGA, ELSET=WK_795
   42316,    35258,    46926
*SPRING, ELSET=WK_795

4.360209e-02
*ELEMENT, TYPE=SPRINGA, ELSET=WK_796
   42317,    35262,    46927
*SPRING, ELSET=WK_796

4.360209e-02
*ELEMENT, TYPE=SPRINGA, ELSET=WK_797
   42318,    35266,    46928
*SPRING, ELSET=WK_797

4.360209e-02
*ELEMENT, TYPE=SPRINGA, ELSET=WK_798
   42319,    35270,    46929
*SPRING, ELSET=WK_798

4.360209e-02
*ELEMENT, TYPE=SPRINGA, ELSET=WK_799
   42320,    35274,    46930
*SPRING, ELSET=WK_799

4.360209e-02
*ELEMENT, TYPE=SPRINGA, ELSET=WK_800
   42321,    35278,    46931
*SPRING, ELSET=WK_800

4.360209e-02
*ELEMENT, TYPE=SPRINGA, ELSET=WK_801
   42322,    35282,    46932
*SPRING, ELSET=WK_801

4.360209e-02
*ELEMENT, TYPE=SPRINGA, ELSET=WK_802
   42323,    35286,    46933
*SPRING, ELSET=WK_802

4.360209e-02
*ELEMENT, TYPE=SPRINGA, ELSET=WK_803
   42324,    35290,    46934
*SPRING, ELSET=WK_803

4.360209e-02
*ELEMENT, TYPE=SPRINGA, ELSET=WK_804
   42325,    35294,    46935
*SPRING, ELSET=WK_804

4.360209e-02
*ELEMENT, TYPE=SPRINGA, ELSET=WK_805
   42326,    35298,    46936
*SPRING, ELSET=WK_805

4.360209e-02
*ELEMENT, TYPE=SPRINGA, ELSET=WK_806
   42327,    35302,    46937
*SPRING, ELSET=WK_806

4.360209e-02
*ELEMENT, TYPE=SPRINGA, ELSET=WK_807
   42328,    35306,    46938
*SPRING, ELSET=WK_807

4.360209e-02
*ELEMENT, TYPE=SPRINGA, ELSET=WK_808
   42329,    35310,    46939
*SPRING, ELSET=WK_808

4.360209e-02
*ELEMENT, TYPE=SPRINGA, ELSET=WK_809
   42330,    35314,    46940
*SPRING, ELSET=WK_809

4.360209e-02
*ELEMENT, TYPE=SPRINGA, ELSET=WK_810
   42331,    35318,    46941
*SPRING, ELSET=WK_810

4.360209e-02
*ELEMENT, TYPE=SPRINGA, ELSET=WK_811
   42332,    35322,    46942
*SPRING, ELSET=WK_811

4.360209e-02
*ELEMENT, TYPE=SPRINGA, ELSET=WK_812
   42333,    35326,    46943
*SPRING, ELSET=WK_812

4.360209e-02
*ELEMENT, TYPE=SPRINGA, ELSET=WK_813
   42334,    35330,    46944
*SPRING, ELSET=WK_813

4.360209e-02
*ELEMENT, TYPE=SPRINGA, ELSET=WK_814
   42335,    35334,    46945
*SPRING, ELSET=WK_814

4.360209e-02
*ELEMENT, TYPE=SPRINGA, ELSET=WK_815
   42336,    35338,    46946
*SPRING, ELSET=WK_815

4.360209e-02
*ELEMENT, TYPE=SPRINGA, ELSET=WK_816
   42337,    35342,    46947
*SPRING, ELSET=WK_816

4.360209e-02
*ELEMENT, TYPE=SPRINGA, ELSET=WK_817
   42338,    35346,    46948
*SPRING, ELSET=WK_817

4.360209e-02
*ELEMENT, TYPE=SPRINGA, ELSET=WK_818
   42339,    35350,    46949
*SPRING, ELSET=WK_818

4.360209e-02
*ELEMENT, TYPE=SPRINGA, ELSET=WK_819
   42340,    35354,    46950
*SPRING, ELSET=WK_819

4.360209e-02
*ELEMENT, TYPE=SPRINGA, ELSET=WK_820
   42341,    35358,    46951
*SPRING, ELSET=WK_820

4.360209e-02
*ELEMENT, TYPE=SPRINGA, ELSET=WK_821
   42342,    35362,    46952
*SPRING, ELSET=WK_821

4.360209e-02
*ELEMENT, TYPE=SPRINGA, ELSET=WK_822
   42343,    35366,    46953
*SPRING, ELSET=WK_822

4.360209e-02
*ELEMENT, TYPE=SPRINGA, ELSET=WK_823
   42344,    35370,    46954
*SPRING, ELSET=WK_823

4.360209e-02
*ELEMENT, TYPE=SPRINGA, ELSET=WK_824
   42345,    35374,    46955
*SPRING, ELSET=WK_824

4.360209e-02
*ELEMENT, TYPE=SPRINGA, ELSET=WK_825
   42346,    35378,    46956
*SPRING, ELSET=WK_825

4.360209e-02
*ELEMENT, TYPE=SPRINGA, ELSET=WK_826
   42347,    35382,    46957
*SPRING, ELSET=WK_826

4.360209e-02
*ELEMENT, TYPE=SPRINGA, ELSET=WK_827
   42348,    35386,    46958
*SPRING, ELSET=WK_827

4.360209e-02
*ELEMENT, TYPE=SPRINGA, ELSET=WK_828
   42349,    35390,    46959
*SPRING, ELSET=WK_828

4.360209e-02
*ELEMENT, TYPE=SPRINGA, ELSET=WK_829
   42350,    35394,    46960
*SPRING, ELSET=WK_829

4.360209e-02
*ELEMENT, TYPE=SPRINGA, ELSET=WK_830
   42351,    35398,    46961
*SPRING, ELSET=WK_830

4.360209e-02
*ELEMENT, TYPE=SPRINGA, ELSET=WK_831
   42352,    35402,    46962
*SPRING, ELSET=WK_831

4.360209e-02
*ELEMENT, TYPE=SPRINGA, ELSET=WK_832
   42353,    35406,    46963
*SPRING, ELSET=WK_832

4.360209e-02
*ELEMENT, TYPE=SPRINGA, ELSET=WK_833
   42354,    35410,    46964
*SPRING, ELSET=WK_833

4.360209e-02
*ELEMENT, TYPE=SPRINGA, ELSET=WK_834
   42355,    35414,    46965
*SPRING, ELSET=WK_834

4.360209e-02
*ELEMENT, TYPE=SPRINGA, ELSET=WK_835
   42356,    35418,    46966
*SPRING, ELSET=WK_835

4.360209e-02
*ELEMENT, TYPE=SPRINGA, ELSET=WK_836
   42357,    35422,    46967
*SPRING, ELSET=WK_836

4.360209e-02
*ELEMENT, TYPE=SPRINGA, ELSET=WK_837
   42358,    35426,    46968
*SPRING, ELSET=WK_837

4.360209e-02
*ELEMENT, TYPE=SPRINGA, ELSET=WK_838
   42359,    35430,    46969
*SPRING, ELSET=WK_838

4.360209e-02
*ELEMENT, TYPE=SPRINGA, ELSET=WK_839
   42360,    35434,    46970
*SPRING, ELSET=WK_839

4.360209e-02
*ELEMENT, TYPE=SPRINGA, ELSET=WK_840
   42361,    35438,    46971
*SPRING, ELSET=WK_840

4.360209e-02
*ELEMENT, TYPE=SPRINGA, ELSET=WK_841
   42362,    35442,    46972
*SPRING, ELSET=WK_841

4.360209e-02
*ELEMENT, TYPE=SPRINGA, ELSET=WK_842
   42363,    35446,    46973
*SPRING, ELSET=WK_842

4.360209e-02
*ELEMENT, TYPE=SPRINGA, ELSET=WK_843
   42364,    35450,    46974
*SPRING, ELSET=WK_843

4.360209e-02
*ELEMENT, TYPE=SPRINGA, ELSET=WK_844
   42365,    35454,    46975
*SPRING, ELSET=WK_844

4.360209e-02
*ELEMENT, TYPE=SPRINGA, ELSET=WK_845
   42366,    35458,    46976
*SPRING, ELSET=WK_845

4.360209e-02
*ELEMENT, TYPE=SPRINGA, ELSET=WK_846
   42367,    35462,    46977
*SPRING, ELSET=WK_846

4.360209e-02
*ELEMENT, TYPE=SPRINGA, ELSET=WK_847
   42368,    35466,    46978
*SPRING, ELSET=WK_847

4.360209e-02
*ELEMENT, TYPE=SPRINGA, ELSET=WK_848
   42369,    35470,    46979
*SPRING, ELSET=WK_848

4.360209e-02
*ELEMENT, TYPE=SPRINGA, ELSET=WK_849
   42370,    35474,    46980
*SPRING, ELSET=WK_849

4.360209e-02
*ELEMENT, TYPE=SPRINGA, ELSET=WK_850
   42371,    35478,    46981
*SPRING, ELSET=WK_850

4.360209e-02
*ELEMENT, TYPE=SPRINGA, ELSET=WK_851
   42372,    35482,    46982
*SPRING, ELSET=WK_851

4.360209e-02
*ELEMENT, TYPE=SPRINGA, ELSET=WK_852
   42373,    35486,    46983
*SPRING, ELSET=WK_852

4.360209e-02
*ELEMENT, TYPE=SPRINGA, ELSET=WK_853
   42374,    35490,    46984
*SPRING, ELSET=WK_853

4.360209e-02
*ELEMENT, TYPE=SPRINGA, ELSET=WK_854
   42375,    35494,    46985
*SPRING, ELSET=WK_854

4.360209e-02
*ELEMENT, TYPE=SPRINGA, ELSET=WK_855
   42376,    35498,    46986
*SPRING, ELSET=WK_855

4.360209e-02
*ELEMENT, TYPE=SPRINGA, ELSET=WK_856
   42377,    35502,    46987
*SPRING, ELSET=WK_856

4.360209e-02
*ELEMENT, TYPE=SPRINGA, ELSET=WK_857
   42378,    35506,    46988
*SPRING, ELSET=WK_857

4.360209e-02
*ELEMENT, TYPE=SPRINGA, ELSET=WK_858
   42379,    35510,    46989
*SPRING, ELSET=WK_858

4.360209e-02
*ELEMENT, TYPE=SPRINGA, ELSET=WK_859
   42380,    35514,    46990
*SPRING, ELSET=WK_859

4.360209e-02
*ELEMENT, TYPE=SPRINGA, ELSET=WK_860
   42381,    35518,    46991
*SPRING, ELSET=WK_860

4.360209e-02
*ELEMENT, TYPE=SPRINGA, ELSET=WK_861
   42382,    35522,    46992
*SPRING, ELSET=WK_861

4.360209e-02
*ELEMENT, TYPE=SPRINGA, ELSET=WK_862
   42383,    35526,    46993
*SPRING, ELSET=WK_862

4.360209e-02
*ELEMENT, TYPE=SPRINGA, ELSET=WK_863
   42384,    35530,    46994
*SPRING, ELSET=WK_863

4.360209e-02
*ELEMENT, TYPE=SPRINGA, ELSET=WK_864
   42385,    35534,    46995
*SPRING, ELSET=WK_864

4.360209e-02
*ELEMENT, TYPE=SPRINGA, ELSET=WK_865
   42386,    35538,    46996
*SPRING, ELSET=WK_865

4.360209e-02
*ELEMENT, TYPE=SPRINGA, ELSET=WK_866
   42387,    35542,    46997
*SPRING, ELSET=WK_866

4.360209e-02
*ELEMENT, TYPE=SPRINGA, ELSET=WK_867
   42388,    35546,    46998
*SPRING, ELSET=WK_867

4.360209e-02
*ELEMENT, TYPE=SPRINGA, ELSET=WK_868
   42389,    35550,    46999
*SPRING, ELSET=WK_868

4.360209e-02
*ELEMENT, TYPE=SPRINGA, ELSET=WK_869
   42390,    35554,    47000
*SPRING, ELSET=WK_869

4.360209e-02
*ELEMENT, TYPE=SPRINGA, ELSET=WK_870
   42391,    35558,    47001
*SPRING, ELSET=WK_870

4.360209e-02
*ELEMENT, TYPE=SPRINGA, ELSET=WK_871
   42392,    35562,    47002
*SPRING, ELSET=WK_871

4.360209e-02
*ELEMENT, TYPE=SPRINGA, ELSET=WK_872
   42393,    35566,    47003
*SPRING, ELSET=WK_872

4.360209e-02
*ELEMENT, TYPE=SPRINGA, ELSET=WK_873
   42394,    35570,    47004
*SPRING, ELSET=WK_873

4.360209e-02
*ELEMENT, TYPE=SPRINGA, ELSET=WK_874
   42395,    35574,    47005
*SPRING, ELSET=WK_874

4.360209e-02
*ELEMENT, TYPE=SPRINGA, ELSET=WK_875
   42396,    35578,    47006
*SPRING, ELSET=WK_875

4.360209e-02
*ELEMENT, TYPE=SPRINGA, ELSET=WK_876
   42397,    35582,    47007
*SPRING, ELSET=WK_876

4.360209e-02
*ELEMENT, TYPE=SPRINGA, ELSET=WK_877
   42398,    35586,    47008
*SPRING, ELSET=WK_877

4.360209e-02
*ELEMENT, TYPE=SPRINGA, ELSET=WK_878
   42399,    35590,    47009
*SPRING, ELSET=WK_878

4.360209e-02
*ELEMENT, TYPE=SPRINGA, ELSET=WK_879
   42400,    35594,    47010
*SPRING, ELSET=WK_879

4.360209e-02
*ELEMENT, TYPE=SPRINGA, ELSET=WK_880
   42401,    35598,    47011
*SPRING, ELSET=WK_880

4.360209e-02
*ELEMENT, TYPE=SPRINGA, ELSET=WK_881
   42402,    35602,    47012
*SPRING, ELSET=WK_881

4.360209e-02
*ELEMENT, TYPE=SPRINGA, ELSET=WK_882
   42403,    35606,    47013
*SPRING, ELSET=WK_882

4.360209e-02
*ELEMENT, TYPE=SPRINGA, ELSET=WK_883
   42404,    35610,    47014
*SPRING, ELSET=WK_883

4.360209e-02
*ELEMENT, TYPE=SPRINGA, ELSET=WK_884
   42405,    35614,    47015
*SPRING, ELSET=WK_884

4.360209e-02
*ELEMENT, TYPE=SPRINGA, ELSET=WK_885
   42406,    35618,    47016
*SPRING, ELSET=WK_885

4.360209e-02
*ELEMENT, TYPE=SPRINGA, ELSET=WK_886
   42407,    35622,    47017
*SPRING, ELSET=WK_886

4.360209e-02
*ELEMENT, TYPE=SPRINGA, ELSET=WK_887
   42408,    35626,    47018
*SPRING, ELSET=WK_887

4.360209e-02
*ELEMENT, TYPE=SPRINGA, ELSET=WK_888
   42409,    35630,    47019
*SPRING, ELSET=WK_888

4.360209e-02
*ELEMENT, TYPE=SPRINGA, ELSET=WK_889
   42410,    35634,    47020
*SPRING, ELSET=WK_889

4.360209e-02
*ELEMENT, TYPE=SPRINGA, ELSET=WK_890
   42411,    35638,    47021
*SPRING, ELSET=WK_890

4.360209e-02
*ELEMENT, TYPE=SPRINGA, ELSET=WK_891
   42412,    35642,    47022
*SPRING, ELSET=WK_891

4.360209e-02
*ELEMENT, TYPE=SPRINGA, ELSET=WK_892
   42413,    35646,    47023
*SPRING, ELSET=WK_892

4.360209e-02
*ELEMENT, TYPE=SPRINGA, ELSET=WK_893
   42414,    35650,    47024
*SPRING, ELSET=WK_893

4.360209e-02
*ELEMENT, TYPE=SPRINGA, ELSET=WK_894
   42415,    35654,    47025
*SPRING, ELSET=WK_894

4.360209e-02
*ELEMENT, TYPE=SPRINGA, ELSET=WK_895
   42416,    35658,    47026
*SPRING, ELSET=WK_895

4.360209e-02
*ELEMENT, TYPE=SPRINGA, ELSET=WK_896
   42417,    35662,    47027
*SPRING, ELSET=WK_896

4.360209e-02
*ELEMENT, TYPE=SPRINGA, ELSET=WK_897
   42418,    35666,    47028
*SPRING, ELSET=WK_897

4.360209e-02
*ELEMENT, TYPE=SPRINGA, ELSET=WK_898
   42419,    35670,    47029
*SPRING, ELSET=WK_898

4.360209e-02
*ELEMENT, TYPE=SPRINGA, ELSET=WK_899
   42420,    35674,    47030
*SPRING, ELSET=WK_899

4.360209e-02
*ELEMENT, TYPE=SPRINGA, ELSET=WK_900
   42421,    35678,    47031
*SPRING, ELSET=WK_900

4.360209e-02
*ELEMENT, TYPE=SPRINGA, ELSET=WK_901
   42422,    35682,    47032
*SPRING, ELSET=WK_901

4.360209e-02
*ELEMENT, TYPE=SPRINGA, ELSET=WK_902
   42423,    35686,    47033
*SPRING, ELSET=WK_902

4.360209e-02
*ELEMENT, TYPE=SPRINGA, ELSET=WK_903
   42424,    35690,    47034
*SPRING, ELSET=WK_903

4.360209e-02
*ELEMENT, TYPE=SPRINGA, ELSET=WK_904
   42425,    35694,    47035
*SPRING, ELSET=WK_904

4.360209e-02
*ELEMENT, TYPE=SPRINGA, ELSET=WK_905
   42426,    35698,    47036
*SPRING, ELSET=WK_905

4.360209e-02
*ELEMENT, TYPE=SPRINGA, ELSET=WK_906
   42427,    35702,    47037
*SPRING, ELSET=WK_906

4.360209e-02
*ELEMENT, TYPE=SPRINGA, ELSET=WK_907
   42428,    35706,    47038
*SPRING, ELSET=WK_907

4.360209e-02
*ELEMENT, TYPE=SPRINGA, ELSET=WK_908
   42429,    35710,    47039
*SPRING, ELSET=WK_908

4.360209e-02
*ELEMENT, TYPE=SPRINGA, ELSET=WK_909
   42430,    35714,    47040
*SPRING, ELSET=WK_909

4.360209e-02
*ELEMENT, TYPE=SPRINGA, ELSET=WK_910
   42431,    35718,    47041
*SPRING, ELSET=WK_910

4.360209e-02
*ELEMENT, TYPE=SPRINGA, ELSET=WK_911
   42432,    35722,    47042
*SPRING, ELSET=WK_911

4.360209e-02
*ELEMENT, TYPE=SPRINGA, ELSET=WK_912
   42433,    35726,    47043
*SPRING, ELSET=WK_912

4.360209e-02
*ELEMENT, TYPE=SPRINGA, ELSET=WK_913
   42434,    35730,    47044
*SPRING, ELSET=WK_913

4.360209e-02
*ELEMENT, TYPE=SPRINGA, ELSET=WK_914
   42435,    35734,    47045
*SPRING, ELSET=WK_914

4.360209e-02
*ELEMENT, TYPE=SPRINGA, ELSET=WK_915
   42436,    35738,    47046
*SPRING, ELSET=WK_915

4.360209e-02
*ELEMENT, TYPE=SPRINGA, ELSET=WK_916
   42437,    35742,    47047
*SPRING, ELSET=WK_916

4.360209e-02
*ELEMENT, TYPE=SPRINGA, ELSET=WK_917
   42438,    35746,    47048
*SPRING, ELSET=WK_917

4.360209e-02
*ELEMENT, TYPE=SPRINGA, ELSET=WK_918
   42439,    35750,    47049
*SPRING, ELSET=WK_918

4.360209e-02
*ELEMENT, TYPE=SPRINGA, ELSET=WK_919
   42440,    35754,    47050
*SPRING, ELSET=WK_919

4.360209e-02
*ELEMENT, TYPE=SPRINGA, ELSET=WK_920
   42441,    35758,    47051
*SPRING, ELSET=WK_920

4.360209e-02
*ELEMENT, TYPE=SPRINGA, ELSET=WK_921
   42442,    35762,    47052
*SPRING, ELSET=WK_921

4.360209e-02
*ELEMENT, TYPE=SPRINGA, ELSET=WK_922
   42443,    35766,    47053
*SPRING, ELSET=WK_922

4.360209e-02
*ELEMENT, TYPE=SPRINGA, ELSET=WK_923
   42444,    35770,    47054
*SPRING, ELSET=WK_923

4.360209e-02
*ELEMENT, TYPE=SPRINGA, ELSET=WK_924
   42445,    35774,    47055
*SPRING, ELSET=WK_924

4.360209e-02
*ELEMENT, TYPE=SPRINGA, ELSET=WK_925
   42446,    35778,    47056
*SPRING, ELSET=WK_925

4.360209e-02
*ELEMENT, TYPE=SPRINGA, ELSET=WK_926
   42447,    35782,    47057
*SPRING, ELSET=WK_926

4.360209e-02
*ELEMENT, TYPE=SPRINGA, ELSET=WK_927
   42448,    35786,    47058
*SPRING, ELSET=WK_927

4.360209e-02
*ELEMENT, TYPE=SPRINGA, ELSET=WK_928
   42449,    35790,    47059
*SPRING, ELSET=WK_928

4.360209e-02
*ELEMENT, TYPE=SPRINGA, ELSET=WK_929
   42450,    35794,    47060
*SPRING, ELSET=WK_929

4.360209e-02
*ELEMENT, TYPE=SPRINGA, ELSET=WK_930
   42451,    35798,    47061
*SPRING, ELSET=WK_930

4.360209e-02
*ELEMENT, TYPE=SPRINGA, ELSET=WK_931
   42452,    35802,    47062
*SPRING, ELSET=WK_931

4.360209e-02
*ELEMENT, TYPE=SPRINGA, ELSET=WK_932
   42453,    35806,    47063
*SPRING, ELSET=WK_932

4.360209e-02
*ELEMENT, TYPE=SPRINGA, ELSET=WK_933
   42454,    35810,    47064
*SPRING, ELSET=WK_933

4.360209e-02
*ELEMENT, TYPE=SPRINGA, ELSET=WK_934
   42455,    35814,    47065
*SPRING, ELSET=WK_934

4.360209e-02
*ELEMENT, TYPE=SPRINGA, ELSET=WK_935
   42456,    35818,    47066
*SPRING, ELSET=WK_935

4.360209e-02
*ELEMENT, TYPE=SPRINGA, ELSET=WK_936
   42457,    35822,    47067
*SPRING, ELSET=WK_936

4.360209e-02
*ELEMENT, TYPE=SPRINGA, ELSET=WK_937
   42458,    35826,    47068
*SPRING, ELSET=WK_937

4.360209e-02
*ELEMENT, TYPE=SPRINGA, ELSET=WK_938
   42459,    35830,    47069
*SPRING, ELSET=WK_938

4.360209e-02
*ELEMENT, TYPE=SPRINGA, ELSET=WK_939
   42460,    35834,    47070
*SPRING, ELSET=WK_939

4.360209e-02
*ELEMENT, TYPE=SPRINGA, ELSET=WK_940
   42461,    35838,    47071
*SPRING, ELSET=WK_940

4.360209e-02
*ELEMENT, TYPE=SPRINGA, ELSET=WK_941
   42462,    35842,    47072
*SPRING, ELSET=WK_941

4.360209e-02
*ELEMENT, TYPE=SPRINGA, ELSET=WK_942
   42463,    35846,    47073
*SPRING, ELSET=WK_942

4.360209e-02
*ELEMENT, TYPE=SPRINGA, ELSET=WK_943
   42464,    35850,    47074
*SPRING, ELSET=WK_943

4.360209e-02
*ELEMENT, TYPE=SPRINGA, ELSET=WK_944
   42465,    35854,    47075
*SPRING, ELSET=WK_944

4.360209e-02
*ELEMENT, TYPE=SPRINGA, ELSET=WK_945
   42466,    35858,    47076
*SPRING, ELSET=WK_945

4.360209e-02
*ELEMENT, TYPE=SPRINGA, ELSET=WK_946
   42467,    35862,    47077
*SPRING, ELSET=WK_946

4.360209e-02
*ELEMENT, TYPE=SPRINGA, ELSET=WK_947
   42468,    35866,    47078
*SPRING, ELSET=WK_947

4.360209e-02
*ELEMENT, TYPE=SPRINGA, ELSET=WK_948
   42469,    35870,    47079
*SPRING, ELSET=WK_948

4.360209e-02
*ELEMENT, TYPE=SPRINGA, ELSET=WK_949
   42470,    35874,    47080
*SPRING, ELSET=WK_949

4.360209e-02
*ELEMENT, TYPE=SPRINGA, ELSET=WK_950
   42471,    35878,    47081
*SPRING, ELSET=WK_950

4.360209e-02
*ELEMENT, TYPE=SPRINGA, ELSET=WK_951
   42472,    35882,    47082
*SPRING, ELSET=WK_951

4.360209e-02
*ELEMENT, TYPE=SPRINGA, ELSET=WK_952
   42473,    35886,    47083
*SPRING, ELSET=WK_952

4.360209e-02
*ELEMENT, TYPE=SPRINGA, ELSET=WK_953
   42474,    35890,    47084
*SPRING, ELSET=WK_953

4.360209e-02
*ELEMENT, TYPE=SPRINGA, ELSET=WK_954
   42475,    35894,    47085
*SPRING, ELSET=WK_954

4.360209e-02
*ELEMENT, TYPE=SPRINGA, ELSET=WK_955
   42476,    35898,    47086
*SPRING, ELSET=WK_955

4.360209e-02
*ELEMENT, TYPE=SPRINGA, ELSET=WK_956
   42477,    35902,    47087
*SPRING, ELSET=WK_956

4.360209e-02
*ELEMENT, TYPE=SPRINGA, ELSET=WK_957
   42478,    35906,    47088
*SPRING, ELSET=WK_957

4.360209e-02
*ELEMENT, TYPE=SPRINGA, ELSET=WK_958
   42479,    35910,    47089
*SPRING, ELSET=WK_958

4.360209e-02
*ELEMENT, TYPE=SPRINGA, ELSET=WK_959
   42480,    35914,    47090
*SPRING, ELSET=WK_959

4.360209e-02
*ELEMENT, TYPE=SPRINGA, ELSET=WK_960
   42481,    35918,    47091
*SPRING, ELSET=WK_960

4.360209e-02
*ELEMENT, TYPE=SPRINGA, ELSET=WK_961
   42482,    35922,    47092
*SPRING, ELSET=WK_961

4.360209e-02
*ELEMENT, TYPE=SPRINGA, ELSET=WK_962
   42483,    35926,    47093
*SPRING, ELSET=WK_962

4.360209e-02
*ELEMENT, TYPE=SPRINGA, ELSET=WK_963
   42484,    35930,    47094
*SPRING, ELSET=WK_963

4.360209e-02
*ELEMENT, TYPE=SPRINGA, ELSET=WK_964
   42485,    35934,    47095
*SPRING, ELSET=WK_964

4.360209e-02
*ELEMENT, TYPE=SPRINGA, ELSET=WK_965
   42486,    35938,    47096
*SPRING, ELSET=WK_965

4.360209e-02
*ELEMENT, TYPE=SPRINGA, ELSET=WK_966
   42487,    35942,    47097
*SPRING, ELSET=WK_966

4.360209e-02
*ELEMENT, TYPE=SPRINGA, ELSET=WK_967
   42488,    35946,    47098
*SPRING, ELSET=WK_967

4.360209e-02
*ELEMENT, TYPE=SPRINGA, ELSET=WK_968
   42489,    35950,    47099
*SPRING, ELSET=WK_968

4.360209e-02
*ELEMENT, TYPE=SPRINGA, ELSET=WK_969
   42490,    35954,    47100
*SPRING, ELSET=WK_969

4.360209e-02
*ELEMENT, TYPE=SPRINGA, ELSET=WK_970
   42491,    35958,    47101
*SPRING, ELSET=WK_970

4.360209e-02
*ELEMENT, TYPE=SPRINGA, ELSET=WK_971
   42492,    35962,    47102
*SPRING, ELSET=WK_971

4.360209e-02
*ELEMENT, TYPE=SPRINGA, ELSET=WK_972
   42493,    35966,    47103
*SPRING, ELSET=WK_972

4.360209e-02
*ELEMENT, TYPE=SPRINGA, ELSET=WK_973
   42494,    35970,    47104
*SPRING, ELSET=WK_973

4.360209e-02
*ELEMENT, TYPE=SPRINGA, ELSET=WK_974
   42495,    35974,    47105
*SPRING, ELSET=WK_974

4.360209e-02
*ELEMENT, TYPE=SPRINGA, ELSET=WK_975
   42496,    35978,    47106
*SPRING, ELSET=WK_975

4.360209e-02
*ELEMENT, TYPE=SPRINGA, ELSET=WK_976
   42497,    35982,    47107
*SPRING, ELSET=WK_976

4.360209e-02
*ELEMENT, TYPE=SPRINGA, ELSET=WK_977
   42498,    35986,    47108
*SPRING, ELSET=WK_977

4.360209e-02
*ELEMENT, TYPE=SPRINGA, ELSET=WK_978
   42499,    35990,    47109
*SPRING, ELSET=WK_978

4.360209e-02
*ELEMENT, TYPE=SPRINGA, ELSET=WK_979
   42500,    35994,    47110
*SPRING, ELSET=WK_979

4.360209e-02
*ELEMENT, TYPE=SPRINGA, ELSET=WK_980
   42501,    35998,    47111
*SPRING, ELSET=WK_980

4.360209e-02
*ELEMENT, TYPE=SPRINGA, ELSET=WK_981
   42502,    36002,    47112
*SPRING, ELSET=WK_981

4.360209e-02
*ELEMENT, TYPE=SPRINGA, ELSET=WK_982
   42503,    36006,    47113
*SPRING, ELSET=WK_982

4.360209e-02
*ELEMENT, TYPE=SPRINGA, ELSET=WK_983
   42504,    36010,    47114
*SPRING, ELSET=WK_983

4.360209e-02
*ELEMENT, TYPE=SPRINGA, ELSET=WK_984
   42505,    36014,    47115
*SPRING, ELSET=WK_984

4.360209e-02
*ELEMENT, TYPE=SPRINGA, ELSET=WK_985
   42506,    36018,    47116
*SPRING, ELSET=WK_985

4.360209e-02
*ELEMENT, TYPE=SPRINGA, ELSET=WK_986
   42507,    36022,    47117
*SPRING, ELSET=WK_986

4.360209e-02
*ELEMENT, TYPE=SPRINGA, ELSET=WK_987
   42508,    36026,    47118
*SPRING, ELSET=WK_987

4.360209e-02
*ELEMENT, TYPE=SPRINGA, ELSET=WK_988
   42509,    36030,    47119
*SPRING, ELSET=WK_988

4.360209e-02
*ELEMENT, TYPE=SPRINGA, ELSET=WK_989
   42510,    36034,    47120
*SPRING, ELSET=WK_989

4.360209e-02
*ELEMENT, TYPE=SPRINGA, ELSET=WK_990
   42511,    36038,    47121
*SPRING, ELSET=WK_990

4.360209e-02
*ELEMENT, TYPE=SPRINGA, ELSET=WK_991
   42512,    36042,    47122
*SPRING, ELSET=WK_991

4.360209e-02
*ELEMENT, TYPE=SPRINGA, ELSET=WK_992
   42513,    36046,    47123
*SPRING, ELSET=WK_992

4.360209e-02
*ELEMENT, TYPE=SPRINGA, ELSET=WK_993
   42514,    36050,    47124
*SPRING, ELSET=WK_993

4.360209e-02
*ELEMENT, TYPE=SPRINGA, ELSET=WK_994
   42515,    36054,    47125
*SPRING, ELSET=WK_994

4.360209e-02
*ELEMENT, TYPE=SPRINGA, ELSET=WK_995
   42516,    36058,    47126
*SPRING, ELSET=WK_995

4.360209e-02
*ELEMENT, TYPE=SPRINGA, ELSET=WK_996
   42517,    36062,    47127
*SPRING, ELSET=WK_996

4.360209e-02
*ELEMENT, TYPE=SPRINGA, ELSET=WK_997
   42518,    36066,    47128
*SPRING, ELSET=WK_997

4.360209e-02
*ELEMENT, TYPE=SPRINGA, ELSET=WK_998
   42519,    36070,    47129
*SPRING, ELSET=WK_998

4.360209e-02
*ELEMENT, TYPE=SPRINGA, ELSET=WK_999
   42520,    36074,    47130
*SPRING, ELSET=WK_999

4.360209e-02
*ELEMENT, TYPE=SPRINGA, ELSET=WK_1000
   42521,    36078,    47131
*SPRING, ELSET=WK_1000

4.360209e-02
*ELEMENT, TYPE=SPRINGA, ELSET=WK_1001
   42522,    36082,    47132
*SPRING, ELSET=WK_1001

4.360209e-02
*ELEMENT, TYPE=SPRINGA, ELSET=WK_1002
   42523,    36086,    47133
*SPRING, ELSET=WK_1002

4.360209e-02
*ELEMENT, TYPE=SPRINGA, ELSET=WK_1003
   42524,    36090,    47134
*SPRING, ELSET=WK_1003

4.360209e-02
*ELEMENT, TYPE=SPRINGA, ELSET=WK_1004
   42525,    36094,    47135
*SPRING, ELSET=WK_1004

4.360209e-02
*ELEMENT, TYPE=SPRINGA, ELSET=WK_1005
   42526,    36098,    47136
*SPRING, ELSET=WK_1005

4.360209e-02
*ELEMENT, TYPE=SPRINGA, ELSET=WK_1006
   42527,    36102,    47137
*SPRING, ELSET=WK_1006

4.360209e-02
*ELEMENT, TYPE=SPRINGA, ELSET=WK_1007
   42528,    36106,    47138
*SPRING, ELSET=WK_1007

4.360209e-02
*ELEMENT, TYPE=SPRINGA, ELSET=WK_1008
   42529,    36110,    47139
*SPRING, ELSET=WK_1008

4.360209e-02
*ELEMENT, TYPE=SPRINGA, ELSET=WK_1009
   42530,    36114,    47140
*SPRING, ELSET=WK_1009

4.360209e-02
*ELEMENT, TYPE=SPRINGA, ELSET=WK_1010
   42531,    36118,    47141
*SPRING, ELSET=WK_1010

4.360209e-02
*ELEMENT, TYPE=SPRINGA, ELSET=WK_1011
   42532,    36122,    47142
*SPRING, ELSET=WK_1011

4.360209e-02
*ELEMENT, TYPE=SPRINGA, ELSET=WK_1012
   42533,    36126,    47143
*SPRING, ELSET=WK_1012

4.360209e-02
*ELEMENT, TYPE=SPRINGA, ELSET=WK_1013
   42534,    36130,    47144
*SPRING, ELSET=WK_1013

4.360209e-02
*ELEMENT, TYPE=SPRINGA, ELSET=WK_1014
   42535,    36134,    47145
*SPRING, ELSET=WK_1014

4.360209e-02
*ELEMENT, TYPE=SPRINGA, ELSET=WK_1015
   42536,    36138,    47146
*SPRING, ELSET=WK_1015

4.360209e-02
*ELEMENT, TYPE=SPRINGA, ELSET=WK_1016
   42537,    36142,    47147
*SPRING, ELSET=WK_1016

4.360209e-02
*ELEMENT, TYPE=SPRINGA, ELSET=WK_1017
   42538,    36146,    47148
*SPRING, ELSET=WK_1017

4.360209e-02
*ELEMENT, TYPE=SPRINGA, ELSET=WK_1018
   42539,    36150,    47149
*SPRING, ELSET=WK_1018

4.360209e-02
*ELEMENT, TYPE=SPRINGA, ELSET=WK_1019
   42540,    36154,    47150
*SPRING, ELSET=WK_1019

4.360209e-02
*ELEMENT, TYPE=SPRINGA, ELSET=WK_1020
   42541,    36158,    47151
*SPRING, ELSET=WK_1020

4.360209e-02
*ELEMENT, TYPE=SPRINGA, ELSET=WK_1021
   42542,    36162,    47152
*SPRING, ELSET=WK_1021

4.360209e-02
*ELEMENT, TYPE=SPRINGA, ELSET=WK_1022
   42543,    36166,    47153
*SPRING, ELSET=WK_1022

4.360209e-02
*ELEMENT, TYPE=SPRINGA, ELSET=WK_1023
   42544,    36170,    47154
*SPRING, ELSET=WK_1023

4.360209e-02
*ELEMENT, TYPE=SPRINGA, ELSET=WK_1024
   42545,    36174,    47155
*SPRING, ELSET=WK_1024

4.360209e-02
*ELEMENT, TYPE=SPRINGA, ELSET=WK_1025
   42546,    36178,    47156
*SPRING, ELSET=WK_1025

4.360209e-02
*ELEMENT, TYPE=SPRINGA, ELSET=WK_1026
   42547,    36182,    47157
*SPRING, ELSET=WK_1026

4.360209e-02
*ELEMENT, TYPE=SPRINGA, ELSET=WK_1027
   42548,    36186,    47158
*SPRING, ELSET=WK_1027

4.360209e-02
*ELEMENT, TYPE=SPRINGA, ELSET=WK_1028
   42549,    36190,    47159
*SPRING, ELSET=WK_1028

4.360209e-02
*ELEMENT, TYPE=SPRINGA, ELSET=WK_1029
   42550,    36194,    47160
*SPRING, ELSET=WK_1029

4.360209e-02
*ELEMENT, TYPE=SPRINGA, ELSET=WK_1030
   42551,    36198,    47161
*SPRING, ELSET=WK_1030

4.360209e-02
*ELEMENT, TYPE=SPRINGA, ELSET=WK_1031
   42552,    36202,    47162
*SPRING, ELSET=WK_1031

4.360209e-02
*ELEMENT, TYPE=SPRINGA, ELSET=WK_1032
   42553,    36206,    47163
*SPRING, ELSET=WK_1032

4.360209e-02
*ELEMENT, TYPE=SPRINGA, ELSET=WK_1033
   42554,    36210,    47164
*SPRING, ELSET=WK_1033

4.360209e-02
*ELEMENT, TYPE=SPRINGA, ELSET=WK_1034
   42555,    36214,    47165
*SPRING, ELSET=WK_1034

4.360209e-02
*ELEMENT, TYPE=SPRINGA, ELSET=WK_1035
   42556,    36218,    47166
*SPRING, ELSET=WK_1035

4.360209e-02
*ELEMENT, TYPE=SPRINGA, ELSET=WK_1036
   42557,    36222,    47167
*SPRING, ELSET=WK_1036

4.360209e-02
*ELEMENT, TYPE=SPRINGA, ELSET=WK_1037
   42558,    36226,    47168
*SPRING, ELSET=WK_1037

4.360209e-02
*ELEMENT, TYPE=SPRINGA, ELSET=WK_1038
   42559,    36230,    47169
*SPRING, ELSET=WK_1038

4.360209e-02
*ELEMENT, TYPE=SPRINGA, ELSET=WK_1039
   42560,    36234,    47170
*SPRING, ELSET=WK_1039

4.360209e-02
*ELEMENT, TYPE=SPRINGA, ELSET=WK_1040
   42561,    36238,    47171
*SPRING, ELSET=WK_1040

4.360209e-02
*ELEMENT, TYPE=SPRINGA, ELSET=WK_1041
   42562,    36242,    47172
*SPRING, ELSET=WK_1041

4.360209e-02
*ELEMENT, TYPE=SPRINGA, ELSET=WK_1042
   42563,    36246,    47173
*SPRING, ELSET=WK_1042

4.360209e-02
*ELEMENT, TYPE=SPRINGA, ELSET=WK_1043
   42564,    36250,    47174
*SPRING, ELSET=WK_1043

4.360209e-02
*ELEMENT, TYPE=SPRINGA, ELSET=WK_1044
   42565,    36254,    47175
*SPRING, ELSET=WK_1044

4.360209e-02
*ELEMENT, TYPE=SPRINGA, ELSET=WK_1045
   42566,    36258,    47176
*SPRING, ELSET=WK_1045

4.360209e-02
*ELEMENT, TYPE=SPRINGA, ELSET=WK_1046
   42567,    36262,    47177
*SPRING, ELSET=WK_1046

4.360209e-02
*ELEMENT, TYPE=SPRINGA, ELSET=WK_1047
   42568,    36266,    47178
*SPRING, ELSET=WK_1047

4.360209e-02
*ELEMENT, TYPE=SPRINGA, ELSET=WK_1048
   42569,    36270,    47179
*SPRING, ELSET=WK_1048

4.360209e-02
*ELEMENT, TYPE=SPRINGA, ELSET=WK_1049
   42570,    36274,    47180
*SPRING, ELSET=WK_1049

4.360209e-02
*ELEMENT, TYPE=SPRINGA, ELSET=WK_1050
   42571,    36278,    47181
*SPRING, ELSET=WK_1050

4.360209e-02
*ELEMENT, TYPE=SPRINGA, ELSET=WK_1051
   42572,    36282,    47182
*SPRING, ELSET=WK_1051

4.360209e-02
*ELEMENT, TYPE=SPRINGA, ELSET=WK_1052
   42573,    36286,    47183
*SPRING, ELSET=WK_1052

4.360209e-02
*ELEMENT, TYPE=SPRINGA, ELSET=WK_1053
   42574,    36290,    47184
*SPRING, ELSET=WK_1053

4.360209e-02
*ELEMENT, TYPE=SPRINGA, ELSET=WK_1054
   42575,    36294,    47185
*SPRING, ELSET=WK_1054

4.360209e-02
*ELEMENT, TYPE=SPRINGA, ELSET=WK_1055
   42576,    36298,    47186
*SPRING, ELSET=WK_1055

4.360209e-02
*ELEMENT, TYPE=SPRINGA, ELSET=WK_1056
   42577,    36302,    47187
*SPRING, ELSET=WK_1056

4.360209e-02
*ELEMENT, TYPE=SPRINGA, ELSET=WK_1057
   42578,    36306,    47188
*SPRING, ELSET=WK_1057

4.360209e-02
*ELEMENT, TYPE=SPRINGA, ELSET=WK_1058
   42579,    36310,    47189
*SPRING, ELSET=WK_1058

4.360209e-02
*ELEMENT, TYPE=SPRINGA, ELSET=WK_1059
   42580,    36314,    47190
*SPRING, ELSET=WK_1059

4.360209e-02
*ELEMENT, TYPE=SPRINGA, ELSET=WK_1060
   42581,    36318,    47191
*SPRING, ELSET=WK_1060

4.360209e-02
*ELEMENT, TYPE=SPRINGA, ELSET=WK_1061
   42582,    36322,    47192
*SPRING, ELSET=WK_1061

4.360209e-02
*ELEMENT, TYPE=SPRINGA, ELSET=WK_1062
   42583,    36326,    47193
*SPRING, ELSET=WK_1062

4.360209e-02
*ELEMENT, TYPE=SPRINGA, ELSET=WK_1063
   42584,    36330,    47194
*SPRING, ELSET=WK_1063

4.360209e-02
*ELEMENT, TYPE=SPRINGA, ELSET=WK_1064
   42585,    36334,    47195
*SPRING, ELSET=WK_1064

4.360209e-02
*ELEMENT, TYPE=SPRINGA, ELSET=WK_1065
   42586,    36338,    47196
*SPRING, ELSET=WK_1065

4.360209e-02
*ELEMENT, TYPE=SPRINGA, ELSET=WK_1066
   42587,    36342,    47197
*SPRING, ELSET=WK_1066

4.360209e-02
*ELEMENT, TYPE=SPRINGA, ELSET=WK_1067
   42588,    36346,    47198
*SPRING, ELSET=WK_1067

4.360209e-02
*ELEMENT, TYPE=SPRINGA, ELSET=WK_1068
   42589,    36350,    47199
*SPRING, ELSET=WK_1068

4.360209e-02
*ELEMENT, TYPE=SPRINGA, ELSET=WK_1069
   42590,    36354,    47200
*SPRING, ELSET=WK_1069

4.360209e-02
*ELEMENT, TYPE=SPRINGA, ELSET=WK_1070
   42591,    36358,    47201
*SPRING, ELSET=WK_1070

4.360209e-02
*ELEMENT, TYPE=SPRINGA, ELSET=WK_1071
   42592,    36362,    47202
*SPRING, ELSET=WK_1071

4.360209e-02
*ELEMENT, TYPE=SPRINGA, ELSET=WK_1072
   42593,    36366,    47203
*SPRING, ELSET=WK_1072

4.360209e-02
*ELEMENT, TYPE=SPRINGA, ELSET=WK_1073
   42594,    36370,    47204
*SPRING, ELSET=WK_1073

4.360209e-02
*ELEMENT, TYPE=SPRINGA, ELSET=WK_1074
   42595,    36374,    47205
*SPRING, ELSET=WK_1074

4.360209e-02
*ELEMENT, TYPE=SPRINGA, ELSET=WK_1075
   42596,    36378,    47206
*SPRING, ELSET=WK_1075

4.360209e-02
*ELEMENT, TYPE=SPRINGA, ELSET=WK_1076
   42597,    36382,    47207
*SPRING, ELSET=WK_1076

4.360209e-02
*ELEMENT, TYPE=SPRINGA, ELSET=WK_1077
   42598,    36386,    47208
*SPRING, ELSET=WK_1077

4.360209e-02
*ELEMENT, TYPE=SPRINGA, ELSET=WK_1078
   42599,    36390,    47209
*SPRING, ELSET=WK_1078

4.360209e-02
*ELEMENT, TYPE=SPRINGA, ELSET=WK_1079
   42600,    36394,    47210
*SPRING, ELSET=WK_1079

4.360209e-02
*ELEMENT, TYPE=SPRINGA, ELSET=WK_1080
   42601,    36398,    47211
*SPRING, ELSET=WK_1080

4.360209e-02
*ELEMENT, TYPE=SPRINGA, ELSET=WK_1081
   42602,    36402,    47212
*SPRING, ELSET=WK_1081

4.360209e-02
*ELEMENT, TYPE=SPRINGA, ELSET=WK_1082
   42603,    36406,    47213
*SPRING, ELSET=WK_1082

4.360209e-02
*ELEMENT, TYPE=SPRINGA, ELSET=WK_1083
   42604,    36410,    47214
*SPRING, ELSET=WK_1083

4.360209e-02
*ELEMENT, TYPE=SPRINGA, ELSET=WK_1084
   42605,    36414,    47215
*SPRING, ELSET=WK_1084

4.360209e-02
*ELEMENT, TYPE=SPRINGA, ELSET=WK_1085
   42606,    36418,    47216
*SPRING, ELSET=WK_1085

4.360209e-02
*ELEMENT, TYPE=SPRINGA, ELSET=WK_1086
   42607,    36422,    47217
*SPRING, ELSET=WK_1086

4.360209e-02
*ELEMENT, TYPE=SPRINGA, ELSET=WK_1087
   42608,    36426,    47218
*SPRING, ELSET=WK_1087

4.360209e-02
*ELEMENT, TYPE=SPRINGA, ELSET=WK_1088
   42609,    36430,    47219
*SPRING, ELSET=WK_1088

4.360209e-02
*ELEMENT, TYPE=SPRINGA, ELSET=WK_1089
   42610,    36434,    47220
*SPRING, ELSET=WK_1089

4.360209e-02
*ELEMENT, TYPE=SPRINGA, ELSET=WK_1090
   42611,    36438,    47221
*SPRING, ELSET=WK_1090

4.360209e-02
*ELEMENT, TYPE=SPRINGA, ELSET=WK_1091
   42612,    36442,    47222
*SPRING, ELSET=WK_1091

4.360209e-02
*ELEMENT, TYPE=SPRINGA, ELSET=WK_1092
   42613,    36446,    47223
*SPRING, ELSET=WK_1092

4.360209e-02
*ELEMENT, TYPE=SPRINGA, ELSET=WK_1093
   42614,    36450,    47224
*SPRING, ELSET=WK_1093

4.360209e-02
*ELEMENT, TYPE=SPRINGA, ELSET=WK_1094
   42615,    36454,    47225
*SPRING, ELSET=WK_1094

4.360209e-02
*ELEMENT, TYPE=SPRINGA, ELSET=WK_1095
   42616,    36458,    47226
*SPRING, ELSET=WK_1095

4.360209e-02
*ELEMENT, TYPE=SPRINGA, ELSET=WK_1096
   42617,    36462,    47227
*SPRING, ELSET=WK_1096

4.360209e-02
*ELEMENT, TYPE=SPRINGA, ELSET=WK_1097
   42618,    36466,    47228
*SPRING, ELSET=WK_1097

4.360209e-02
*ELEMENT, TYPE=SPRINGA, ELSET=WK_1098
   42619,    36470,    47229
*SPRING, ELSET=WK_1098

4.360209e-02
*ELEMENT, TYPE=SPRINGA, ELSET=WK_1099
   42620,    36474,    47230
*SPRING, ELSET=WK_1099

4.360209e-02
*ELEMENT, TYPE=SPRINGA, ELSET=WK_1100
   42621,    36478,    47231
*SPRING, ELSET=WK_1100

4.360209e-02
*ELEMENT, TYPE=SPRINGA, ELSET=WK_1101
   42622,    36482,    47232
*SPRING, ELSET=WK_1101

4.360209e-02
*ELEMENT, TYPE=SPRINGA, ELSET=WK_1102
   42623,    36486,    47233
*SPRING, ELSET=WK_1102

4.360209e-02
*ELEMENT, TYPE=SPRINGA, ELSET=WK_1103
   42624,    36490,    47234
*SPRING, ELSET=WK_1103

4.360209e-02
*ELEMENT, TYPE=SPRINGA, ELSET=WK_1104
   42625,    36494,    47235
*SPRING, ELSET=WK_1104

4.360209e-02
*ELEMENT, TYPE=SPRINGA, ELSET=WK_1105
   42626,    36498,    47236
*SPRING, ELSET=WK_1105

4.360209e-02
*ELEMENT, TYPE=SPRINGA, ELSET=WK_1106
   42627,    36502,    47237
*SPRING, ELSET=WK_1106

4.360209e-02
*ELEMENT, TYPE=SPRINGA, ELSET=WK_1107
   42628,    36506,    47238
*SPRING, ELSET=WK_1107

4.360209e-02
*ELEMENT, TYPE=SPRINGA, ELSET=WK_1108
   42629,    36510,    47239
*SPRING, ELSET=WK_1108

4.360209e-02
*ELEMENT, TYPE=SPRINGA, ELSET=WK_1109
   42630,    36514,    47240
*SPRING, ELSET=WK_1109

4.360209e-02
*ELEMENT, TYPE=SPRINGA, ELSET=WK_1110
   42631,    36518,    47241
*SPRING, ELSET=WK_1110

4.360209e-02
*ELEMENT, TYPE=SPRINGA, ELSET=WK_1111
   42632,    36522,    47242
*SPRING, ELSET=WK_1111

4.360209e-02
*ELEMENT, TYPE=SPRINGA, ELSET=WK_1112
   42633,    36526,    47243
*SPRING, ELSET=WK_1112

4.360209e-02
*ELEMENT, TYPE=SPRINGA, ELSET=WK_1113
   42634,    36530,    47244
*SPRING, ELSET=WK_1113

4.360209e-02
*ELEMENT, TYPE=SPRINGA, ELSET=WK_1114
   42635,    36534,    47245
*SPRING, ELSET=WK_1114

4.360209e-02
*ELEMENT, TYPE=SPRINGA, ELSET=WK_1115
   42636,    36538,    47246
*SPRING, ELSET=WK_1115

4.360209e-02
*ELEMENT, TYPE=SPRINGA, ELSET=WK_1116
   42637,    36542,    47247
*SPRING, ELSET=WK_1116

4.360209e-02
*ELEMENT, TYPE=SPRINGA, ELSET=WK_1117
   42638,    36546,    47248
*SPRING, ELSET=WK_1117

4.360209e-02
*ELEMENT, TYPE=SPRINGA, ELSET=WK_1118
   42639,    36550,    47249
*SPRING, ELSET=WK_1118

4.360209e-02
*ELEMENT, TYPE=SPRINGA, ELSET=WK_1119
   42640,    36554,    47250
*SPRING, ELSET=WK_1119

4.360209e-02
*ELEMENT, TYPE=SPRINGA, ELSET=WK_1120
   42641,    36558,    47251
*SPRING, ELSET=WK_1120

4.360209e-02
*ELEMENT, TYPE=SPRINGA, ELSET=WK_1121
   42642,    36562,    47252
*SPRING, ELSET=WK_1121

4.360209e-02
*ELEMENT, TYPE=SPRINGA, ELSET=WK_1122
   42643,    36566,    47253
*SPRING, ELSET=WK_1122

4.360209e-02
*ELEMENT, TYPE=SPRINGA, ELSET=WK_1123
   42644,    36570,    47254
*SPRING, ELSET=WK_1123

4.360209e-02
*ELEMENT, TYPE=SPRINGA, ELSET=WK_1124
   42645,    36574,    47255
*SPRING, ELSET=WK_1124

4.360209e-02
*ELEMENT, TYPE=SPRINGA, ELSET=WK_1125
   42646,    36578,    47256
*SPRING, ELSET=WK_1125

4.360209e-02
*ELEMENT, TYPE=SPRINGA, ELSET=WK_1126
   42647,    36582,    47257
*SPRING, ELSET=WK_1126

4.360209e-02
*ELEMENT, TYPE=SPRINGA, ELSET=WK_1127
   42648,    36586,    47258
*SPRING, ELSET=WK_1127

4.360209e-02
*ELEMENT, TYPE=SPRINGA, ELSET=WK_1128
   42649,    36590,    47259
*SPRING, ELSET=WK_1128

4.360209e-02
*ELEMENT, TYPE=SPRINGA, ELSET=WK_1129
   42650,    36594,    47260
*SPRING, ELSET=WK_1129

4.360209e-02
*ELEMENT, TYPE=SPRINGA, ELSET=WK_1130
   42651,    36598,    47261
*SPRING, ELSET=WK_1130

4.360209e-02
*ELEMENT, TYPE=SPRINGA, ELSET=WK_1131
   42652,    36602,    47262
*SPRING, ELSET=WK_1131

4.360209e-02
*ELEMENT, TYPE=SPRINGA, ELSET=WK_1132
   42653,    36606,    47263
*SPRING, ELSET=WK_1132

4.360209e-02
*ELEMENT, TYPE=SPRINGA, ELSET=WK_1133
   42654,    36610,    47264
*SPRING, ELSET=WK_1133

4.360209e-02
*ELEMENT, TYPE=SPRINGA, ELSET=WK_1134
   42655,    36614,    47265
*SPRING, ELSET=WK_1134

4.360209e-02
*ELEMENT, TYPE=SPRINGA, ELSET=WK_1135
   42656,    36618,    47266
*SPRING, ELSET=WK_1135

2.180104e-02
*ELEMENT, TYPE=SPRINGA, ELSET=WK_1136
   42657,    36622,    47267
*SPRING, ELSET=WK_1136

2.180104e-02
*ELEMENT, TYPE=SPRINGA, ELSET=WK_1137
   42658,    36626,    47268
*SPRING, ELSET=WK_1137

2.180104e-02
*ELEMENT, TYPE=SPRINGA, ELSET=WK_1138
   42659,    36630,    47269
*SPRING, ELSET=WK_1138

2.180104e-02
*ELEMENT, TYPE=SPRINGA, ELSET=WK_1139
   42660,    36634,    47270
*SPRING, ELSET=WK_1139

2.180104e-02
*ELEMENT, TYPE=SPRINGA, ELSET=WK_1140
   42661,    36638,    47271
*SPRING, ELSET=WK_1140

2.180104e-02
*ELEMENT, TYPE=SPRINGA, ELSET=WK_1141
   42662,    36642,    47272
*SPRING, ELSET=WK_1141

2.180104e-02
*ELEMENT, TYPE=SPRINGA, ELSET=WK_1142
   42663,    36646,    47273
*SPRING, ELSET=WK_1142

2.180104e-02
*ELEMENT, TYPE=SPRINGA, ELSET=WK_1143
   42664,    36650,    47274
*SPRING, ELSET=WK_1143

2.180104e-02
*ELEMENT, TYPE=SPRINGA, ELSET=WK_1144
   42665,    36654,    47275
*SPRING, ELSET=WK_1144

2.180104e-02
*ELEMENT, TYPE=SPRINGA, ELSET=WK_1145
   42666,    36658,    47276
*SPRING, ELSET=WK_1145

2.180104e-02
*ELEMENT, TYPE=SPRINGA, ELSET=WK_1146
   42667,    36662,    47277
*SPRING, ELSET=WK_1146

2.180104e-02
*ELEMENT, TYPE=SPRINGA, ELSET=WK_1147
   42668,    36666,    47278
*SPRING, ELSET=WK_1147

2.180104e-02
*ELEMENT, TYPE=SPRINGA, ELSET=WK_1148
   42669,    36670,    47279
*SPRING, ELSET=WK_1148

2.180104e-02
*ELEMENT, TYPE=SPRINGA, ELSET=WK_1149
   42670,    36674,    47280
*SPRING, ELSET=WK_1149

2.180104e-02
*ELEMENT, TYPE=SPRINGA, ELSET=WK_1150
   42671,    36678,    47281
*SPRING, ELSET=WK_1150

2.180104e-02
*ELEMENT, TYPE=SPRINGA, ELSET=WK_1151
   42672,    36682,    47282
*SPRING, ELSET=WK_1151

2.180104e-02
*ELEMENT, TYPE=SPRINGA, ELSET=WK_1152
   42673,    36686,    47283
*SPRING, ELSET=WK_1152

2.180104e-02
*ELEMENT, TYPE=SPRINGA, ELSET=WK_1153
   42674,    36690,    47284
*SPRING, ELSET=WK_1153

2.180104e-02
*ELEMENT, TYPE=SPRINGA, ELSET=WK_1154
   42675,    36694,    47285
*SPRING, ELSET=WK_1154

2.180104e-02
*ELEMENT, TYPE=SPRINGA, ELSET=WK_1155
   42676,    36698,    47286
*SPRING, ELSET=WK_1155

2.180104e-02
*ELEMENT, TYPE=SPRINGA, ELSET=WK_1156
   42677,    36702,    47287
*SPRING, ELSET=WK_1156

2.180104e-02
*ELEMENT, TYPE=SPRINGA, ELSET=WK_1157
   42678,    36706,    47288
*SPRING, ELSET=WK_1157

2.180104e-02
*ELEMENT, TYPE=SPRINGA, ELSET=WK_1158
   42679,    36710,    47289
*SPRING, ELSET=WK_1158

2.180104e-02
*ELEMENT, TYPE=SPRINGA, ELSET=WK_1159
   42680,    36714,    47290
*SPRING, ELSET=WK_1159

4.360209e-02
*ELEMENT, TYPE=SPRINGA, ELSET=WK_1160
   42681,    36718,    47291
*SPRING, ELSET=WK_1160

4.360209e-02
*ELEMENT, TYPE=SPRINGA, ELSET=WK_1161
   42682,    36722,    47292
*SPRING, ELSET=WK_1161

4.360209e-02
*ELEMENT, TYPE=SPRINGA, ELSET=WK_1162
   42683,    36726,    47293
*SPRING, ELSET=WK_1162

4.360209e-02
*ELEMENT, TYPE=SPRINGA, ELSET=WK_1163
   42684,    36730,    47294
*SPRING, ELSET=WK_1163

4.360209e-02
*ELEMENT, TYPE=SPRINGA, ELSET=WK_1164
   42685,    36734,    47295
*SPRING, ELSET=WK_1164

4.360209e-02
*ELEMENT, TYPE=SPRINGA, ELSET=WK_1165
   42686,    36738,    47296
*SPRING, ELSET=WK_1165

4.360209e-02
*ELEMENT, TYPE=SPRINGA, ELSET=WK_1166
   42687,    36742,    47297
*SPRING, ELSET=WK_1166

4.360209e-02
*ELEMENT, TYPE=SPRINGA, ELSET=WK_1167
   42688,    36746,    47298
*SPRING, ELSET=WK_1167

4.360209e-02
*ELEMENT, TYPE=SPRINGA, ELSET=WK_1168
   42689,    36750,    47299
*SPRING, ELSET=WK_1168

4.360209e-02
*ELEMENT, TYPE=SPRINGA, ELSET=WK_1169
   42690,    36754,    47300
*SPRING, ELSET=WK_1169

4.360209e-02
*ELEMENT, TYPE=SPRINGA, ELSET=WK_1170
   42691,    36758,    47301
*SPRING, ELSET=WK_1170

4.360209e-02
*ELEMENT, TYPE=SPRINGA, ELSET=WK_1171
   42692,    36762,    47302
*SPRING, ELSET=WK_1171

4.360209e-02
*ELEMENT, TYPE=SPRINGA, ELSET=WK_1172
   42693,    36766,    47303
*SPRING, ELSET=WK_1172

4.360209e-02
*ELEMENT, TYPE=SPRINGA, ELSET=WK_1173
   42694,    36770,    47304
*SPRING, ELSET=WK_1173

4.360209e-02
*ELEMENT, TYPE=SPRINGA, ELSET=WK_1174
   42695,    36774,    47305
*SPRING, ELSET=WK_1174

4.360209e-02
*ELEMENT, TYPE=SPRINGA, ELSET=WK_1175
   42696,    36778,    47306
*SPRING, ELSET=WK_1175

4.360209e-02
*ELEMENT, TYPE=SPRINGA, ELSET=WK_1176
   42697,    36782,    47307
*SPRING, ELSET=WK_1176

4.360209e-02
*ELEMENT, TYPE=SPRINGA, ELSET=WK_1177
   42698,    36786,    47308
*SPRING, ELSET=WK_1177

4.360209e-02
*ELEMENT, TYPE=SPRINGA, ELSET=WK_1178
   42699,    36790,    47309
*SPRING, ELSET=WK_1178

4.360209e-02
*ELEMENT, TYPE=SPRINGA, ELSET=WK_1179
   42700,    36794,    47310
*SPRING, ELSET=WK_1179

4.360209e-02
*ELEMENT, TYPE=SPRINGA, ELSET=WK_1180
   42701,    36798,    47311
*SPRING, ELSET=WK_1180

4.360209e-02
*ELEMENT, TYPE=SPRINGA, ELSET=WK_1181
   42702,    36802,    47312
*SPRING, ELSET=WK_1181

4.360209e-02
*ELEMENT, TYPE=SPRINGA, ELSET=WK_1182
   42703,    36806,    47313
*SPRING, ELSET=WK_1182

4.360209e-02
*ELEMENT, TYPE=SPRINGA, ELSET=WK_1183
   42704,    36810,    47314
*SPRING, ELSET=WK_1183

4.360209e-02
*ELEMENT, TYPE=SPRINGA, ELSET=WK_1184
   42705,    36814,    47315
*SPRING, ELSET=WK_1184

4.360209e-02
*ELEMENT, TYPE=SPRINGA, ELSET=WK_1185
   42706,    36818,    47316
*SPRING, ELSET=WK_1185

4.360209e-02
*ELEMENT, TYPE=SPRINGA, ELSET=WK_1186
   42707,    36822,    47317
*SPRING, ELSET=WK_1186

4.360209e-02
*ELEMENT, TYPE=SPRINGA, ELSET=WK_1187
   42708,    36826,    47318
*SPRING, ELSET=WK_1187

4.360209e-02
*ELEMENT, TYPE=SPRINGA, ELSET=WK_1188
   42709,    36830,    47319
*SPRING, ELSET=WK_1188

4.360209e-02
*ELEMENT, TYPE=SPRINGA, ELSET=WK_1189
   42710,    36834,    47320
*SPRING, ELSET=WK_1189

4.360209e-02
*ELEMENT, TYPE=SPRINGA, ELSET=WK_1190
   42711,    36838,    47321
*SPRING, ELSET=WK_1190

4.360209e-02
*ELEMENT, TYPE=SPRINGA, ELSET=WK_1191
   42712,    36842,    47322
*SPRING, ELSET=WK_1191

4.360209e-02
*ELEMENT, TYPE=SPRINGA, ELSET=WK_1192
   42713,    36846,    47323
*SPRING, ELSET=WK_1192

4.360209e-02
*ELEMENT, TYPE=SPRINGA, ELSET=WK_1193
   42714,    36850,    47324
*SPRING, ELSET=WK_1193

4.360209e-02
*ELEMENT, TYPE=SPRINGA, ELSET=WK_1194
   42715,    36854,    47325
*SPRING, ELSET=WK_1194

4.360209e-02
*ELEMENT, TYPE=SPRINGA, ELSET=WK_1195
   42716,    36858,    47326
*SPRING, ELSET=WK_1195

4.360209e-02
*ELEMENT, TYPE=SPRINGA, ELSET=WK_1196
   42717,    36862,    47327
*SPRING, ELSET=WK_1196

4.360209e-02
*ELEMENT, TYPE=SPRINGA, ELSET=WK_1197
   42718,    36866,    47328
*SPRING, ELSET=WK_1197

4.360209e-02
*ELEMENT, TYPE=SPRINGA, ELSET=WK_1198
   42719,    36870,    47329
*SPRING, ELSET=WK_1198

4.360209e-02
*ELEMENT, TYPE=SPRINGA, ELSET=WK_1199
   42720,    36874,    47330
*SPRING, ELSET=WK_1199

4.360209e-02
*ELEMENT, TYPE=SPRINGA, ELSET=WK_1200
   42721,    36878,    47331
*SPRING, ELSET=WK_1200

4.360209e-02
*ELEMENT, TYPE=SPRINGA, ELSET=WK_1201
   42722,    36882,    47332
*SPRING, ELSET=WK_1201

4.360209e-02
*ELEMENT, TYPE=SPRINGA, ELSET=WK_1202
   42723,    36886,    47333
*SPRING, ELSET=WK_1202

4.360209e-02
*ELEMENT, TYPE=SPRINGA, ELSET=WK_1203
   42724,    36890,    47334
*SPRING, ELSET=WK_1203

4.360209e-02
*ELEMENT, TYPE=SPRINGA, ELSET=WK_1204
   42725,    36894,    47335
*SPRING, ELSET=WK_1204

4.360209e-02
*ELEMENT, TYPE=SPRINGA, ELSET=WK_1205
   42726,    36898,    47336
*SPRING, ELSET=WK_1205

4.360209e-02
*ELEMENT, TYPE=SPRINGA, ELSET=WK_1206
   42727,    36902,    47337
*SPRING, ELSET=WK_1206

4.360209e-02
*ELEMENT, TYPE=SPRINGA, ELSET=WK_1207
   42728,    36906,    47338
*SPRING, ELSET=WK_1207

4.360209e-02
*ELEMENT, TYPE=SPRINGA, ELSET=WK_1208
   42729,    36910,    47339
*SPRING, ELSET=WK_1208

4.360209e-02
*ELEMENT, TYPE=SPRINGA, ELSET=WK_1209
   42730,    36914,    47340
*SPRING, ELSET=WK_1209

4.360209e-02
*ELEMENT, TYPE=SPRINGA, ELSET=WK_1210
   42731,    36918,    47341
*SPRING, ELSET=WK_1210

4.360209e-02
*ELEMENT, TYPE=SPRINGA, ELSET=WK_1211
   42732,    36922,    47342
*SPRING, ELSET=WK_1211

4.360209e-02
*ELEMENT, TYPE=SPRINGA, ELSET=WK_1212
   42733,    36926,    47343
*SPRING, ELSET=WK_1212

4.360209e-02
*ELEMENT, TYPE=SPRINGA, ELSET=WK_1213
   42734,    36930,    47344
*SPRING, ELSET=WK_1213

4.360209e-02
*ELEMENT, TYPE=SPRINGA, ELSET=WK_1214
   42735,    36934,    47345
*SPRING, ELSET=WK_1214

4.360209e-02
*ELEMENT, TYPE=SPRINGA, ELSET=WK_1215
   42736,    36938,    47346
*SPRING, ELSET=WK_1215

4.360209e-02
*ELEMENT, TYPE=SPRINGA, ELSET=WK_1216
   42737,    36942,    47347
*SPRING, ELSET=WK_1216

4.360209e-02
*ELEMENT, TYPE=SPRINGA, ELSET=WK_1217
   42738,    36946,    47348
*SPRING, ELSET=WK_1217

4.360209e-02
*ELEMENT, TYPE=SPRINGA, ELSET=WK_1218
   42739,    36950,    47349
*SPRING, ELSET=WK_1218

4.360209e-02
*ELEMENT, TYPE=SPRINGA, ELSET=WK_1219
   42740,    36954,    47350
*SPRING, ELSET=WK_1219

4.360209e-02
*ELEMENT, TYPE=SPRINGA, ELSET=WK_1220
   42741,    36958,    47351
*SPRING, ELSET=WK_1220

4.360209e-02
*ELEMENT, TYPE=SPRINGA, ELSET=WK_1221
   42742,    36962,    47352
*SPRING, ELSET=WK_1221

4.360209e-02
*ELEMENT, TYPE=SPRINGA, ELSET=WK_1222
   42743,    36966,    47353
*SPRING, ELSET=WK_1222

4.360209e-02
*ELEMENT, TYPE=SPRINGA, ELSET=WK_1223
   42744,    36970,    47354
*SPRING, ELSET=WK_1223

4.360209e-02
*ELEMENT, TYPE=SPRINGA, ELSET=WK_1224
   42745,    36974,    47355
*SPRING, ELSET=WK_1224

4.360209e-02
*ELEMENT, TYPE=SPRINGA, ELSET=WK_1225
   42746,    36978,    47356
*SPRING, ELSET=WK_1225

4.360209e-02
*ELEMENT, TYPE=SPRINGA, ELSET=WK_1226
   42747,    36982,    47357
*SPRING, ELSET=WK_1226

4.360209e-02
*ELEMENT, TYPE=SPRINGA, ELSET=WK_1227
   42748,    36986,    47358
*SPRING, ELSET=WK_1227

4.360209e-02
*ELEMENT, TYPE=SPRINGA, ELSET=WK_1228
   42749,    36990,    47359
*SPRING, ELSET=WK_1228

4.360209e-02
*ELEMENT, TYPE=SPRINGA, ELSET=WK_1229
   42750,    36994,    47360
*SPRING, ELSET=WK_1229

4.360209e-02
*ELEMENT, TYPE=SPRINGA, ELSET=WK_1230
   42751,    36998,    47361
*SPRING, ELSET=WK_1230

4.360209e-02
*ELEMENT, TYPE=SPRINGA, ELSET=WK_1231
   42752,    37002,    47362
*SPRING, ELSET=WK_1231

4.360209e-02
*ELEMENT, TYPE=SPRINGA, ELSET=WK_1232
   42753,    37006,    47363
*SPRING, ELSET=WK_1232

4.360209e-02
*ELEMENT, TYPE=SPRINGA, ELSET=WK_1233
   42754,    37010,    47364
*SPRING, ELSET=WK_1233

4.360209e-02
*ELEMENT, TYPE=SPRINGA, ELSET=WK_1234
   42755,    37014,    47365
*SPRING, ELSET=WK_1234

4.360209e-02
*ELEMENT, TYPE=SPRINGA, ELSET=WK_1235
   42756,    37018,    47366
*SPRING, ELSET=WK_1235

4.360209e-02
*ELEMENT, TYPE=SPRINGA, ELSET=WK_1236
   42757,    37022,    47367
*SPRING, ELSET=WK_1236

4.360209e-02
*ELEMENT, TYPE=SPRINGA, ELSET=WK_1237
   42758,    37026,    47368
*SPRING, ELSET=WK_1237

4.360209e-02
*ELEMENT, TYPE=SPRINGA, ELSET=WK_1238
   42759,    37030,    47369
*SPRING, ELSET=WK_1238

4.360209e-02
*ELEMENT, TYPE=SPRINGA, ELSET=WK_1239
   42760,    37034,    47370
*SPRING, ELSET=WK_1239

4.360209e-02
*ELEMENT, TYPE=SPRINGA, ELSET=WK_1240
   42761,    37038,    47371
*SPRING, ELSET=WK_1240

4.360209e-02
*ELEMENT, TYPE=SPRINGA, ELSET=WK_1241
   42762,    37042,    47372
*SPRING, ELSET=WK_1241

4.360209e-02
*ELEMENT, TYPE=SPRINGA, ELSET=WK_1242
   42763,    37046,    47373
*SPRING, ELSET=WK_1242

4.360209e-02
*ELEMENT, TYPE=SPRINGA, ELSET=WK_1243
   42764,    37050,    47374
*SPRING, ELSET=WK_1243

4.360209e-02
*ELEMENT, TYPE=SPRINGA, ELSET=WK_1244
   42765,    37054,    47375
*SPRING, ELSET=WK_1244

4.360209e-02
*ELEMENT, TYPE=SPRINGA, ELSET=WK_1245
   42766,    37058,    47376
*SPRING, ELSET=WK_1245

4.360209e-02
*ELEMENT, TYPE=SPRINGA, ELSET=WK_1246
   42767,    37062,    47377
*SPRING, ELSET=WK_1246

4.360209e-02
*ELEMENT, TYPE=SPRINGA, ELSET=WK_1247
   42768,    37066,    47378
*SPRING, ELSET=WK_1247

4.360209e-02
*ELEMENT, TYPE=SPRINGA, ELSET=WK_1248
   42769,    37070,    47379
*SPRING, ELSET=WK_1248

4.360209e-02
*ELEMENT, TYPE=SPRINGA, ELSET=WK_1249
   42770,    37074,    47380
*SPRING, ELSET=WK_1249

4.360209e-02
*ELEMENT, TYPE=SPRINGA, ELSET=WK_1250
   42771,    37078,    47381
*SPRING, ELSET=WK_1250

4.360209e-02
*ELEMENT, TYPE=SPRINGA, ELSET=WK_1251
   42772,    37082,    47382
*SPRING, ELSET=WK_1251

4.360209e-02
*ELEMENT, TYPE=SPRINGA, ELSET=WK_1252
   42773,    37086,    47383
*SPRING, ELSET=WK_1252

4.360209e-02
*ELEMENT, TYPE=SPRINGA, ELSET=WK_1253
   42774,    37090,    47384
*SPRING, ELSET=WK_1253

4.360209e-02
*ELEMENT, TYPE=SPRINGA, ELSET=WK_1254
   42775,    37094,    47385
*SPRING, ELSET=WK_1254

4.360209e-02
*ELEMENT, TYPE=SPRINGA, ELSET=WK_1255
   42776,    37098,    47386
*SPRING, ELSET=WK_1255

4.360209e-02
*ELEMENT, TYPE=SPRINGA, ELSET=WK_1256
   42777,    37102,    47387
*SPRING, ELSET=WK_1256

4.360209e-02
*ELEMENT, TYPE=SPRINGA, ELSET=WK_1257
   42778,    37106,    47388
*SPRING, ELSET=WK_1257

4.360209e-02
*ELEMENT, TYPE=SPRINGA, ELSET=WK_1258
   42779,    37110,    47389
*SPRING, ELSET=WK_1258

4.360209e-02
*ELEMENT, TYPE=SPRINGA, ELSET=WK_1259
   42780,    37114,    47390
*SPRING, ELSET=WK_1259

4.360209e-02
*ELEMENT, TYPE=SPRINGA, ELSET=WK_1260
   42781,    37118,    47391
*SPRING, ELSET=WK_1260

4.360209e-02
*ELEMENT, TYPE=SPRINGA, ELSET=WK_1261
   42782,    37122,    47392
*SPRING, ELSET=WK_1261

4.360209e-02
*ELEMENT, TYPE=SPRINGA, ELSET=WK_1262
   42783,    37126,    47393
*SPRING, ELSET=WK_1262

4.360209e-02
*ELEMENT, TYPE=SPRINGA, ELSET=WK_1263
   42784,    37130,    47394
*SPRING, ELSET=WK_1263

4.360209e-02
*ELEMENT, TYPE=SPRINGA, ELSET=WK_1264
   42785,    37134,    47395
*SPRING, ELSET=WK_1264

4.360209e-02
*ELEMENT, TYPE=SPRINGA, ELSET=WK_1265
   42786,    37138,    47396
*SPRING, ELSET=WK_1265

4.360209e-02
*ELEMENT, TYPE=SPRINGA, ELSET=WK_1266
   42787,    37142,    47397
*SPRING, ELSET=WK_1266

4.360209e-02
*ELEMENT, TYPE=SPRINGA, ELSET=WK_1267
   42788,    37146,    47398
*SPRING, ELSET=WK_1267

4.360209e-02
*ELEMENT, TYPE=SPRINGA, ELSET=WK_1268
   42789,    37150,    47399
*SPRING, ELSET=WK_1268

4.360209e-02
*ELEMENT, TYPE=SPRINGA, ELSET=WK_1269
   42790,    37154,    47400
*SPRING, ELSET=WK_1269

4.360209e-02
*ELEMENT, TYPE=SPRINGA, ELSET=WK_1270
   42791,    37158,    47401
*SPRING, ELSET=WK_1270

4.360209e-02
*ELEMENT, TYPE=SPRINGA, ELSET=WK_1271
   42792,    37162,    47402
*SPRING, ELSET=WK_1271

4.360209e-02
*ELEMENT, TYPE=SPRINGA, ELSET=WK_1272
   42793,    37166,    47403
*SPRING, ELSET=WK_1272

4.360209e-02
*ELEMENT, TYPE=SPRINGA, ELSET=WK_1273
   42794,    37170,    47404
*SPRING, ELSET=WK_1273

4.360209e-02
*ELEMENT, TYPE=SPRINGA, ELSET=WK_1274
   42795,    37174,    47405
*SPRING, ELSET=WK_1274

4.360209e-02
*ELEMENT, TYPE=SPRINGA, ELSET=WK_1275
   42796,    37178,    47406
*SPRING, ELSET=WK_1275

4.360209e-02
*ELEMENT, TYPE=SPRINGA, ELSET=WK_1276
   42797,    37182,    47407
*SPRING, ELSET=WK_1276

4.360209e-02
*ELEMENT, TYPE=SPRINGA, ELSET=WK_1277
   42798,    37186,    47408
*SPRING, ELSET=WK_1277

4.360209e-02
*ELEMENT, TYPE=SPRINGA, ELSET=WK_1278
   42799,    37190,    47409
*SPRING, ELSET=WK_1278

4.360209e-02
*ELEMENT, TYPE=SPRINGA, ELSET=WK_1279
   42800,    37194,    47410
*SPRING, ELSET=WK_1279

4.360209e-02
*ELEMENT, TYPE=SPRINGA, ELSET=WK_1280
   42801,    37198,    47411
*SPRING, ELSET=WK_1280

4.360209e-02
*ELEMENT, TYPE=SPRINGA, ELSET=WK_1281
   42802,    37202,    47412
*SPRING, ELSET=WK_1281

4.360209e-02
*ELEMENT, TYPE=SPRINGA, ELSET=WK_1282
   42803,    37206,    47413
*SPRING, ELSET=WK_1282

4.360209e-02
*ELEMENT, TYPE=SPRINGA, ELSET=WK_1283
   42804,    37210,    47414
*SPRING, ELSET=WK_1283

4.360209e-02
*ELEMENT, TYPE=SPRINGA, ELSET=WK_1284
   42805,    37214,    47415
*SPRING, ELSET=WK_1284

4.360209e-02
*ELEMENT, TYPE=SPRINGA, ELSET=WK_1285
   42806,    37218,    47416
*SPRING, ELSET=WK_1285

4.360209e-02
*ELEMENT, TYPE=SPRINGA, ELSET=WK_1286
   42807,    37222,    47417
*SPRING, ELSET=WK_1286

4.360209e-02
*ELEMENT, TYPE=SPRINGA, ELSET=WK_1287
   42808,    37226,    47418
*SPRING, ELSET=WK_1287

4.360209e-02
*ELEMENT, TYPE=SPRINGA, ELSET=WK_1288
   42809,    37230,    47419
*SPRING, ELSET=WK_1288

4.360209e-02
*ELEMENT, TYPE=SPRINGA, ELSET=WK_1289
   42810,    37234,    47420
*SPRING, ELSET=WK_1289

4.360209e-02
*ELEMENT, TYPE=SPRINGA, ELSET=WK_1290
   42811,    37238,    47421
*SPRING, ELSET=WK_1290

4.360209e-02
*ELEMENT, TYPE=SPRINGA, ELSET=WK_1291
   42812,    37242,    47422
*SPRING, ELSET=WK_1291

4.360209e-02
*ELEMENT, TYPE=SPRINGA, ELSET=WK_1292
   42813,    37246,    47423
*SPRING, ELSET=WK_1292

4.360209e-02
*ELEMENT, TYPE=SPRINGA, ELSET=WK_1293
   42814,    37250,    47424
*SPRING, ELSET=WK_1293

4.360209e-02
*ELEMENT, TYPE=SPRINGA, ELSET=WK_1294
   42815,    37254,    47425
*SPRING, ELSET=WK_1294

4.360209e-02
*ELEMENT, TYPE=SPRINGA, ELSET=WK_1295
   42816,    37258,    47426
*SPRING, ELSET=WK_1295

4.360209e-02
*ELEMENT, TYPE=SPRINGA, ELSET=WK_1296
   42817,    37262,    47427
*SPRING, ELSET=WK_1296

4.360209e-02
*ELEMENT, TYPE=SPRINGA, ELSET=WK_1297
   42818,    37266,    47428
*SPRING, ELSET=WK_1297

4.360209e-02
*ELEMENT, TYPE=SPRINGA, ELSET=WK_1298
   42819,    37270,    47429
*SPRING, ELSET=WK_1298

4.360209e-02
*ELEMENT, TYPE=SPRINGA, ELSET=WK_1299
   42820,    37274,    47430
*SPRING, ELSET=WK_1299

4.360209e-02
*ELEMENT, TYPE=SPRINGA, ELSET=WK_1300
   42821,    37278,    47431
*SPRING, ELSET=WK_1300

4.360209e-02
*ELEMENT, TYPE=SPRINGA, ELSET=WK_1301
   42822,    37282,    47432
*SPRING, ELSET=WK_1301

4.360209e-02
*ELEMENT, TYPE=SPRINGA, ELSET=WK_1302
   42823,    37286,    47433
*SPRING, ELSET=WK_1302

4.360209e-02
*ELEMENT, TYPE=SPRINGA, ELSET=WK_1303
   42824,    37290,    47434
*SPRING, ELSET=WK_1303

4.360209e-02
*ELEMENT, TYPE=SPRINGA, ELSET=WK_1304
   42825,    37294,    47435
*SPRING, ELSET=WK_1304

4.360209e-02
*ELEMENT, TYPE=SPRINGA, ELSET=WK_1305
   42826,    37298,    47436
*SPRING, ELSET=WK_1305

4.360209e-02
*ELEMENT, TYPE=SPRINGA, ELSET=WK_1306
   42827,    37302,    47437
*SPRING, ELSET=WK_1306

4.360209e-02
*ELEMENT, TYPE=SPRINGA, ELSET=WK_1307
   42828,    37306,    47438
*SPRING, ELSET=WK_1307

4.360209e-02
*ELEMENT, TYPE=SPRINGA, ELSET=WK_1308
   42829,    37310,    47439
*SPRING, ELSET=WK_1308

4.360209e-02
*ELEMENT, TYPE=SPRINGA, ELSET=WK_1309
   42830,    37314,    47440
*SPRING, ELSET=WK_1309

4.360209e-02
*ELEMENT, TYPE=SPRINGA, ELSET=WK_1310
   42831,    37318,    47441
*SPRING, ELSET=WK_1310

4.360209e-02
*ELEMENT, TYPE=SPRINGA, ELSET=WK_1311
   42832,    37322,    47442
*SPRING, ELSET=WK_1311

4.360209e-02
*ELEMENT, TYPE=SPRINGA, ELSET=WK_1312
   42833,    37326,    47443
*SPRING, ELSET=WK_1312

4.360209e-02
*ELEMENT, TYPE=SPRINGA, ELSET=WK_1313
   42834,    37330,    47444
*SPRING, ELSET=WK_1313

4.360209e-02
*ELEMENT, TYPE=SPRINGA, ELSET=WK_1314
   42835,    37334,    47445
*SPRING, ELSET=WK_1314

4.360209e-02
*ELEMENT, TYPE=SPRINGA, ELSET=WK_1315
   42836,    37338,    47446
*SPRING, ELSET=WK_1315

4.360209e-02
*ELEMENT, TYPE=SPRINGA, ELSET=WK_1316
   42837,    37342,    47447
*SPRING, ELSET=WK_1316

4.360209e-02
*ELEMENT, TYPE=SPRINGA, ELSET=WK_1317
   42838,    37346,    47448
*SPRING, ELSET=WK_1317

4.360209e-02
*ELEMENT, TYPE=SPRINGA, ELSET=WK_1318
   42839,    37350,    47449
*SPRING, ELSET=WK_1318

4.360209e-02
*ELEMENT, TYPE=SPRINGA, ELSET=WK_1319
   42840,    37354,    47450
*SPRING, ELSET=WK_1319

4.360209e-02
*ELEMENT, TYPE=SPRINGA, ELSET=WK_1320
   42841,    37358,    47451
*SPRING, ELSET=WK_1320

4.360209e-02
*ELEMENT, TYPE=SPRINGA, ELSET=WK_1321
   42842,    37362,    47452
*SPRING, ELSET=WK_1321

4.360209e-02
*ELEMENT, TYPE=SPRINGA, ELSET=WK_1322
   42843,    37366,    47453
*SPRING, ELSET=WK_1322

4.360209e-02
*ELEMENT, TYPE=SPRINGA, ELSET=WK_1323
   42844,    37370,    47454
*SPRING, ELSET=WK_1323

4.360209e-02
*ELEMENT, TYPE=SPRINGA, ELSET=WK_1324
   42845,    37374,    47455
*SPRING, ELSET=WK_1324

4.360209e-02
*ELEMENT, TYPE=SPRINGA, ELSET=WK_1325
   42846,    37378,    47456
*SPRING, ELSET=WK_1325

4.360209e-02
*ELEMENT, TYPE=SPRINGA, ELSET=WK_1326
   42847,    37382,    47457
*SPRING, ELSET=WK_1326

4.360209e-02
*ELEMENT, TYPE=SPRINGA, ELSET=WK_1327
   42848,    37386,    47458
*SPRING, ELSET=WK_1327

4.360209e-02
*ELEMENT, TYPE=SPRINGA, ELSET=WK_1328
   42849,    37390,    47459
*SPRING, ELSET=WK_1328

4.360209e-02
*ELEMENT, TYPE=SPRINGA, ELSET=WK_1329
   42850,    37394,    47460
*SPRING, ELSET=WK_1329

4.360209e-02
*ELEMENT, TYPE=SPRINGA, ELSET=WK_1330
   42851,    37398,    47461
*SPRING, ELSET=WK_1330

4.360209e-02
*ELEMENT, TYPE=SPRINGA, ELSET=WK_1331
   42852,    37402,    47462
*SPRING, ELSET=WK_1331

4.360209e-02
*ELEMENT, TYPE=SPRINGA, ELSET=WK_1332
   42853,    37406,    47463
*SPRING, ELSET=WK_1332

4.360209e-02
*ELEMENT, TYPE=SPRINGA, ELSET=WK_1333
   42854,    37410,    47464
*SPRING, ELSET=WK_1333

4.360209e-02
*ELEMENT, TYPE=SPRINGA, ELSET=WK_1334
   42855,    37414,    47465
*SPRING, ELSET=WK_1334

4.360209e-02
*ELEMENT, TYPE=SPRINGA, ELSET=WK_1335
   42856,    37418,    47466
*SPRING, ELSET=WK_1335

4.360209e-02
*ELEMENT, TYPE=SPRINGA, ELSET=WK_1336
   42857,    37422,    47467
*SPRING, ELSET=WK_1336

4.360209e-02
*ELEMENT, TYPE=SPRINGA, ELSET=WK_1337
   42858,    37426,    47468
*SPRING, ELSET=WK_1337

4.360209e-02
*ELEMENT, TYPE=SPRINGA, ELSET=WK_1338
   42859,    37430,    47469
*SPRING, ELSET=WK_1338

4.360209e-02
*ELEMENT, TYPE=SPRINGA, ELSET=WK_1339
   42860,    37434,    47470
*SPRING, ELSET=WK_1339

4.360209e-02
*ELEMENT, TYPE=SPRINGA, ELSET=WK_1340
   42861,    37438,    47471
*SPRING, ELSET=WK_1340

4.360209e-02
*ELEMENT, TYPE=SPRINGA, ELSET=WK_1341
   42862,    37442,    47472
*SPRING, ELSET=WK_1341

4.360209e-02
*ELEMENT, TYPE=SPRINGA, ELSET=WK_1342
   42863,    37446,    47473
*SPRING, ELSET=WK_1342

4.360209e-02
*ELEMENT, TYPE=SPRINGA, ELSET=WK_1343
   42864,    37450,    47474
*SPRING, ELSET=WK_1343

4.360209e-02
*ELEMENT, TYPE=SPRINGA, ELSET=WK_1344
   42865,    37454,    47475
*SPRING, ELSET=WK_1344

4.360209e-02
*ELEMENT, TYPE=SPRINGA, ELSET=WK_1345
   42866,    37458,    47476
*SPRING, ELSET=WK_1345

4.360209e-02
*ELEMENT, TYPE=SPRINGA, ELSET=WK_1346
   42867,    37462,    47477
*SPRING, ELSET=WK_1346

4.360209e-02
*ELEMENT, TYPE=SPRINGA, ELSET=WK_1347
   42868,    37466,    47478
*SPRING, ELSET=WK_1347

4.360209e-02
*ELEMENT, TYPE=SPRINGA, ELSET=WK_1348
   42869,    37470,    47479
*SPRING, ELSET=WK_1348

4.360209e-02
*ELEMENT, TYPE=SPRINGA, ELSET=WK_1349
   42870,    37474,    47480
*SPRING, ELSET=WK_1349

4.360209e-02
*ELEMENT, TYPE=SPRINGA, ELSET=WK_1350
   42871,    37478,    47481
*SPRING, ELSET=WK_1350

4.360209e-02
*ELEMENT, TYPE=SPRINGA, ELSET=WK_1351
   42872,    37482,    47482
*SPRING, ELSET=WK_1351

4.360209e-02
*ELEMENT, TYPE=SPRINGA, ELSET=WK_1352
   42873,    37486,    47483
*SPRING, ELSET=WK_1352

4.360209e-02
*ELEMENT, TYPE=SPRINGA, ELSET=WK_1353
   42874,    37490,    47484
*SPRING, ELSET=WK_1353

4.360209e-02
*ELEMENT, TYPE=SPRINGA, ELSET=WK_1354
   42875,    37494,    47485
*SPRING, ELSET=WK_1354

4.360209e-02
*ELEMENT, TYPE=SPRINGA, ELSET=WK_1355
   42876,    37498,    47486
*SPRING, ELSET=WK_1355

4.360209e-02
*ELEMENT, TYPE=SPRINGA, ELSET=WK_1356
   42877,    37502,    47487
*SPRING, ELSET=WK_1356

4.360209e-02
*ELEMENT, TYPE=SPRINGA, ELSET=WK_1357
   42878,    37506,    47488
*SPRING, ELSET=WK_1357

4.360209e-02
*ELEMENT, TYPE=SPRINGA, ELSET=WK_1358
   42879,    37510,    47489
*SPRING, ELSET=WK_1358

4.360209e-02
*ELEMENT, TYPE=SPRINGA, ELSET=WK_1359
   42880,    37514,    47490
*SPRING, ELSET=WK_1359

4.360209e-02
*ELEMENT, TYPE=SPRINGA, ELSET=WK_1360
   42881,    37518,    47491
*SPRING, ELSET=WK_1360

4.360209e-02
*ELEMENT, TYPE=SPRINGA, ELSET=WK_1361
   42882,    37522,    47492
*SPRING, ELSET=WK_1361

4.360209e-02
*ELEMENT, TYPE=SPRINGA, ELSET=WK_1362
   42883,    37526,    47493
*SPRING, ELSET=WK_1362

4.360209e-02
*ELEMENT, TYPE=SPRINGA, ELSET=WK_1363
   42884,    37530,    47494
*SPRING, ELSET=WK_1363

4.360209e-02
*ELEMENT, TYPE=SPRINGA, ELSET=WK_1364
   42885,    37534,    47495
*SPRING, ELSET=WK_1364

4.360209e-02
*ELEMENT, TYPE=SPRINGA, ELSET=WK_1365
   42886,    37538,    47496
*SPRING, ELSET=WK_1365

4.360209e-02
*ELEMENT, TYPE=SPRINGA, ELSET=WK_1366
   42887,    37542,    47497
*SPRING, ELSET=WK_1366

4.360209e-02
*ELEMENT, TYPE=SPRINGA, ELSET=WK_1367
   42888,    37546,    47498
*SPRING, ELSET=WK_1367

4.360209e-02
*ELEMENT, TYPE=SPRINGA, ELSET=WK_1368
   42889,    37550,    47499
*SPRING, ELSET=WK_1368

4.360209e-02
*ELEMENT, TYPE=SPRINGA, ELSET=WK_1369
   42890,    37554,    47500
*SPRING, ELSET=WK_1369

4.360209e-02
*ELEMENT, TYPE=SPRINGA, ELSET=WK_1370
   42891,    37558,    47501
*SPRING, ELSET=WK_1370

4.360209e-02
*ELEMENT, TYPE=SPRINGA, ELSET=WK_1371
   42892,    37562,    47502
*SPRING, ELSET=WK_1371

4.360209e-02
*ELEMENT, TYPE=SPRINGA, ELSET=WK_1372
   42893,    37566,    47503
*SPRING, ELSET=WK_1372

4.360209e-02
*ELEMENT, TYPE=SPRINGA, ELSET=WK_1373
   42894,    37570,    47504
*SPRING, ELSET=WK_1373

4.360209e-02
*ELEMENT, TYPE=SPRINGA, ELSET=WK_1374
   42895,    37574,    47505
*SPRING, ELSET=WK_1374

4.360209e-02
*ELEMENT, TYPE=SPRINGA, ELSET=WK_1375
   42896,    37578,    47506
*SPRING, ELSET=WK_1375

4.360209e-02
*ELEMENT, TYPE=SPRINGA, ELSET=WK_1376
   42897,    37582,    47507
*SPRING, ELSET=WK_1376

4.360209e-02
*ELEMENT, TYPE=SPRINGA, ELSET=WK_1377
   42898,    37586,    47508
*SPRING, ELSET=WK_1377

4.360209e-02
*ELEMENT, TYPE=SPRINGA, ELSET=WK_1378
   42899,    37590,    47509
*SPRING, ELSET=WK_1378

4.360209e-02
*ELEMENT, TYPE=SPRINGA, ELSET=WK_1379
   42900,    37594,    47510
*SPRING, ELSET=WK_1379

4.360209e-02
*ELEMENT, TYPE=SPRINGA, ELSET=WK_1380
   42901,    37598,    47511
*SPRING, ELSET=WK_1380

4.360209e-02
*ELEMENT, TYPE=SPRINGA, ELSET=WK_1381
   42902,    37602,    47512
*SPRING, ELSET=WK_1381

4.360209e-02
*ELEMENT, TYPE=SPRINGA, ELSET=WK_1382
   42903,    37606,    47513
*SPRING, ELSET=WK_1382

4.360209e-02
*ELEMENT, TYPE=SPRINGA, ELSET=WK_1383
   42904,    37610,    47514
*SPRING, ELSET=WK_1383

4.360209e-02
*ELEMENT, TYPE=SPRINGA, ELSET=WK_1384
   42905,    37614,    47515
*SPRING, ELSET=WK_1384

4.360209e-02
*ELEMENT, TYPE=SPRINGA, ELSET=WK_1385
   42906,    37618,    47516
*SPRING, ELSET=WK_1385

4.360209e-02
*ELEMENT, TYPE=SPRINGA, ELSET=WK_1386
   42907,    37622,    47517
*SPRING, ELSET=WK_1386

4.360209e-02
*ELEMENT, TYPE=SPRINGA, ELSET=WK_1387
   42908,    37626,    47518
*SPRING, ELSET=WK_1387

4.360209e-02
*ELEMENT, TYPE=SPRINGA, ELSET=WK_1388
   42909,    37630,    47519
*SPRING, ELSET=WK_1388

4.360209e-02
*ELEMENT, TYPE=SPRINGA, ELSET=WK_1389
   42910,    37634,    47520
*SPRING, ELSET=WK_1389

4.360209e-02
*ELEMENT, TYPE=SPRINGA, ELSET=WK_1390
   42911,    37638,    47521
*SPRING, ELSET=WK_1390

4.360209e-02
*ELEMENT, TYPE=SPRINGA, ELSET=WK_1391
   42912,    37642,    47522
*SPRING, ELSET=WK_1391

4.360209e-02
*ELEMENT, TYPE=SPRINGA, ELSET=WK_1392
   42913,    37646,    47523
*SPRING, ELSET=WK_1392

4.360209e-02
*ELEMENT, TYPE=SPRINGA, ELSET=WK_1393
   42914,    37650,    47524
*SPRING, ELSET=WK_1393

4.360209e-02
*ELEMENT, TYPE=SPRINGA, ELSET=WK_1394
   42915,    37654,    47525
*SPRING, ELSET=WK_1394

4.360209e-02
*ELEMENT, TYPE=SPRINGA, ELSET=WK_1395
   42916,    37658,    47526
*SPRING, ELSET=WK_1395

4.360209e-02
*ELEMENT, TYPE=SPRINGA, ELSET=WK_1396
   42917,    37662,    47527
*SPRING, ELSET=WK_1396

4.360209e-02
*ELEMENT, TYPE=SPRINGA, ELSET=WK_1397
   42918,    37666,    47528
*SPRING, ELSET=WK_1397

4.360209e-02
*ELEMENT, TYPE=SPRINGA, ELSET=WK_1398
   42919,    37670,    47529
*SPRING, ELSET=WK_1398

4.360209e-02
*ELEMENT, TYPE=SPRINGA, ELSET=WK_1399
   42920,    37674,    47530
*SPRING, ELSET=WK_1399

4.360209e-02
*ELEMENT, TYPE=SPRINGA, ELSET=WK_1400
   42921,    37678,    47531
*SPRING, ELSET=WK_1400

4.360209e-02
*ELEMENT, TYPE=SPRINGA, ELSET=WK_1401
   42922,    37682,    47532
*SPRING, ELSET=WK_1401

4.360209e-02
*ELEMENT, TYPE=SPRINGA, ELSET=WK_1402
   42923,    37686,    47533
*SPRING, ELSET=WK_1402

4.360209e-02
*ELEMENT, TYPE=SPRINGA, ELSET=WK_1403
   42924,    37690,    47534
*SPRING, ELSET=WK_1403

4.360209e-02
*ELEMENT, TYPE=SPRINGA, ELSET=WK_1404
   42925,    37694,    47535
*SPRING, ELSET=WK_1404

4.360209e-02
*ELEMENT, TYPE=SPRINGA, ELSET=WK_1405
   42926,    37698,    47536
*SPRING, ELSET=WK_1405

4.360209e-02
*ELEMENT, TYPE=SPRINGA, ELSET=WK_1406
   42927,    37702,    47537
*SPRING, ELSET=WK_1406

4.360209e-02
*ELEMENT, TYPE=SPRINGA, ELSET=WK_1407
   42928,    37706,    47538
*SPRING, ELSET=WK_1407

4.360209e-02
*ELEMENT, TYPE=SPRINGA, ELSET=WK_1408
   42929,    37710,    47539
*SPRING, ELSET=WK_1408

4.360209e-02
*ELEMENT, TYPE=SPRINGA, ELSET=WK_1409
   42930,    37714,    47540
*SPRING, ELSET=WK_1409

4.360209e-02
*ELEMENT, TYPE=SPRINGA, ELSET=WK_1410
   42931,    37718,    47541
*SPRING, ELSET=WK_1410

4.360209e-02
*ELEMENT, TYPE=SPRINGA, ELSET=WK_1411
   42932,    37722,    47542
*SPRING, ELSET=WK_1411

4.360209e-02
*ELEMENT, TYPE=SPRINGA, ELSET=WK_1412
   42933,    37726,    47543
*SPRING, ELSET=WK_1412

4.360209e-02
*ELEMENT, TYPE=SPRINGA, ELSET=WK_1413
   42934,    37730,    47544
*SPRING, ELSET=WK_1413

4.360209e-02
*ELEMENT, TYPE=SPRINGA, ELSET=WK_1414
   42935,    37734,    47545
*SPRING, ELSET=WK_1414

4.360209e-02
*ELEMENT, TYPE=SPRINGA, ELSET=WK_1415
   42936,    37738,    47546
*SPRING, ELSET=WK_1415

4.360209e-02
*ELEMENT, TYPE=SPRINGA, ELSET=WK_1416
   42937,    37742,    47547
*SPRING, ELSET=WK_1416

4.360209e-02
*ELEMENT, TYPE=SPRINGA, ELSET=WK_1417
   42938,    37746,    47548
*SPRING, ELSET=WK_1417

4.360209e-02
*ELEMENT, TYPE=SPRINGA, ELSET=WK_1418
   42939,    37750,    47549
*SPRING, ELSET=WK_1418

4.360209e-02
*ELEMENT, TYPE=SPRINGA, ELSET=WK_1419
   42940,    37754,    47550
*SPRING, ELSET=WK_1419

4.360209e-02
*ELEMENT, TYPE=SPRINGA, ELSET=WK_1420
   42941,    37758,    47551
*SPRING, ELSET=WK_1420

4.360209e-02
*ELEMENT, TYPE=SPRINGA, ELSET=WK_1421
   42942,    37762,    47552
*SPRING, ELSET=WK_1421

4.360209e-02
*ELEMENT, TYPE=SPRINGA, ELSET=WK_1422
   42943,    37766,    47553
*SPRING, ELSET=WK_1422

4.360209e-02
*ELEMENT, TYPE=SPRINGA, ELSET=WK_1423
   42944,    37770,    47554
*SPRING, ELSET=WK_1423

4.360209e-02
*ELEMENT, TYPE=SPRINGA, ELSET=WK_1424
   42945,    37774,    47555
*SPRING, ELSET=WK_1424

4.360209e-02
*ELEMENT, TYPE=SPRINGA, ELSET=WK_1425
   42946,    37778,    47556
*SPRING, ELSET=WK_1425

4.360209e-02
*ELEMENT, TYPE=SPRINGA, ELSET=WK_1426
   42947,    37782,    47557
*SPRING, ELSET=WK_1426

4.360209e-02
*ELEMENT, TYPE=SPRINGA, ELSET=WK_1427
   42948,    37786,    47558
*SPRING, ELSET=WK_1427

4.360209e-02
*ELEMENT, TYPE=SPRINGA, ELSET=WK_1428
   42949,    37790,    47559
*SPRING, ELSET=WK_1428

4.360209e-02
*ELEMENT, TYPE=SPRINGA, ELSET=WK_1429
   42950,    37794,    47560
*SPRING, ELSET=WK_1429

4.360209e-02
*ELEMENT, TYPE=SPRINGA, ELSET=WK_1430
   42951,    37798,    47561
*SPRING, ELSET=WK_1430

4.360209e-02
*ELEMENT, TYPE=SPRINGA, ELSET=WK_1431
   42952,    37802,    47562
*SPRING, ELSET=WK_1431

4.360209e-02
*ELEMENT, TYPE=SPRINGA, ELSET=WK_1432
   42953,    37806,    47563
*SPRING, ELSET=WK_1432

4.360209e-02
*ELEMENT, TYPE=SPRINGA, ELSET=WK_1433
   42954,    37810,    47564
*SPRING, ELSET=WK_1433

4.360209e-02
*ELEMENT, TYPE=SPRINGA, ELSET=WK_1434
   42955,    37814,    47565
*SPRING, ELSET=WK_1434

4.360209e-02
*ELEMENT, TYPE=SPRINGA, ELSET=WK_1435
   42956,    37818,    47566
*SPRING, ELSET=WK_1435

4.360209e-02
*ELEMENT, TYPE=SPRINGA, ELSET=WK_1436
   42957,    37822,    47567
*SPRING, ELSET=WK_1436

4.360209e-02
*ELEMENT, TYPE=SPRINGA, ELSET=WK_1437
   42958,    37826,    47568
*SPRING, ELSET=WK_1437

4.360209e-02
*ELEMENT, TYPE=SPRINGA, ELSET=WK_1438
   42959,    37830,    47569
*SPRING, ELSET=WK_1438

4.360209e-02
*ELEMENT, TYPE=SPRINGA, ELSET=WK_1439
   42960,    37834,    47570
*SPRING, ELSET=WK_1439

4.360209e-02
*ELEMENT, TYPE=SPRINGA, ELSET=WK_1440
   42961,    37838,    47571
*SPRING, ELSET=WK_1440

4.360209e-02
*ELEMENT, TYPE=SPRINGA, ELSET=WK_1441
   42962,    37842,    47572
*SPRING, ELSET=WK_1441

4.360209e-02
*ELEMENT, TYPE=SPRINGA, ELSET=WK_1442
   42963,    37846,    47573
*SPRING, ELSET=WK_1442

4.360209e-02
*ELEMENT, TYPE=SPRINGA, ELSET=WK_1443
   42964,    37850,    47574
*SPRING, ELSET=WK_1443

4.360209e-02
*ELEMENT, TYPE=SPRINGA, ELSET=WK_1444
   42965,    37854,    47575
*SPRING, ELSET=WK_1444

4.360209e-02
*ELEMENT, TYPE=SPRINGA, ELSET=WK_1445
   42966,    37858,    47576
*SPRING, ELSET=WK_1445

4.360209e-02
*ELEMENT, TYPE=SPRINGA, ELSET=WK_1446
   42967,    37862,    47577
*SPRING, ELSET=WK_1446

4.360209e-02
*ELEMENT, TYPE=SPRINGA, ELSET=WK_1447
   42968,    37866,    47578
*SPRING, ELSET=WK_1447

4.360209e-02
*ELEMENT, TYPE=SPRINGA, ELSET=WK_1448
   42969,    37870,    47579
*SPRING, ELSET=WK_1448

4.360209e-02
*ELEMENT, TYPE=SPRINGA, ELSET=WK_1449
   42970,    37874,    47580
*SPRING, ELSET=WK_1449

4.360209e-02
*ELEMENT, TYPE=SPRINGA, ELSET=WK_1450
   42971,    37878,    47581
*SPRING, ELSET=WK_1450

4.360209e-02
*ELEMENT, TYPE=SPRINGA, ELSET=WK_1451
   42972,    37882,    47582
*SPRING, ELSET=WK_1451

4.360209e-02
*ELEMENT, TYPE=SPRINGA, ELSET=WK_1452
   42973,    37886,    47583
*SPRING, ELSET=WK_1452

4.360209e-02
*ELEMENT, TYPE=SPRINGA, ELSET=WK_1453
   42974,    37890,    47584
*SPRING, ELSET=WK_1453

4.360209e-02
*ELEMENT, TYPE=SPRINGA, ELSET=WK_1454
   42975,    37894,    47585
*SPRING, ELSET=WK_1454

4.360209e-02
*ELEMENT, TYPE=SPRINGA, ELSET=WK_1455
   42976,    37898,    47586
*SPRING, ELSET=WK_1455

4.360209e-02
*ELEMENT, TYPE=SPRINGA, ELSET=WK_1456
   42977,    37902,    47587
*SPRING, ELSET=WK_1456

4.360209e-02
*ELEMENT, TYPE=SPRINGA, ELSET=WK_1457
   42978,    37906,    47588
*SPRING, ELSET=WK_1457

4.360209e-02
*ELEMENT, TYPE=SPRINGA, ELSET=WK_1458
   42979,    37910,    47589
*SPRING, ELSET=WK_1458

4.360209e-02
*ELEMENT, TYPE=SPRINGA, ELSET=WK_1459
   42980,    37914,    47590
*SPRING, ELSET=WK_1459

4.360209e-02
*ELEMENT, TYPE=SPRINGA, ELSET=WK_1460
   42981,    37918,    47591
*SPRING, ELSET=WK_1460

4.360209e-02
*ELEMENT, TYPE=SPRINGA, ELSET=WK_1461
   42982,    37922,    47592
*SPRING, ELSET=WK_1461

4.360209e-02
*ELEMENT, TYPE=SPRINGA, ELSET=WK_1462
   42983,    37926,    47593
*SPRING, ELSET=WK_1462

4.360209e-02
*ELEMENT, TYPE=SPRINGA, ELSET=WK_1463
   42984,    37930,    47594
*SPRING, ELSET=WK_1463

4.360209e-02
*ELEMENT, TYPE=SPRINGA, ELSET=WK_1464
   42985,    37934,    47595
*SPRING, ELSET=WK_1464

4.360209e-02
*ELEMENT, TYPE=SPRINGA, ELSET=WK_1465
   42986,    37938,    47596
*SPRING, ELSET=WK_1465

4.360209e-02
*ELEMENT, TYPE=SPRINGA, ELSET=WK_1466
   42987,    37942,    47597
*SPRING, ELSET=WK_1466

4.360209e-02
*ELEMENT, TYPE=SPRINGA, ELSET=WK_1467
   42988,    37946,    47598
*SPRING, ELSET=WK_1467

4.360209e-02
*ELEMENT, TYPE=SPRINGA, ELSET=WK_1468
   42989,    37950,    47599
*SPRING, ELSET=WK_1468

4.360209e-02
*ELEMENT, TYPE=SPRINGA, ELSET=WK_1469
   42990,    37954,    47600
*SPRING, ELSET=WK_1469

4.360209e-02
*ELEMENT, TYPE=SPRINGA, ELSET=WK_1470
   42991,    37958,    47601
*SPRING, ELSET=WK_1470

4.360209e-02
*ELEMENT, TYPE=SPRINGA, ELSET=WK_1471
   42992,    37962,    47602
*SPRING, ELSET=WK_1471

4.360209e-02
*ELEMENT, TYPE=SPRINGA, ELSET=WK_1472
   42993,    37966,    47603
*SPRING, ELSET=WK_1472

4.360209e-02
*ELEMENT, TYPE=SPRINGA, ELSET=WK_1473
   42994,    37970,    47604
*SPRING, ELSET=WK_1473

4.360209e-02
*ELEMENT, TYPE=SPRINGA, ELSET=WK_1474
   42995,    37974,    47605
*SPRING, ELSET=WK_1474

4.360209e-02
*ELEMENT, TYPE=SPRINGA, ELSET=WK_1475
   42996,    37978,    47606
*SPRING, ELSET=WK_1475

4.360209e-02
*ELEMENT, TYPE=SPRINGA, ELSET=WK_1476
   42997,    37982,    47607
*SPRING, ELSET=WK_1476

4.360209e-02
*ELEMENT, TYPE=SPRINGA, ELSET=WK_1477
   42998,    37986,    47608
*SPRING, ELSET=WK_1477

4.360209e-02
*ELEMENT, TYPE=SPRINGA, ELSET=WK_1478
   42999,    37990,    47609
*SPRING, ELSET=WK_1478

4.360209e-02
*ELEMENT, TYPE=SPRINGA, ELSET=WK_1479
   43000,    37994,    47610
*SPRING, ELSET=WK_1479

4.360209e-02
*ELEMENT, TYPE=SPRINGA, ELSET=WK_1480
   43001,    37998,    47611
*SPRING, ELSET=WK_1480

4.360209e-02
*ELEMENT, TYPE=SPRINGA, ELSET=WK_1481
   43002,    38002,    47612
*SPRING, ELSET=WK_1481

4.360209e-02
*ELEMENT, TYPE=SPRINGA, ELSET=WK_1482
   43003,    38006,    47613
*SPRING, ELSET=WK_1482

4.360209e-02
*ELEMENT, TYPE=SPRINGA, ELSET=WK_1483
   43004,    38010,    47614
*SPRING, ELSET=WK_1483

4.360209e-02
*ELEMENT, TYPE=SPRINGA, ELSET=WK_1484
   43005,    38014,    47615
*SPRING, ELSET=WK_1484

4.360209e-02
*ELEMENT, TYPE=SPRINGA, ELSET=WK_1485
   43006,    38018,    47616
*SPRING, ELSET=WK_1485

4.360209e-02
*ELEMENT, TYPE=SPRINGA, ELSET=WK_1486
   43007,    38022,    47617
*SPRING, ELSET=WK_1486

4.360209e-02
*ELEMENT, TYPE=SPRINGA, ELSET=WK_1487
   43008,    38026,    47618
*SPRING, ELSET=WK_1487

4.360209e-02
*ELEMENT, TYPE=SPRINGA, ELSET=WK_1488
   43009,    38030,    47619
*SPRING, ELSET=WK_1488

4.360209e-02
*ELEMENT, TYPE=SPRINGA, ELSET=WK_1489
   43010,    38034,    47620
*SPRING, ELSET=WK_1489

4.360209e-02
*ELEMENT, TYPE=SPRINGA, ELSET=WK_1490
   43011,    38038,    47621
*SPRING, ELSET=WK_1490

4.360209e-02
*ELEMENT, TYPE=SPRINGA, ELSET=WK_1491
   43012,    38042,    47622
*SPRING, ELSET=WK_1491

4.360209e-02
*ELEMENT, TYPE=SPRINGA, ELSET=WK_1492
   43013,    38046,    47623
*SPRING, ELSET=WK_1492

4.360209e-02
*ELEMENT, TYPE=SPRINGA, ELSET=WK_1493
   43014,    38050,    47624
*SPRING, ELSET=WK_1493

4.360209e-02
*ELEMENT, TYPE=SPRINGA, ELSET=WK_1494
   43015,    38054,    47625
*SPRING, ELSET=WK_1494

4.360209e-02
*ELEMENT, TYPE=SPRINGA, ELSET=WK_1495
   43016,    38058,    47626
*SPRING, ELSET=WK_1495

4.360209e-02
*ELEMENT, TYPE=SPRINGA, ELSET=WK_1496
   43017,    38062,    47627
*SPRING, ELSET=WK_1496

4.360209e-02
*ELEMENT, TYPE=SPRINGA, ELSET=WK_1497
   43018,    38066,    47628
*SPRING, ELSET=WK_1497

4.360209e-02
*ELEMENT, TYPE=SPRINGA, ELSET=WK_1498
   43019,    38070,    47629
*SPRING, ELSET=WK_1498

4.360209e-02
*ELEMENT, TYPE=SPRINGA, ELSET=WK_1499
   43020,    38074,    47630
*SPRING, ELSET=WK_1499

4.360209e-02
*ELEMENT, TYPE=SPRINGA, ELSET=WK_1500
   43021,    38078,    47631
*SPRING, ELSET=WK_1500

4.360209e-02
*ELEMENT, TYPE=SPRINGA, ELSET=WK_1501
   43022,    38082,    47632
*SPRING, ELSET=WK_1501

4.360209e-02
*ELEMENT, TYPE=SPRINGA, ELSET=WK_1502
   43023,    38086,    47633
*SPRING, ELSET=WK_1502

4.360209e-02
*ELEMENT, TYPE=SPRINGA, ELSET=WK_1503
   43024,    38090,    47634
*SPRING, ELSET=WK_1503

4.360209e-02
*ELEMENT, TYPE=SPRINGA, ELSET=WK_1504
   43025,    38094,    47635
*SPRING, ELSET=WK_1504

4.360209e-02
*ELEMENT, TYPE=SPRINGA, ELSET=WK_1505
   43026,    38098,    47636
*SPRING, ELSET=WK_1505

4.360209e-02
*ELEMENT, TYPE=SPRINGA, ELSET=WK_1506
   43027,    38102,    47637
*SPRING, ELSET=WK_1506

4.360209e-02
*ELEMENT, TYPE=SPRINGA, ELSET=WK_1507
   43028,    38106,    47638
*SPRING, ELSET=WK_1507

4.360209e-02
*ELEMENT, TYPE=SPRINGA, ELSET=WK_1508
   43029,    38110,    47639
*SPRING, ELSET=WK_1508

4.360209e-02
*ELEMENT, TYPE=SPRINGA, ELSET=WK_1509
   43030,    38114,    47640
*SPRING, ELSET=WK_1509

4.360209e-02
*ELEMENT, TYPE=SPRINGA, ELSET=WK_1510
   43031,    38118,    47641
*SPRING, ELSET=WK_1510

4.360209e-02
*ELEMENT, TYPE=SPRINGA, ELSET=WK_1511
   43032,    38122,    47642
*SPRING, ELSET=WK_1511

4.360209e-02
*ELEMENT, TYPE=SPRINGA, ELSET=WK_1512
   43033,    38126,    47643
*SPRING, ELSET=WK_1512

4.360209e-02
*ELEMENT, TYPE=SPRINGA, ELSET=WK_1513
   43034,    38130,    47644
*SPRING, ELSET=WK_1513

4.360209e-02
*ELEMENT, TYPE=SPRINGA, ELSET=WK_1514
   43035,    38134,    47645
*SPRING, ELSET=WK_1514

4.360209e-02
*ELEMENT, TYPE=SPRINGA, ELSET=WK_1515
   43036,    38138,    47646
*SPRING, ELSET=WK_1515

4.360209e-02
*ELEMENT, TYPE=SPRINGA, ELSET=WK_1516
   43037,    38142,    47647
*SPRING, ELSET=WK_1516

4.360209e-02
*ELEMENT, TYPE=SPRINGA, ELSET=WK_1517
   43038,    38146,    47648
*SPRING, ELSET=WK_1517

4.360209e-02
*ELEMENT, TYPE=SPRINGA, ELSET=WK_1518
   43039,    38150,    47649
*SPRING, ELSET=WK_1518

4.360209e-02
*ELEMENT, TYPE=SPRINGA, ELSET=WK_1519
   43040,    38154,    47650
*SPRING, ELSET=WK_1519

4.360209e-02
*ELEMENT, TYPE=SPRINGA, ELSET=WK_1520
   43041,    38158,    47651
*SPRING, ELSET=WK_1520

4.360209e-02
*ELEMENT, TYPE=SPRINGA, ELSET=WK_1521
   43042,    38162,    47652
*SPRING, ELSET=WK_1521

4.360209e-02
*ELEMENT, TYPE=SPRINGA, ELSET=WK_1522
   43043,    38166,    47653
*SPRING, ELSET=WK_1522

4.360209e-02
*ELEMENT, TYPE=SPRINGA, ELSET=WK_1523
   43044,    38170,    47654
*SPRING, ELSET=WK_1523

4.360209e-02
*ELEMENT, TYPE=SPRINGA, ELSET=WK_1524
   43045,    38174,    47655
*SPRING, ELSET=WK_1524

4.360209e-02
*ELEMENT, TYPE=SPRINGA, ELSET=WK_1525
   43046,    38178,    47656
*SPRING, ELSET=WK_1525

4.360209e-02
*ELEMENT, TYPE=SPRINGA, ELSET=WK_1526
   43047,    38182,    47657
*SPRING, ELSET=WK_1526

4.360209e-02
*ELEMENT, TYPE=SPRINGA, ELSET=WK_1527
   43048,    38186,    47658
*SPRING, ELSET=WK_1527

4.360209e-02
*ELEMENT, TYPE=SPRINGA, ELSET=WK_1528
   43049,    38190,    47659
*SPRING, ELSET=WK_1528

4.360209e-02
*ELEMENT, TYPE=SPRINGA, ELSET=WK_1529
   43050,    38194,    47660
*SPRING, ELSET=WK_1529

4.360209e-02
*ELEMENT, TYPE=SPRINGA, ELSET=WK_1530
   43051,    38198,    47661
*SPRING, ELSET=WK_1530

4.360209e-02
*ELEMENT, TYPE=SPRINGA, ELSET=WK_1531
   43052,    38202,    47662
*SPRING, ELSET=WK_1531

4.360209e-02
*ELEMENT, TYPE=SPRINGA, ELSET=WK_1532
   43053,    38206,    47663
*SPRING, ELSET=WK_1532

4.360209e-02
*ELEMENT, TYPE=SPRINGA, ELSET=WK_1533
   43054,    38210,    47664
*SPRING, ELSET=WK_1533

4.360209e-02
*ELEMENT, TYPE=SPRINGA, ELSET=WK_1534
   43055,    38214,    47665
*SPRING, ELSET=WK_1534

4.360209e-02
*ELEMENT, TYPE=SPRINGA, ELSET=WK_1535
   43056,    38218,    47666
*SPRING, ELSET=WK_1535

4.360209e-02
*ELEMENT, TYPE=SPRINGA, ELSET=WK_1536
   43057,    38222,    47667
*SPRING, ELSET=WK_1536

4.360209e-02
*ELEMENT, TYPE=SPRINGA, ELSET=WK_1537
   43058,    38226,    47668
*SPRING, ELSET=WK_1537

4.360209e-02
*ELEMENT, TYPE=SPRINGA, ELSET=WK_1538
   43059,    38230,    47669
*SPRING, ELSET=WK_1538

4.360209e-02
*ELEMENT, TYPE=SPRINGA, ELSET=WK_1539
   43060,    38234,    47670
*SPRING, ELSET=WK_1539

4.360209e-02
*ELEMENT, TYPE=SPRINGA, ELSET=WK_1540
   43061,    38238,    47671
*SPRING, ELSET=WK_1540

4.360209e-02
*ELEMENT, TYPE=SPRINGA, ELSET=WK_1541
   43062,    38242,    47672
*SPRING, ELSET=WK_1541

4.360209e-02
*ELEMENT, TYPE=SPRINGA, ELSET=WK_1542
   43063,    38246,    47673
*SPRING, ELSET=WK_1542

4.360209e-02
*ELEMENT, TYPE=SPRINGA, ELSET=WK_1543
   43064,    38250,    47674
*SPRING, ELSET=WK_1543

4.360209e-02
*ELEMENT, TYPE=SPRINGA, ELSET=WK_1544
   43065,    38254,    47675
*SPRING, ELSET=WK_1544

4.360209e-02
*ELEMENT, TYPE=SPRINGA, ELSET=WK_1545
   43066,    38258,    47676
*SPRING, ELSET=WK_1545

4.360209e-02
*ELEMENT, TYPE=SPRINGA, ELSET=WK_1546
   43067,    38262,    47677
*SPRING, ELSET=WK_1546

4.360209e-02
*ELEMENT, TYPE=SPRINGA, ELSET=WK_1547
   43068,    38266,    47678
*SPRING, ELSET=WK_1547

4.360209e-02
*ELEMENT, TYPE=SPRINGA, ELSET=WK_1548
   43069,    38270,    47679
*SPRING, ELSET=WK_1548

4.360209e-02
*ELEMENT, TYPE=SPRINGA, ELSET=WK_1549
   43070,    38274,    47680
*SPRING, ELSET=WK_1549

4.360209e-02
*ELEMENT, TYPE=SPRINGA, ELSET=WK_1550
   43071,    38278,    47681
*SPRING, ELSET=WK_1550

4.360209e-02
*ELEMENT, TYPE=SPRINGA, ELSET=WK_1551
   43072,    38282,    47682
*SPRING, ELSET=WK_1551

4.360209e-02
*ELEMENT, TYPE=SPRINGA, ELSET=WK_1552
   43073,    38286,    47683
*SPRING, ELSET=WK_1552

4.360209e-02
*ELEMENT, TYPE=SPRINGA, ELSET=WK_1553
   43074,    38290,    47684
*SPRING, ELSET=WK_1553

4.360209e-02
*ELEMENT, TYPE=SPRINGA, ELSET=WK_1554
   43075,    38294,    47685
*SPRING, ELSET=WK_1554

4.360209e-02
*ELEMENT, TYPE=SPRINGA, ELSET=WK_1555
   43076,    38298,    47686
*SPRING, ELSET=WK_1555

4.360209e-02
*ELEMENT, TYPE=SPRINGA, ELSET=WK_1556
   43077,    38302,    47687
*SPRING, ELSET=WK_1556

4.360209e-02
*ELEMENT, TYPE=SPRINGA, ELSET=WK_1557
   43078,    38306,    47688
*SPRING, ELSET=WK_1557

4.360209e-02
*ELEMENT, TYPE=SPRINGA, ELSET=WK_1558
   43079,    38310,    47689
*SPRING, ELSET=WK_1558

4.360209e-02
*ELEMENT, TYPE=SPRINGA, ELSET=WK_1559
   43080,    38314,    47690
*SPRING, ELSET=WK_1559

4.360209e-02
*ELEMENT, TYPE=SPRINGA, ELSET=WK_1560
   43081,    38318,    47691
*SPRING, ELSET=WK_1560

4.360209e-02
*ELEMENT, TYPE=SPRINGA, ELSET=WK_1561
   43082,    38322,    47692
*SPRING, ELSET=WK_1561

4.360209e-02
*ELEMENT, TYPE=SPRINGA, ELSET=WK_1562
   43083,    38326,    47693
*SPRING, ELSET=WK_1562

4.360209e-02
*ELEMENT, TYPE=SPRINGA, ELSET=WK_1563
   43084,    38330,    47694
*SPRING, ELSET=WK_1563

4.360209e-02
*ELEMENT, TYPE=SPRINGA, ELSET=WK_1564
   43085,    38334,    47695
*SPRING, ELSET=WK_1564

4.360209e-02
*ELEMENT, TYPE=SPRINGA, ELSET=WK_1565
   43086,    38338,    47696
*SPRING, ELSET=WK_1565

4.360209e-02
*ELEMENT, TYPE=SPRINGA, ELSET=WK_1566
   43087,    38342,    47697
*SPRING, ELSET=WK_1566

4.360209e-02
*ELEMENT, TYPE=SPRINGA, ELSET=WK_1567
   43088,    38346,    47698
*SPRING, ELSET=WK_1567

4.360209e-02
*ELEMENT, TYPE=SPRINGA, ELSET=WK_1568
   43089,    38350,    47699
*SPRING, ELSET=WK_1568

4.360209e-02
*ELEMENT, TYPE=SPRINGA, ELSET=WK_1569
   43090,    38354,    47700
*SPRING, ELSET=WK_1569

4.360209e-02
*ELEMENT, TYPE=SPRINGA, ELSET=WK_1570
   43091,    38358,    47701
*SPRING, ELSET=WK_1570

4.360209e-02
*ELEMENT, TYPE=SPRINGA, ELSET=WK_1571
   43092,    38362,    47702
*SPRING, ELSET=WK_1571

4.360209e-02
*ELEMENT, TYPE=SPRINGA, ELSET=WK_1572
   43093,    38366,    47703
*SPRING, ELSET=WK_1572

4.360209e-02
*ELEMENT, TYPE=SPRINGA, ELSET=WK_1573
   43094,    38370,    47704
*SPRING, ELSET=WK_1573

4.360209e-02
*ELEMENT, TYPE=SPRINGA, ELSET=WK_1574
   43095,    38374,    47705
*SPRING, ELSET=WK_1574

4.360209e-02
*ELEMENT, TYPE=SPRINGA, ELSET=WK_1575
   43096,    38378,    47706
*SPRING, ELSET=WK_1575

4.360209e-02
*ELEMENT, TYPE=SPRINGA, ELSET=WK_1576
   43097,    38382,    47707
*SPRING, ELSET=WK_1576

4.360209e-02
*ELEMENT, TYPE=SPRINGA, ELSET=WK_1577
   43098,    38386,    47708
*SPRING, ELSET=WK_1577

4.360209e-02
*ELEMENT, TYPE=SPRINGA, ELSET=WK_1578
   43099,    38390,    47709
*SPRING, ELSET=WK_1578

4.360209e-02
*ELEMENT, TYPE=SPRINGA, ELSET=WK_1579
   43100,    38394,    47710
*SPRING, ELSET=WK_1579

4.360209e-02
*ELEMENT, TYPE=SPRINGA, ELSET=WK_1580
   43101,    38398,    47711
*SPRING, ELSET=WK_1580

4.360209e-02
*ELEMENT, TYPE=SPRINGA, ELSET=WK_1581
   43102,    38402,    47712
*SPRING, ELSET=WK_1581

4.360209e-02
*ELEMENT, TYPE=SPRINGA, ELSET=WK_1582
   43103,    38406,    47713
*SPRING, ELSET=WK_1582

4.360209e-02
*ELEMENT, TYPE=SPRINGA, ELSET=WK_1583
   43104,    38410,    47714
*SPRING, ELSET=WK_1583

4.360209e-02
*ELEMENT, TYPE=SPRINGA, ELSET=WK_1584
   43105,    38414,    47715
*SPRING, ELSET=WK_1584

4.360209e-02
*ELEMENT, TYPE=SPRINGA, ELSET=WK_1585
   43106,    38418,    47716
*SPRING, ELSET=WK_1585

4.360209e-02
*ELEMENT, TYPE=SPRINGA, ELSET=WK_1586
   43107,    38422,    47717
*SPRING, ELSET=WK_1586

4.360209e-02
*ELEMENT, TYPE=SPRINGA, ELSET=WK_1587
   43108,    38426,    47718
*SPRING, ELSET=WK_1587

4.360209e-02
*ELEMENT, TYPE=SPRINGA, ELSET=WK_1588
   43109,    38430,    47719
*SPRING, ELSET=WK_1588

4.360209e-02
*ELEMENT, TYPE=SPRINGA, ELSET=WK_1589
   43110,    38434,    47720
*SPRING, ELSET=WK_1589

4.360209e-02
*ELEMENT, TYPE=SPRINGA, ELSET=WK_1590
   43111,    38438,    47721
*SPRING, ELSET=WK_1590

4.360209e-02
*ELEMENT, TYPE=SPRINGA, ELSET=WK_1591
   43112,    38442,    47722
*SPRING, ELSET=WK_1591

4.360209e-02
*ELEMENT, TYPE=SPRINGA, ELSET=WK_1592
   43113,    38446,    47723
*SPRING, ELSET=WK_1592

4.360209e-02
*ELEMENT, TYPE=SPRINGA, ELSET=WK_1593
   43114,    38450,    47724
*SPRING, ELSET=WK_1593

4.360209e-02
*ELEMENT, TYPE=SPRINGA, ELSET=WK_1594
   43115,    38454,    47725
*SPRING, ELSET=WK_1594

4.360209e-02
*ELEMENT, TYPE=SPRINGA, ELSET=WK_1595
   43116,    38458,    47726
*SPRING, ELSET=WK_1595

4.360209e-02
*ELEMENT, TYPE=SPRINGA, ELSET=WK_1596
   43117,    38462,    47727
*SPRING, ELSET=WK_1596

4.360209e-02
*ELEMENT, TYPE=SPRINGA, ELSET=WK_1597
   43118,    38466,    47728
*SPRING, ELSET=WK_1597

4.360209e-02
*ELEMENT, TYPE=SPRINGA, ELSET=WK_1598
   43119,    38470,    47729
*SPRING, ELSET=WK_1598

4.360209e-02
*ELEMENT, TYPE=SPRINGA, ELSET=WK_1599
   43120,    38474,    47730
*SPRING, ELSET=WK_1599

4.360209e-02
*ELEMENT, TYPE=SPRINGA, ELSET=WK_1600
   43121,    38478,    47731
*SPRING, ELSET=WK_1600

4.360209e-02
*ELEMENT, TYPE=SPRINGA, ELSET=WK_1601
   43122,    38482,    47732
*SPRING, ELSET=WK_1601

4.360209e-02
*ELEMENT, TYPE=SPRINGA, ELSET=WK_1602
   43123,    38486,    47733
*SPRING, ELSET=WK_1602

4.360209e-02
*ELEMENT, TYPE=SPRINGA, ELSET=WK_1603
   43124,    38490,    47734
*SPRING, ELSET=WK_1603

4.360209e-02
*ELEMENT, TYPE=SPRINGA, ELSET=WK_1604
   43125,    38494,    47735
*SPRING, ELSET=WK_1604

4.360209e-02
*ELEMENT, TYPE=SPRINGA, ELSET=WK_1605
   43126,    38498,    47736
*SPRING, ELSET=WK_1605

4.360209e-02
*ELEMENT, TYPE=SPRINGA, ELSET=WK_1606
   43127,    38502,    47737
*SPRING, ELSET=WK_1606

4.360209e-02
*ELEMENT, TYPE=SPRINGA, ELSET=WK_1607
   43128,    38506,    47738
*SPRING, ELSET=WK_1607

4.360209e-02
*ELEMENT, TYPE=SPRINGA, ELSET=WK_1608
   43129,    38510,    47739
*SPRING, ELSET=WK_1608

4.360209e-02
*ELEMENT, TYPE=SPRINGA, ELSET=WK_1609
   43130,    38514,    47740
*SPRING, ELSET=WK_1609

4.360209e-02
*ELEMENT, TYPE=SPRINGA, ELSET=WK_1610
   43131,    38518,    47741
*SPRING, ELSET=WK_1610

4.360209e-02
*ELEMENT, TYPE=SPRINGA, ELSET=WK_1611
   43132,    38522,    47742
*SPRING, ELSET=WK_1611

4.360209e-02
*ELEMENT, TYPE=SPRINGA, ELSET=WK_1612
   43133,    38526,    47743
*SPRING, ELSET=WK_1612

4.360209e-02
*ELEMENT, TYPE=SPRINGA, ELSET=WK_1613
   43134,    38530,    47744
*SPRING, ELSET=WK_1613

4.360209e-02
*ELEMENT, TYPE=SPRINGA, ELSET=WK_1614
   43135,    38534,    47745
*SPRING, ELSET=WK_1614

4.360209e-02
*ELEMENT, TYPE=SPRINGA, ELSET=WK_1615
   43136,    38538,    47746
*SPRING, ELSET=WK_1615

4.360209e-02
*ELEMENT, TYPE=SPRINGA, ELSET=WK_1616
   43137,    38542,    47747
*SPRING, ELSET=WK_1616

4.360209e-02
*ELEMENT, TYPE=SPRINGA, ELSET=WK_1617
   43138,    38546,    47748
*SPRING, ELSET=WK_1617

4.360209e-02
*ELEMENT, TYPE=SPRINGA, ELSET=WK_1618
   43139,    38550,    47749
*SPRING, ELSET=WK_1618

4.360209e-02
*ELEMENT, TYPE=SPRINGA, ELSET=WK_1619
   43140,    38554,    47750
*SPRING, ELSET=WK_1619

4.360209e-02
*ELEMENT, TYPE=SPRINGA, ELSET=WK_1620
   43141,    38558,    47751
*SPRING, ELSET=WK_1620

4.360209e-02
*ELEMENT, TYPE=SPRINGA, ELSET=WK_1621
   43142,    38562,    47752
*SPRING, ELSET=WK_1621

4.360209e-02
*ELEMENT, TYPE=SPRINGA, ELSET=WK_1622
   43143,    38566,    47753
*SPRING, ELSET=WK_1622

4.360209e-02
*ELEMENT, TYPE=SPRINGA, ELSET=WK_1623
   43144,    38570,    47754
*SPRING, ELSET=WK_1623

4.360209e-02
*ELEMENT, TYPE=SPRINGA, ELSET=WK_1624
   43145,    38574,    47755
*SPRING, ELSET=WK_1624

4.360209e-02
*ELEMENT, TYPE=SPRINGA, ELSET=WK_1625
   43146,    38578,    47756
*SPRING, ELSET=WK_1625

4.360209e-02
*ELEMENT, TYPE=SPRINGA, ELSET=WK_1626
   43147,    38582,    47757
*SPRING, ELSET=WK_1626

4.360209e-02
*ELEMENT, TYPE=SPRINGA, ELSET=WK_1627
   43148,    38586,    47758
*SPRING, ELSET=WK_1627

4.360209e-02
*ELEMENT, TYPE=SPRINGA, ELSET=WK_1628
   43149,    38590,    47759
*SPRING, ELSET=WK_1628

4.360209e-02
*ELEMENT, TYPE=SPRINGA, ELSET=WK_1629
   43150,    38594,    47760
*SPRING, ELSET=WK_1629

4.360209e-02
*ELEMENT, TYPE=SPRINGA, ELSET=WK_1630
   43151,    38598,    47761
*SPRING, ELSET=WK_1630

4.360209e-02
*ELEMENT, TYPE=SPRINGA, ELSET=WK_1631
   43152,    38602,    47762
*SPRING, ELSET=WK_1631

4.360209e-02
*ELEMENT, TYPE=SPRINGA, ELSET=WK_1632
   43153,    38606,    47763
*SPRING, ELSET=WK_1632

4.360209e-02
*ELEMENT, TYPE=SPRINGA, ELSET=WK_1633
   43154,    38610,    47764
*SPRING, ELSET=WK_1633

4.360209e-02
*ELEMENT, TYPE=SPRINGA, ELSET=WK_1634
   43155,    38614,    47765
*SPRING, ELSET=WK_1634

4.360209e-02
*ELEMENT, TYPE=SPRINGA, ELSET=WK_1635
   43156,    38618,    47766
*SPRING, ELSET=WK_1635

4.360209e-02
*ELEMENT, TYPE=SPRINGA, ELSET=WK_1636
   43157,    38622,    47767
*SPRING, ELSET=WK_1636

4.360209e-02
*ELEMENT, TYPE=SPRINGA, ELSET=WK_1637
   43158,    38626,    47768
*SPRING, ELSET=WK_1637

4.360209e-02
*ELEMENT, TYPE=SPRINGA, ELSET=WK_1638
   43159,    38630,    47769
*SPRING, ELSET=WK_1638

4.360209e-02
*ELEMENT, TYPE=SPRINGA, ELSET=WK_1639
   43160,    38634,    47770
*SPRING, ELSET=WK_1639

4.360209e-02
*ELEMENT, TYPE=SPRINGA, ELSET=WK_1640
   43161,    38638,    47771
*SPRING, ELSET=WK_1640

4.360209e-02
*ELEMENT, TYPE=SPRINGA, ELSET=WK_1641
   43162,    38642,    47772
*SPRING, ELSET=WK_1641

4.360209e-02
*ELEMENT, TYPE=SPRINGA, ELSET=WK_1642
   43163,    38646,    47773
*SPRING, ELSET=WK_1642

4.360209e-02
*ELEMENT, TYPE=SPRINGA, ELSET=WK_1643
   43164,    38650,    47774
*SPRING, ELSET=WK_1643

4.360209e-02
*ELEMENT, TYPE=SPRINGA, ELSET=WK_1644
   43165,    38654,    47775
*SPRING, ELSET=WK_1644

4.360209e-02
*ELEMENT, TYPE=SPRINGA, ELSET=WK_1645
   43166,    38658,    47776
*SPRING, ELSET=WK_1645

4.360209e-02
*ELEMENT, TYPE=SPRINGA, ELSET=WK_1646
   43167,    38662,    47777
*SPRING, ELSET=WK_1646

4.360209e-02
*ELEMENT, TYPE=SPRINGA, ELSET=WK_1647
   43168,    38666,    47778
*SPRING, ELSET=WK_1647

4.360209e-02
*ELEMENT, TYPE=SPRINGA, ELSET=WK_1648
   43169,    38670,    47779
*SPRING, ELSET=WK_1648

4.360209e-02
*ELEMENT, TYPE=SPRINGA, ELSET=WK_1649
   43170,    38674,    47780
*SPRING, ELSET=WK_1649

4.360209e-02
*ELEMENT, TYPE=SPRINGA, ELSET=WK_1650
   43171,    38678,    47781
*SPRING, ELSET=WK_1650

4.360209e-02
*ELEMENT, TYPE=SPRINGA, ELSET=WK_1651
   43172,    38682,    47782
*SPRING, ELSET=WK_1651

4.360209e-02
*ELEMENT, TYPE=SPRINGA, ELSET=WK_1652
   43173,    38686,    47783
*SPRING, ELSET=WK_1652

4.360209e-02
*ELEMENT, TYPE=SPRINGA, ELSET=WK_1653
   43174,    38690,    47784
*SPRING, ELSET=WK_1653

4.360209e-02
*ELEMENT, TYPE=SPRINGA, ELSET=WK_1654
   43175,    38694,    47785
*SPRING, ELSET=WK_1654

4.360209e-02
*ELEMENT, TYPE=SPRINGA, ELSET=WK_1655
   43176,    38698,    47786
*SPRING, ELSET=WK_1655

4.360209e-02
*ELEMENT, TYPE=SPRINGA, ELSET=WK_1656
   43177,    38702,    47787
*SPRING, ELSET=WK_1656

4.360209e-02
*ELEMENT, TYPE=SPRINGA, ELSET=WK_1657
   43178,    38706,    47788
*SPRING, ELSET=WK_1657

4.360209e-02
*ELEMENT, TYPE=SPRINGA, ELSET=WK_1658
   43179,    38710,    47789
*SPRING, ELSET=WK_1658

4.360209e-02
*ELEMENT, TYPE=SPRINGA, ELSET=WK_1659
   43180,    38714,    47790
*SPRING, ELSET=WK_1659

4.360209e-02
*ELEMENT, TYPE=SPRINGA, ELSET=WK_1660
   43181,    38718,    47791
*SPRING, ELSET=WK_1660

4.360209e-02
*ELEMENT, TYPE=SPRINGA, ELSET=WK_1661
   43182,    38722,    47792
*SPRING, ELSET=WK_1661

4.360209e-02
*ELEMENT, TYPE=SPRINGA, ELSET=WK_1662
   43183,    38726,    47793
*SPRING, ELSET=WK_1662

4.360209e-02
*ELEMENT, TYPE=SPRINGA, ELSET=WK_1663
   43184,    38730,    47794
*SPRING, ELSET=WK_1663

4.360209e-02
*ELEMENT, TYPE=SPRINGA, ELSET=WK_1664
   43185,    38734,    47795
*SPRING, ELSET=WK_1664

4.360209e-02
*ELEMENT, TYPE=SPRINGA, ELSET=WK_1665
   43186,    38738,    47796
*SPRING, ELSET=WK_1665

4.360209e-02
*ELEMENT, TYPE=SPRINGA, ELSET=WK_1666
   43187,    38742,    47797
*SPRING, ELSET=WK_1666

4.360209e-02
*ELEMENT, TYPE=SPRINGA, ELSET=WK_1667
   43188,    38746,    47798
*SPRING, ELSET=WK_1667

4.360209e-02
*ELEMENT, TYPE=SPRINGA, ELSET=WK_1668
   43189,    38750,    47799
*SPRING, ELSET=WK_1668

4.360209e-02
*ELEMENT, TYPE=SPRINGA, ELSET=WK_1669
   43190,    38754,    47800
*SPRING, ELSET=WK_1669

4.360209e-02
*ELEMENT, TYPE=SPRINGA, ELSET=WK_1670
   43191,    38758,    47801
*SPRING, ELSET=WK_1670

4.360209e-02
*ELEMENT, TYPE=SPRINGA, ELSET=WK_1671
   43192,    38762,    47802
*SPRING, ELSET=WK_1671

4.360209e-02
*ELEMENT, TYPE=SPRINGA, ELSET=WK_1672
   43193,    38766,    47803
*SPRING, ELSET=WK_1672

4.360209e-02
*ELEMENT, TYPE=SPRINGA, ELSET=WK_1673
   43194,    38770,    47804
*SPRING, ELSET=WK_1673

4.360209e-02
*ELEMENT, TYPE=SPRINGA, ELSET=WK_1674
   43195,    38774,    47805
*SPRING, ELSET=WK_1674

4.360209e-02
*ELEMENT, TYPE=SPRINGA, ELSET=WK_1675
   43196,    38778,    47806
*SPRING, ELSET=WK_1675

4.360209e-02
*ELEMENT, TYPE=SPRINGA, ELSET=WK_1676
   43197,    38782,    47807
*SPRING, ELSET=WK_1676

4.360209e-02
*ELEMENT, TYPE=SPRINGA, ELSET=WK_1677
   43198,    38786,    47808
*SPRING, ELSET=WK_1677

4.360209e-02
*ELEMENT, TYPE=SPRINGA, ELSET=WK_1678
   43199,    38790,    47809
*SPRING, ELSET=WK_1678

4.360209e-02
*ELEMENT, TYPE=SPRINGA, ELSET=WK_1679
   43200,    38794,    47810
*SPRING, ELSET=WK_1679

4.360209e-02
*ELEMENT, TYPE=SPRINGA, ELSET=WK_1680
   43201,    38798,    47811
*SPRING, ELSET=WK_1680

4.360209e-02
*ELEMENT, TYPE=SPRINGA, ELSET=WK_1681
   43202,    38802,    47812
*SPRING, ELSET=WK_1681

4.360209e-02
*ELEMENT, TYPE=SPRINGA, ELSET=WK_1682
   43203,    38806,    47813
*SPRING, ELSET=WK_1682

4.360209e-02
*ELEMENT, TYPE=SPRINGA, ELSET=WK_1683
   43204,    38810,    47814
*SPRING, ELSET=WK_1683

4.360209e-02
*ELEMENT, TYPE=SPRINGA, ELSET=WK_1684
   43205,    38814,    47815
*SPRING, ELSET=WK_1684

4.360209e-02
*ELEMENT, TYPE=SPRINGA, ELSET=WK_1685
   43206,    38818,    47816
*SPRING, ELSET=WK_1685

4.360209e-02
*ELEMENT, TYPE=SPRINGA, ELSET=WK_1686
   43207,    38822,    47817
*SPRING, ELSET=WK_1686

4.360209e-02
*ELEMENT, TYPE=SPRINGA, ELSET=WK_1687
   43208,    38826,    47818
*SPRING, ELSET=WK_1687

2.180104e-02
*ELEMENT, TYPE=SPRINGA, ELSET=WK_1688
   43209,    38830,    47819
*SPRING, ELSET=WK_1688

2.180104e-02
*ELEMENT, TYPE=SPRINGA, ELSET=WK_1689
   43210,    38834,    47820
*SPRING, ELSET=WK_1689

2.180104e-02
*ELEMENT, TYPE=SPRINGA, ELSET=WK_1690
   43211,    38838,    47821
*SPRING, ELSET=WK_1690

2.180104e-02
*ELEMENT, TYPE=SPRINGA, ELSET=WK_1691
   43212,    38842,    47822
*SPRING, ELSET=WK_1691

2.180104e-02
*ELEMENT, TYPE=SPRINGA, ELSET=WK_1692
   43213,    38846,    47823
*SPRING, ELSET=WK_1692

2.180104e-02
*ELEMENT, TYPE=SPRINGA, ELSET=WK_1693
   43214,    38850,    47824
*SPRING, ELSET=WK_1693

2.180104e-02
*ELEMENT, TYPE=SPRINGA, ELSET=WK_1694
   43215,    38854,    47825
*SPRING, ELSET=WK_1694

2.180104e-02
*ELEMENT, TYPE=SPRINGA, ELSET=WK_1695
   43216,    38858,    47826
*SPRING, ELSET=WK_1695

2.180104e-02
*ELEMENT, TYPE=SPRINGA, ELSET=WK_1696
   43217,    38862,    47827
*SPRING, ELSET=WK_1696

2.180104e-02
*ELEMENT, TYPE=SPRINGA, ELSET=WK_1697
   43218,    38866,    47828
*SPRING, ELSET=WK_1697

2.180104e-02
*ELEMENT, TYPE=SPRINGA, ELSET=WK_1698
   43219,    38870,    47829
*SPRING, ELSET=WK_1698

2.180104e-02
*ELEMENT, TYPE=SPRINGA, ELSET=WK_1699
   43220,    38874,    47830
*SPRING, ELSET=WK_1699

2.180104e-02
*ELEMENT, TYPE=SPRINGA, ELSET=WK_1700
   43221,    38878,    47831
*SPRING, ELSET=WK_1700

2.180104e-02
*ELEMENT, TYPE=SPRINGA, ELSET=WK_1701
   43222,    38882,    47832
*SPRING, ELSET=WK_1701

2.180104e-02
*ELEMENT, TYPE=SPRINGA, ELSET=WK_1702
   43223,    38886,    47833
*SPRING, ELSET=WK_1702

2.180104e-02
*ELEMENT, TYPE=SPRINGA, ELSET=WK_1703
   43224,    38890,    47834
*SPRING, ELSET=WK_1703

2.180104e-02
*ELEMENT, TYPE=SPRINGA, ELSET=WK_1704
   43225,    38894,    47835
*SPRING, ELSET=WK_1704

2.180104e-02
*ELEMENT, TYPE=SPRINGA, ELSET=WK_1705
   43226,    38898,    47836
*SPRING, ELSET=WK_1705

2.180104e-02
*ELEMENT, TYPE=SPRINGA, ELSET=WK_1706
   43227,    38902,    47837
*SPRING, ELSET=WK_1706

2.180104e-02
*ELEMENT, TYPE=SPRINGA, ELSET=WK_1707
   43228,    38906,    47838
*SPRING, ELSET=WK_1707

2.180104e-02
*ELEMENT, TYPE=SPRINGA, ELSET=WK_1708
   43229,    38910,    47839
*SPRING, ELSET=WK_1708

2.180104e-02
*ELEMENT, TYPE=SPRINGA, ELSET=WK_1709
   43230,    38914,    47840
*SPRING, ELSET=WK_1709

2.180104e-02
*ELEMENT, TYPE=SPRINGA, ELSET=WK_1710
   43231,    38918,    47841
*SPRING, ELSET=WK_1710

4.360209e-02
*ELEMENT, TYPE=SPRINGA, ELSET=WK_1711
   43232,    38922,    47842
*SPRING, ELSET=WK_1711

4.360209e-02
*ELEMENT, TYPE=SPRINGA, ELSET=WK_1712
   43233,    38926,    47843
*SPRING, ELSET=WK_1712

4.360209e-02
*ELEMENT, TYPE=SPRINGA, ELSET=WK_1713
   43234,    38930,    47844
*SPRING, ELSET=WK_1713

4.360209e-02
*ELEMENT, TYPE=SPRINGA, ELSET=WK_1714
   43235,    38934,    47845
*SPRING, ELSET=WK_1714

4.360209e-02
*ELEMENT, TYPE=SPRINGA, ELSET=WK_1715
   43236,    38938,    47846
*SPRING, ELSET=WK_1715

4.360209e-02
*ELEMENT, TYPE=SPRINGA, ELSET=WK_1716
   43237,    38942,    47847
*SPRING, ELSET=WK_1716

4.360209e-02
*ELEMENT, TYPE=SPRINGA, ELSET=WK_1717
   43238,    38946,    47848
*SPRING, ELSET=WK_1717

4.360209e-02
*ELEMENT, TYPE=SPRINGA, ELSET=WK_1718
   43239,    38950,    47849
*SPRING, ELSET=WK_1718

4.360209e-02
*ELEMENT, TYPE=SPRINGA, ELSET=WK_1719
   43240,    38954,    47850
*SPRING, ELSET=WK_1719

4.360209e-02
*ELEMENT, TYPE=SPRINGA, ELSET=WK_1720
   43241,    38958,    47851
*SPRING, ELSET=WK_1720

4.360209e-02
*ELEMENT, TYPE=SPRINGA, ELSET=WK_1721
   43242,    38962,    47852
*SPRING, ELSET=WK_1721

4.360209e-02
*ELEMENT, TYPE=SPRINGA, ELSET=WK_1722
   43243,    38966,    47853
*SPRING, ELSET=WK_1722

4.360209e-02
*ELEMENT, TYPE=SPRINGA, ELSET=WK_1723
   43244,    38970,    47854
*SPRING, ELSET=WK_1723

4.360209e-02
*ELEMENT, TYPE=SPRINGA, ELSET=WK_1724
   43245,    38974,    47855
*SPRING, ELSET=WK_1724

4.360209e-02
*ELEMENT, TYPE=SPRINGA, ELSET=WK_1725
   43246,    38978,    47856
*SPRING, ELSET=WK_1725

4.360209e-02
*ELEMENT, TYPE=SPRINGA, ELSET=WK_1726
   43247,    38982,    47857
*SPRING, ELSET=WK_1726

4.360209e-02
*ELEMENT, TYPE=SPRINGA, ELSET=WK_1727
   43248,    38986,    47858
*SPRING, ELSET=WK_1727

4.360209e-02
*ELEMENT, TYPE=SPRINGA, ELSET=WK_1728
   43249,    38990,    47859
*SPRING, ELSET=WK_1728

4.360209e-02
*ELEMENT, TYPE=SPRINGA, ELSET=WK_1729
   43250,    38994,    47860
*SPRING, ELSET=WK_1729

4.360209e-02
*ELEMENT, TYPE=SPRINGA, ELSET=WK_1730
   43251,    38998,    47861
*SPRING, ELSET=WK_1730

4.360209e-02
*ELEMENT, TYPE=SPRINGA, ELSET=WK_1731
   43252,    39002,    47862
*SPRING, ELSET=WK_1731

4.360209e-02
*ELEMENT, TYPE=SPRINGA, ELSET=WK_1732
   43253,    39006,    47863
*SPRING, ELSET=WK_1732

4.360209e-02
*ELEMENT, TYPE=SPRINGA, ELSET=WK_1733
   43254,    39010,    47864
*SPRING, ELSET=WK_1733

4.360209e-02
*ELEMENT, TYPE=SPRINGA, ELSET=WK_1734
   43255,    39014,    47865
*SPRING, ELSET=WK_1734

4.360209e-02
*ELEMENT, TYPE=SPRINGA, ELSET=WK_1735
   43256,    39018,    47866
*SPRING, ELSET=WK_1735

4.360209e-02
*ELEMENT, TYPE=SPRINGA, ELSET=WK_1736
   43257,    39022,    47867
*SPRING, ELSET=WK_1736

4.360209e-02
*ELEMENT, TYPE=SPRINGA, ELSET=WK_1737
   43258,    39026,    47868
*SPRING, ELSET=WK_1737

4.360209e-02
*ELEMENT, TYPE=SPRINGA, ELSET=WK_1738
   43259,    39030,    47869
*SPRING, ELSET=WK_1738

4.360209e-02
*ELEMENT, TYPE=SPRINGA, ELSET=WK_1739
   43260,    39034,    47870
*SPRING, ELSET=WK_1739

4.360209e-02
*ELEMENT, TYPE=SPRINGA, ELSET=WK_1740
   43261,    39038,    47871
*SPRING, ELSET=WK_1740

4.360209e-02
*ELEMENT, TYPE=SPRINGA, ELSET=WK_1741
   43262,    39042,    47872
*SPRING, ELSET=WK_1741

4.360209e-02
*ELEMENT, TYPE=SPRINGA, ELSET=WK_1742
   43263,    39046,    47873
*SPRING, ELSET=WK_1742

4.360209e-02
*ELEMENT, TYPE=SPRINGA, ELSET=WK_1743
   43264,    39050,    47874
*SPRING, ELSET=WK_1743

4.360209e-02
*ELEMENT, TYPE=SPRINGA, ELSET=WK_1744
   43265,    39054,    47875
*SPRING, ELSET=WK_1744

4.360209e-02
*ELEMENT, TYPE=SPRINGA, ELSET=WK_1745
   43266,    39058,    47876
*SPRING, ELSET=WK_1745

4.360209e-02
*ELEMENT, TYPE=SPRINGA, ELSET=WK_1746
   43267,    39062,    47877
*SPRING, ELSET=WK_1746

4.360209e-02
*ELEMENT, TYPE=SPRINGA, ELSET=WK_1747
   43268,    39066,    47878
*SPRING, ELSET=WK_1747

4.360209e-02
*ELEMENT, TYPE=SPRINGA, ELSET=WK_1748
   43269,    39070,    47879
*SPRING, ELSET=WK_1748

4.360209e-02
*ELEMENT, TYPE=SPRINGA, ELSET=WK_1749
   43270,    39074,    47880
*SPRING, ELSET=WK_1749

4.360209e-02
*ELEMENT, TYPE=SPRINGA, ELSET=WK_1750
   43271,    39078,    47881
*SPRING, ELSET=WK_1750

4.360209e-02
*ELEMENT, TYPE=SPRINGA, ELSET=WK_1751
   43272,    39082,    47882
*SPRING, ELSET=WK_1751

4.360209e-02
*ELEMENT, TYPE=SPRINGA, ELSET=WK_1752
   43273,    39086,    47883
*SPRING, ELSET=WK_1752

4.360209e-02
*ELEMENT, TYPE=SPRINGA, ELSET=WK_1753
   43274,    39090,    47884
*SPRING, ELSET=WK_1753

4.360209e-02
*ELEMENT, TYPE=SPRINGA, ELSET=WK_1754
   43275,    39094,    47885
*SPRING, ELSET=WK_1754

4.360209e-02
*ELEMENT, TYPE=SPRINGA, ELSET=WK_1755
   43276,    39098,    47886
*SPRING, ELSET=WK_1755

4.360209e-02
*ELEMENT, TYPE=SPRINGA, ELSET=WK_1756
   43277,    39102,    47887
*SPRING, ELSET=WK_1756

4.360209e-02
*ELEMENT, TYPE=SPRINGA, ELSET=WK_1757
   43278,    39106,    47888
*SPRING, ELSET=WK_1757

4.360209e-02
*ELEMENT, TYPE=SPRINGA, ELSET=WK_1758
   43279,    39110,    47889
*SPRING, ELSET=WK_1758

4.360209e-02
*ELEMENT, TYPE=SPRINGA, ELSET=WK_1759
   43280,    39114,    47890
*SPRING, ELSET=WK_1759

4.360209e-02
*ELEMENT, TYPE=SPRINGA, ELSET=WK_1760
   43281,    39118,    47891
*SPRING, ELSET=WK_1760

4.360209e-02
*ELEMENT, TYPE=SPRINGA, ELSET=WK_1761
   43282,    39122,    47892
*SPRING, ELSET=WK_1761

4.360209e-02
*ELEMENT, TYPE=SPRINGA, ELSET=WK_1762
   43283,    39126,    47893
*SPRING, ELSET=WK_1762

4.360209e-02
*ELEMENT, TYPE=SPRINGA, ELSET=WK_1763
   43284,    39130,    47894
*SPRING, ELSET=WK_1763

4.360209e-02
*ELEMENT, TYPE=SPRINGA, ELSET=WK_1764
   43285,    39134,    47895
*SPRING, ELSET=WK_1764

4.360209e-02
*ELEMENT, TYPE=SPRINGA, ELSET=WK_1765
   43286,    39138,    47896
*SPRING, ELSET=WK_1765

4.360209e-02
*ELEMENT, TYPE=SPRINGA, ELSET=WK_1766
   43287,    39142,    47897
*SPRING, ELSET=WK_1766

4.360209e-02
*ELEMENT, TYPE=SPRINGA, ELSET=WK_1767
   43288,    39146,    47898
*SPRING, ELSET=WK_1767

4.360209e-02
*ELEMENT, TYPE=SPRINGA, ELSET=WK_1768
   43289,    39150,    47899
*SPRING, ELSET=WK_1768

4.360209e-02
*ELEMENT, TYPE=SPRINGA, ELSET=WK_1769
   43290,    39154,    47900
*SPRING, ELSET=WK_1769

4.360209e-02
*ELEMENT, TYPE=SPRINGA, ELSET=WK_1770
   43291,    39158,    47901
*SPRING, ELSET=WK_1770

4.360209e-02
*ELEMENT, TYPE=SPRINGA, ELSET=WK_1771
   43292,    39162,    47902
*SPRING, ELSET=WK_1771

4.360209e-02
*ELEMENT, TYPE=SPRINGA, ELSET=WK_1772
   43293,    39166,    47903
*SPRING, ELSET=WK_1772

4.360209e-02
*ELEMENT, TYPE=SPRINGA, ELSET=WK_1773
   43294,    39170,    47904
*SPRING, ELSET=WK_1773

4.360209e-02
*ELEMENT, TYPE=SPRINGA, ELSET=WK_1774
   43295,    39174,    47905
*SPRING, ELSET=WK_1774

4.360209e-02
*ELEMENT, TYPE=SPRINGA, ELSET=WK_1775
   43296,    39178,    47906
*SPRING, ELSET=WK_1775

4.360209e-02
*ELEMENT, TYPE=SPRINGA, ELSET=WK_1776
   43297,    39182,    47907
*SPRING, ELSET=WK_1776

4.360209e-02
*ELEMENT, TYPE=SPRINGA, ELSET=WK_1777
   43298,    39186,    47908
*SPRING, ELSET=WK_1777

4.360209e-02
*ELEMENT, TYPE=SPRINGA, ELSET=WK_1778
   43299,    39190,    47909
*SPRING, ELSET=WK_1778

4.360209e-02
*ELEMENT, TYPE=SPRINGA, ELSET=WK_1779
   43300,    39194,    47910
*SPRING, ELSET=WK_1779

4.360209e-02
*ELEMENT, TYPE=SPRINGA, ELSET=WK_1780
   43301,    39198,    47911
*SPRING, ELSET=WK_1780

4.360209e-02
*ELEMENT, TYPE=SPRINGA, ELSET=WK_1781
   43302,    39202,    47912
*SPRING, ELSET=WK_1781

4.360209e-02
*ELEMENT, TYPE=SPRINGA, ELSET=WK_1782
   43303,    39206,    47913
*SPRING, ELSET=WK_1782

4.360209e-02
*ELEMENT, TYPE=SPRINGA, ELSET=WK_1783
   43304,    39210,    47914
*SPRING, ELSET=WK_1783

4.360209e-02
*ELEMENT, TYPE=SPRINGA, ELSET=WK_1784
   43305,    39214,    47915
*SPRING, ELSET=WK_1784

4.360209e-02
*ELEMENT, TYPE=SPRINGA, ELSET=WK_1785
   43306,    39218,    47916
*SPRING, ELSET=WK_1785

4.360209e-02
*ELEMENT, TYPE=SPRINGA, ELSET=WK_1786
   43307,    39222,    47917
*SPRING, ELSET=WK_1786

4.360209e-02
*ELEMENT, TYPE=SPRINGA, ELSET=WK_1787
   43308,    39226,    47918
*SPRING, ELSET=WK_1787

4.360209e-02
*ELEMENT, TYPE=SPRINGA, ELSET=WK_1788
   43309,    39230,    47919
*SPRING, ELSET=WK_1788

4.360209e-02
*ELEMENT, TYPE=SPRINGA, ELSET=WK_1789
   43310,    39234,    47920
*SPRING, ELSET=WK_1789

4.360209e-02
*ELEMENT, TYPE=SPRINGA, ELSET=WK_1790
   43311,    39238,    47921
*SPRING, ELSET=WK_1790

4.360209e-02
*ELEMENT, TYPE=SPRINGA, ELSET=WK_1791
   43312,    39242,    47922
*SPRING, ELSET=WK_1791

4.360209e-02
*ELEMENT, TYPE=SPRINGA, ELSET=WK_1792
   43313,    39246,    47923
*SPRING, ELSET=WK_1792

4.360209e-02
*ELEMENT, TYPE=SPRINGA, ELSET=WK_1793
   43314,    39250,    47924
*SPRING, ELSET=WK_1793

4.360209e-02
*ELEMENT, TYPE=SPRINGA, ELSET=WK_1794
   43315,    39254,    47925
*SPRING, ELSET=WK_1794

4.360209e-02
*ELEMENT, TYPE=SPRINGA, ELSET=WK_1795
   43316,    39258,    47926
*SPRING, ELSET=WK_1795

4.360209e-02
*ELEMENT, TYPE=SPRINGA, ELSET=WK_1796
   43317,    39262,    47927
*SPRING, ELSET=WK_1796

4.360209e-02
*ELEMENT, TYPE=SPRINGA, ELSET=WK_1797
   43318,    39266,    47928
*SPRING, ELSET=WK_1797

4.360209e-02
*ELEMENT, TYPE=SPRINGA, ELSET=WK_1798
   43319,    39270,    47929
*SPRING, ELSET=WK_1798

4.360209e-02
*ELEMENT, TYPE=SPRINGA, ELSET=WK_1799
   43320,    39274,    47930
*SPRING, ELSET=WK_1799

4.360209e-02
*ELEMENT, TYPE=SPRINGA, ELSET=WK_1800
   43321,    39278,    47931
*SPRING, ELSET=WK_1800

4.360209e-02
*ELEMENT, TYPE=SPRINGA, ELSET=WK_1801
   43322,    39282,    47932
*SPRING, ELSET=WK_1801

4.360209e-02
*ELEMENT, TYPE=SPRINGA, ELSET=WK_1802
   43323,    39286,    47933
*SPRING, ELSET=WK_1802

4.360209e-02
*ELEMENT, TYPE=SPRINGA, ELSET=WK_1803
   43324,    39290,    47934
*SPRING, ELSET=WK_1803

4.360209e-02
*ELEMENT, TYPE=SPRINGA, ELSET=WK_1804
   43325,    39294,    47935
*SPRING, ELSET=WK_1804

4.360209e-02
*ELEMENT, TYPE=SPRINGA, ELSET=WK_1805
   43326,    39298,    47936
*SPRING, ELSET=WK_1805

4.360209e-02
*ELEMENT, TYPE=SPRINGA, ELSET=WK_1806
   43327,    39302,    47937
*SPRING, ELSET=WK_1806

4.360209e-02
*ELEMENT, TYPE=SPRINGA, ELSET=WK_1807
   43328,    39306,    47938
*SPRING, ELSET=WK_1807

4.360209e-02
*ELEMENT, TYPE=SPRINGA, ELSET=WK_1808
   43329,    39310,    47939
*SPRING, ELSET=WK_1808

4.360209e-02
*ELEMENT, TYPE=SPRINGA, ELSET=WK_1809
   43330,    39314,    47940
*SPRING, ELSET=WK_1809

4.360209e-02
*ELEMENT, TYPE=SPRINGA, ELSET=WK_1810
   43331,    39318,    47941
*SPRING, ELSET=WK_1810

4.360209e-02
*ELEMENT, TYPE=SPRINGA, ELSET=WK_1811
   43332,    39322,    47942
*SPRING, ELSET=WK_1811

4.360209e-02
*ELEMENT, TYPE=SPRINGA, ELSET=WK_1812
   43333,    39326,    47943
*SPRING, ELSET=WK_1812

4.360209e-02
*ELEMENT, TYPE=SPRINGA, ELSET=WK_1813
   43334,    39330,    47944
*SPRING, ELSET=WK_1813

4.360209e-02
*ELEMENT, TYPE=SPRINGA, ELSET=WK_1814
   43335,    39334,    47945
*SPRING, ELSET=WK_1814

4.360209e-02
*ELEMENT, TYPE=SPRINGA, ELSET=WK_1815
   43336,    39338,    47946
*SPRING, ELSET=WK_1815

4.360209e-02
*ELEMENT, TYPE=SPRINGA, ELSET=WK_1816
   43337,    39342,    47947
*SPRING, ELSET=WK_1816

4.360209e-02
*ELEMENT, TYPE=SPRINGA, ELSET=WK_1817
   43338,    39346,    47948
*SPRING, ELSET=WK_1817

4.360209e-02
*ELEMENT, TYPE=SPRINGA, ELSET=WK_1818
   43339,    39350,    47949
*SPRING, ELSET=WK_1818

4.360209e-02
*ELEMENT, TYPE=SPRINGA, ELSET=WK_1819
   43340,    39354,    47950
*SPRING, ELSET=WK_1819

4.360209e-02
*ELEMENT, TYPE=SPRINGA, ELSET=WK_1820
   43341,    39358,    47951
*SPRING, ELSET=WK_1820

4.360209e-02
*ELEMENT, TYPE=SPRINGA, ELSET=WK_1821
   43342,    39362,    47952
*SPRING, ELSET=WK_1821

4.360209e-02
*ELEMENT, TYPE=SPRINGA, ELSET=WK_1822
   43343,    39366,    47953
*SPRING, ELSET=WK_1822

4.360209e-02
*ELEMENT, TYPE=SPRINGA, ELSET=WK_1823
   43344,    39370,    47954
*SPRING, ELSET=WK_1823

4.360209e-02
*ELEMENT, TYPE=SPRINGA, ELSET=WK_1824
   43345,    39374,    47955
*SPRING, ELSET=WK_1824

4.360209e-02
*ELEMENT, TYPE=SPRINGA, ELSET=WK_1825
   43346,    39378,    47956
*SPRING, ELSET=WK_1825

4.360209e-02
*ELEMENT, TYPE=SPRINGA, ELSET=WK_1826
   43347,    39382,    47957
*SPRING, ELSET=WK_1826

4.360209e-02
*ELEMENT, TYPE=SPRINGA, ELSET=WK_1827
   43348,    39386,    47958
*SPRING, ELSET=WK_1827

4.360209e-02
*ELEMENT, TYPE=SPRINGA, ELSET=WK_1828
   43349,    39390,    47959
*SPRING, ELSET=WK_1828

4.360209e-02
*ELEMENT, TYPE=SPRINGA, ELSET=WK_1829
   43350,    39394,    47960
*SPRING, ELSET=WK_1829

4.360209e-02
*ELEMENT, TYPE=SPRINGA, ELSET=WK_1830
   43351,    39398,    47961
*SPRING, ELSET=WK_1830

4.360209e-02
*ELEMENT, TYPE=SPRINGA, ELSET=WK_1831
   43352,    39402,    47962
*SPRING, ELSET=WK_1831

4.360209e-02
*ELEMENT, TYPE=SPRINGA, ELSET=WK_1832
   43353,    39406,    47963
*SPRING, ELSET=WK_1832

4.360209e-02
*ELEMENT, TYPE=SPRINGA, ELSET=WK_1833
   43354,    39410,    47964
*SPRING, ELSET=WK_1833

4.360209e-02
*ELEMENT, TYPE=SPRINGA, ELSET=WK_1834
   43355,    39414,    47965
*SPRING, ELSET=WK_1834

4.360209e-02
*ELEMENT, TYPE=SPRINGA, ELSET=WK_1835
   43356,    39418,    47966
*SPRING, ELSET=WK_1835

4.360209e-02
*ELEMENT, TYPE=SPRINGA, ELSET=WK_1836
   43357,    39422,    47967
*SPRING, ELSET=WK_1836

4.360209e-02
*ELEMENT, TYPE=SPRINGA, ELSET=WK_1837
   43358,    39426,    47968
*SPRING, ELSET=WK_1837

4.360209e-02
*ELEMENT, TYPE=SPRINGA, ELSET=WK_1838
   43359,    39430,    47969
*SPRING, ELSET=WK_1838

4.360209e-02
*ELEMENT, TYPE=SPRINGA, ELSET=WK_1839
   43360,    39434,    47970
*SPRING, ELSET=WK_1839

4.360209e-02
*ELEMENT, TYPE=SPRINGA, ELSET=WK_1840
   43361,    39438,    47971
*SPRING, ELSET=WK_1840

4.360209e-02
*ELEMENT, TYPE=SPRINGA, ELSET=WK_1841
   43362,    39442,    47972
*SPRING, ELSET=WK_1841

4.360209e-02
*ELEMENT, TYPE=SPRINGA, ELSET=WK_1842
   43363,    39446,    47973
*SPRING, ELSET=WK_1842

4.360209e-02
*ELEMENT, TYPE=SPRINGA, ELSET=WK_1843
   43364,    39450,    47974
*SPRING, ELSET=WK_1843

4.360209e-02
*ELEMENT, TYPE=SPRINGA, ELSET=WK_1844
   43365,    39454,    47975
*SPRING, ELSET=WK_1844

4.360209e-02
*ELEMENT, TYPE=SPRINGA, ELSET=WK_1845
   43366,    39458,    47976
*SPRING, ELSET=WK_1845

4.360209e-02
*ELEMENT, TYPE=SPRINGA, ELSET=WK_1846
   43367,    39462,    47977
*SPRING, ELSET=WK_1846

4.360209e-02
*ELEMENT, TYPE=SPRINGA, ELSET=WK_1847
   43368,    39466,    47978
*SPRING, ELSET=WK_1847

4.360209e-02
*ELEMENT, TYPE=SPRINGA, ELSET=WK_1848
   43369,    39470,    47979
*SPRING, ELSET=WK_1848

4.360209e-02
*ELEMENT, TYPE=SPRINGA, ELSET=WK_1849
   43370,    39474,    47980
*SPRING, ELSET=WK_1849

4.360209e-02
*ELEMENT, TYPE=SPRINGA, ELSET=WK_1850
   43371,    39478,    47981
*SPRING, ELSET=WK_1850

4.360209e-02
*ELEMENT, TYPE=SPRINGA, ELSET=WK_1851
   43372,    39482,    47982
*SPRING, ELSET=WK_1851

4.360209e-02
*ELEMENT, TYPE=SPRINGA, ELSET=WK_1852
   43373,    39486,    47983
*SPRING, ELSET=WK_1852

4.360209e-02
*ELEMENT, TYPE=SPRINGA, ELSET=WK_1853
   43374,    39490,    47984
*SPRING, ELSET=WK_1853

4.360209e-02
*ELEMENT, TYPE=SPRINGA, ELSET=WK_1854
   43375,    39494,    47985
*SPRING, ELSET=WK_1854

4.360209e-02
*ELEMENT, TYPE=SPRINGA, ELSET=WK_1855
   43376,    39498,    47986
*SPRING, ELSET=WK_1855

4.360209e-02
*ELEMENT, TYPE=SPRINGA, ELSET=WK_1856
   43377,    39502,    47987
*SPRING, ELSET=WK_1856

4.360209e-02
*ELEMENT, TYPE=SPRINGA, ELSET=WK_1857
   43378,    39506,    47988
*SPRING, ELSET=WK_1857

4.360209e-02
*ELEMENT, TYPE=SPRINGA, ELSET=WK_1858
   43379,    39510,    47989
*SPRING, ELSET=WK_1858

4.360209e-02
*ELEMENT, TYPE=SPRINGA, ELSET=WK_1859
   43380,    39514,    47990
*SPRING, ELSET=WK_1859

4.360209e-02
*ELEMENT, TYPE=SPRINGA, ELSET=WK_1860
   43381,    39518,    47991
*SPRING, ELSET=WK_1860

4.360209e-02
*ELEMENT, TYPE=SPRINGA, ELSET=WK_1861
   43382,    39522,    47992
*SPRING, ELSET=WK_1861

4.360209e-02
*ELEMENT, TYPE=SPRINGA, ELSET=WK_1862
   43383,    39526,    47993
*SPRING, ELSET=WK_1862

4.360209e-02
*ELEMENT, TYPE=SPRINGA, ELSET=WK_1863
   43384,    39530,    47994
*SPRING, ELSET=WK_1863

4.360209e-02
*ELEMENT, TYPE=SPRINGA, ELSET=WK_1864
   43385,    39534,    47995
*SPRING, ELSET=WK_1864

4.360209e-02
*ELEMENT, TYPE=SPRINGA, ELSET=WK_1865
   43386,    39538,    47996
*SPRING, ELSET=WK_1865

4.360209e-02
*ELEMENT, TYPE=SPRINGA, ELSET=WK_1866
   43387,    39542,    47997
*SPRING, ELSET=WK_1866

4.360209e-02
*ELEMENT, TYPE=SPRINGA, ELSET=WK_1867
   43388,    39546,    47998
*SPRING, ELSET=WK_1867

4.360209e-02
*ELEMENT, TYPE=SPRINGA, ELSET=WK_1868
   43389,    39550,    47999
*SPRING, ELSET=WK_1868

4.360209e-02
*ELEMENT, TYPE=SPRINGA, ELSET=WK_1869
   43390,    39554,    48000
*SPRING, ELSET=WK_1869

4.360209e-02
*ELEMENT, TYPE=SPRINGA, ELSET=WK_1870
   43391,    39558,    48001
*SPRING, ELSET=WK_1870

4.360209e-02
*ELEMENT, TYPE=SPRINGA, ELSET=WK_1871
   43392,    39562,    48002
*SPRING, ELSET=WK_1871

4.360209e-02
*ELEMENT, TYPE=SPRINGA, ELSET=WK_1872
   43393,    39566,    48003
*SPRING, ELSET=WK_1872

4.360209e-02
*ELEMENT, TYPE=SPRINGA, ELSET=WK_1873
   43394,    39570,    48004
*SPRING, ELSET=WK_1873

4.360209e-02
*ELEMENT, TYPE=SPRINGA, ELSET=WK_1874
   43395,    39574,    48005
*SPRING, ELSET=WK_1874

4.360209e-02
*ELEMENT, TYPE=SPRINGA, ELSET=WK_1875
   43396,    39578,    48006
*SPRING, ELSET=WK_1875

4.360209e-02
*ELEMENT, TYPE=SPRINGA, ELSET=WK_1876
   43397,    39582,    48007
*SPRING, ELSET=WK_1876

4.360209e-02
*ELEMENT, TYPE=SPRINGA, ELSET=WK_1877
   43398,    39586,    48008
*SPRING, ELSET=WK_1877

4.360209e-02
*ELEMENT, TYPE=SPRINGA, ELSET=WK_1878
   43399,    39590,    48009
*SPRING, ELSET=WK_1878

4.360209e-02
*ELEMENT, TYPE=SPRINGA, ELSET=WK_1879
   43400,    39594,    48010
*SPRING, ELSET=WK_1879

4.360209e-02
*ELEMENT, TYPE=SPRINGA, ELSET=WK_1880
   43401,    39598,    48011
*SPRING, ELSET=WK_1880

4.360209e-02
*ELEMENT, TYPE=SPRINGA, ELSET=WK_1881
   43402,    39602,    48012
*SPRING, ELSET=WK_1881

4.360209e-02
*ELEMENT, TYPE=SPRINGA, ELSET=WK_1882
   43403,    39606,    48013
*SPRING, ELSET=WK_1882

4.360209e-02
*ELEMENT, TYPE=SPRINGA, ELSET=WK_1883
   43404,    39610,    48014
*SPRING, ELSET=WK_1883

4.360209e-02
*ELEMENT, TYPE=SPRINGA, ELSET=WK_1884
   43405,    39614,    48015
*SPRING, ELSET=WK_1884

4.360209e-02
*ELEMENT, TYPE=SPRINGA, ELSET=WK_1885
   43406,    39618,    48016
*SPRING, ELSET=WK_1885

4.360209e-02
*ELEMENT, TYPE=SPRINGA, ELSET=WK_1886
   43407,    39622,    48017
*SPRING, ELSET=WK_1886

4.360209e-02
*ELEMENT, TYPE=SPRINGA, ELSET=WK_1887
   43408,    39626,    48018
*SPRING, ELSET=WK_1887

4.360209e-02
*ELEMENT, TYPE=SPRINGA, ELSET=WK_1888
   43409,    39630,    48019
*SPRING, ELSET=WK_1888

4.360209e-02
*ELEMENT, TYPE=SPRINGA, ELSET=WK_1889
   43410,    39634,    48020
*SPRING, ELSET=WK_1889

4.360209e-02
*ELEMENT, TYPE=SPRINGA, ELSET=WK_1890
   43411,    39638,    48021
*SPRING, ELSET=WK_1890

4.360209e-02
*ELEMENT, TYPE=SPRINGA, ELSET=WK_1891
   43412,    39642,    48022
*SPRING, ELSET=WK_1891

4.360209e-02
*ELEMENT, TYPE=SPRINGA, ELSET=WK_1892
   43413,    39646,    48023
*SPRING, ELSET=WK_1892

4.360209e-02
*ELEMENT, TYPE=SPRINGA, ELSET=WK_1893
   43414,    39650,    48024
*SPRING, ELSET=WK_1893

4.360209e-02
*ELEMENT, TYPE=SPRINGA, ELSET=WK_1894
   43415,    39654,    48025
*SPRING, ELSET=WK_1894

4.360209e-02
*ELEMENT, TYPE=SPRINGA, ELSET=WK_1895
   43416,    39658,    48026
*SPRING, ELSET=WK_1895

4.360209e-02
*ELEMENT, TYPE=SPRINGA, ELSET=WK_1896
   43417,    39662,    48027
*SPRING, ELSET=WK_1896

4.360209e-02
*ELEMENT, TYPE=SPRINGA, ELSET=WK_1897
   43418,    39666,    48028
*SPRING, ELSET=WK_1897

4.360209e-02
*ELEMENT, TYPE=SPRINGA, ELSET=WK_1898
   43419,    39670,    48029
*SPRING, ELSET=WK_1898

4.360209e-02
*ELEMENT, TYPE=SPRINGA, ELSET=WK_1899
   43420,    39674,    48030
*SPRING, ELSET=WK_1899

4.360209e-02
*ELEMENT, TYPE=SPRINGA, ELSET=WK_1900
   43421,    39678,    48031
*SPRING, ELSET=WK_1900

4.360209e-02
*ELEMENT, TYPE=SPRINGA, ELSET=WK_1901
   43422,    39682,    48032
*SPRING, ELSET=WK_1901

4.360209e-02
*ELEMENT, TYPE=SPRINGA, ELSET=WK_1902
   43423,    39686,    48033
*SPRING, ELSET=WK_1902

4.360209e-02
*ELEMENT, TYPE=SPRINGA, ELSET=WK_1903
   43424,    39690,    48034
*SPRING, ELSET=WK_1903

4.360209e-02
*ELEMENT, TYPE=SPRINGA, ELSET=WK_1904
   43425,    39694,    48035
*SPRING, ELSET=WK_1904

4.360209e-02
*ELEMENT, TYPE=SPRINGA, ELSET=WK_1905
   43426,    39698,    48036
*SPRING, ELSET=WK_1905

4.360209e-02
*ELEMENT, TYPE=SPRINGA, ELSET=WK_1906
   43427,    39702,    48037
*SPRING, ELSET=WK_1906

4.360209e-02
*ELEMENT, TYPE=SPRINGA, ELSET=WK_1907
   43428,    39706,    48038
*SPRING, ELSET=WK_1907

4.360209e-02
*ELEMENT, TYPE=SPRINGA, ELSET=WK_1908
   43429,    39710,    48039
*SPRING, ELSET=WK_1908

4.360209e-02
*ELEMENT, TYPE=SPRINGA, ELSET=WK_1909
   43430,    39714,    48040
*SPRING, ELSET=WK_1909

4.360209e-02
*ELEMENT, TYPE=SPRINGA, ELSET=WK_1910
   43431,    39718,    48041
*SPRING, ELSET=WK_1910

4.360209e-02
*ELEMENT, TYPE=SPRINGA, ELSET=WK_1911
   43432,    39722,    48042
*SPRING, ELSET=WK_1911

4.360209e-02
*ELEMENT, TYPE=SPRINGA, ELSET=WK_1912
   43433,    39726,    48043
*SPRING, ELSET=WK_1912

4.360209e-02
*ELEMENT, TYPE=SPRINGA, ELSET=WK_1913
   43434,    39730,    48044
*SPRING, ELSET=WK_1913

4.360209e-02
*ELEMENT, TYPE=SPRINGA, ELSET=WK_1914
   43435,    39734,    48045
*SPRING, ELSET=WK_1914

4.360209e-02
*ELEMENT, TYPE=SPRINGA, ELSET=WK_1915
   43436,    39738,    48046
*SPRING, ELSET=WK_1915

4.360209e-02
*ELEMENT, TYPE=SPRINGA, ELSET=WK_1916
   43437,    39742,    48047
*SPRING, ELSET=WK_1916

4.360209e-02
*ELEMENT, TYPE=SPRINGA, ELSET=WK_1917
   43438,    39746,    48048
*SPRING, ELSET=WK_1917

4.360209e-02
*ELEMENT, TYPE=SPRINGA, ELSET=WK_1918
   43439,    39750,    48049
*SPRING, ELSET=WK_1918

4.360209e-02
*ELEMENT, TYPE=SPRINGA, ELSET=WK_1919
   43440,    39754,    48050
*SPRING, ELSET=WK_1919

4.360209e-02
*ELEMENT, TYPE=SPRINGA, ELSET=WK_1920
   43441,    39758,    48051
*SPRING, ELSET=WK_1920

4.360209e-02
*ELEMENT, TYPE=SPRINGA, ELSET=WK_1921
   43442,    39762,    48052
*SPRING, ELSET=WK_1921

4.360209e-02
*ELEMENT, TYPE=SPRINGA, ELSET=WK_1922
   43443,    39766,    48053
*SPRING, ELSET=WK_1922

4.360209e-02
*ELEMENT, TYPE=SPRINGA, ELSET=WK_1923
   43444,    39770,    48054
*SPRING, ELSET=WK_1923

4.360209e-02
*ELEMENT, TYPE=SPRINGA, ELSET=WK_1924
   43445,    39774,    48055
*SPRING, ELSET=WK_1924

4.360209e-02
*ELEMENT, TYPE=SPRINGA, ELSET=WK_1925
   43446,    39778,    48056
*SPRING, ELSET=WK_1925

4.360209e-02
*ELEMENT, TYPE=SPRINGA, ELSET=WK_1926
   43447,    39782,    48057
*SPRING, ELSET=WK_1926

4.360209e-02
*ELEMENT, TYPE=SPRINGA, ELSET=WK_1927
   43448,    39786,    48058
*SPRING, ELSET=WK_1927

4.360209e-02
*ELEMENT, TYPE=SPRINGA, ELSET=WK_1928
   43449,    39790,    48059
*SPRING, ELSET=WK_1928

4.360209e-02
*ELEMENT, TYPE=SPRINGA, ELSET=WK_1929
   43450,    39794,    48060
*SPRING, ELSET=WK_1929

4.360209e-02
*ELEMENT, TYPE=SPRINGA, ELSET=WK_1930
   43451,    39798,    48061
*SPRING, ELSET=WK_1930

4.360209e-02
*ELEMENT, TYPE=SPRINGA, ELSET=WK_1931
   43452,    39802,    48062
*SPRING, ELSET=WK_1931

4.360209e-02
*ELEMENT, TYPE=SPRINGA, ELSET=WK_1932
   43453,    39806,    48063
*SPRING, ELSET=WK_1932

4.360209e-02
*ELEMENT, TYPE=SPRINGA, ELSET=WK_1933
   43454,    39810,    48064
*SPRING, ELSET=WK_1933

4.360209e-02
*ELEMENT, TYPE=SPRINGA, ELSET=WK_1934
   43455,    39814,    48065
*SPRING, ELSET=WK_1934

4.360209e-02
*ELEMENT, TYPE=SPRINGA, ELSET=WK_1935
   43456,    39818,    48066
*SPRING, ELSET=WK_1935

4.360209e-02
*ELEMENT, TYPE=SPRINGA, ELSET=WK_1936
   43457,    39822,    48067
*SPRING, ELSET=WK_1936

4.360209e-02
*ELEMENT, TYPE=SPRINGA, ELSET=WK_1937
   43458,    39826,    48068
*SPRING, ELSET=WK_1937

4.360209e-02
*ELEMENT, TYPE=SPRINGA, ELSET=WK_1938
   43459,    39830,    48069
*SPRING, ELSET=WK_1938

4.360209e-02
*ELEMENT, TYPE=SPRINGA, ELSET=WK_1939
   43460,    39834,    48070
*SPRING, ELSET=WK_1939

4.360209e-02
*ELEMENT, TYPE=SPRINGA, ELSET=WK_1940
   43461,    39838,    48071
*SPRING, ELSET=WK_1940

4.360209e-02
*ELEMENT, TYPE=SPRINGA, ELSET=WK_1941
   43462,    39842,    48072
*SPRING, ELSET=WK_1941

4.360209e-02
*ELEMENT, TYPE=SPRINGA, ELSET=WK_1942
   43463,    39846,    48073
*SPRING, ELSET=WK_1942

4.360209e-02
*ELEMENT, TYPE=SPRINGA, ELSET=WK_1943
   43464,    39850,    48074
*SPRING, ELSET=WK_1943

4.360209e-02
*ELEMENT, TYPE=SPRINGA, ELSET=WK_1944
   43465,    39854,    48075
*SPRING, ELSET=WK_1944

4.360209e-02
*ELEMENT, TYPE=SPRINGA, ELSET=WK_1945
   43466,    39858,    48076
*SPRING, ELSET=WK_1945

4.360209e-02
*ELEMENT, TYPE=SPRINGA, ELSET=WK_1946
   43467,    39862,    48077
*SPRING, ELSET=WK_1946

4.360209e-02
*ELEMENT, TYPE=SPRINGA, ELSET=WK_1947
   43468,    39866,    48078
*SPRING, ELSET=WK_1947

4.360209e-02
*ELEMENT, TYPE=SPRINGA, ELSET=WK_1948
   43469,    39870,    48079
*SPRING, ELSET=WK_1948

4.360209e-02
*ELEMENT, TYPE=SPRINGA, ELSET=WK_1949
   43470,    39874,    48080
*SPRING, ELSET=WK_1949

4.360209e-02
*ELEMENT, TYPE=SPRINGA, ELSET=WK_1950
   43471,    39878,    48081
*SPRING, ELSET=WK_1950

4.360209e-02
*ELEMENT, TYPE=SPRINGA, ELSET=WK_1951
   43472,    39882,    48082
*SPRING, ELSET=WK_1951

4.360209e-02
*ELEMENT, TYPE=SPRINGA, ELSET=WK_1952
   43473,    39886,    48083
*SPRING, ELSET=WK_1952

4.360209e-02
*ELEMENT, TYPE=SPRINGA, ELSET=WK_1953
   43474,    39890,    48084
*SPRING, ELSET=WK_1953

4.360209e-02
*ELEMENT, TYPE=SPRINGA, ELSET=WK_1954
   43475,    39894,    48085
*SPRING, ELSET=WK_1954

4.360209e-02
*ELEMENT, TYPE=SPRINGA, ELSET=WK_1955
   43476,    39898,    48086
*SPRING, ELSET=WK_1955

4.360209e-02
*ELEMENT, TYPE=SPRINGA, ELSET=WK_1956
   43477,    39902,    48087
*SPRING, ELSET=WK_1956

4.360209e-02
*ELEMENT, TYPE=SPRINGA, ELSET=WK_1957
   43478,    39906,    48088
*SPRING, ELSET=WK_1957

4.360209e-02
*ELEMENT, TYPE=SPRINGA, ELSET=WK_1958
   43479,    39910,    48089
*SPRING, ELSET=WK_1958

4.360209e-02
*ELEMENT, TYPE=SPRINGA, ELSET=WK_1959
   43480,    39914,    48090
*SPRING, ELSET=WK_1959

4.360209e-02
*ELEMENT, TYPE=SPRINGA, ELSET=WK_1960
   43481,    39918,    48091
*SPRING, ELSET=WK_1960

4.360209e-02
*ELEMENT, TYPE=SPRINGA, ELSET=WK_1961
   43482,    39922,    48092
*SPRING, ELSET=WK_1961

4.360209e-02
*ELEMENT, TYPE=SPRINGA, ELSET=WK_1962
   43483,    39926,    48093
*SPRING, ELSET=WK_1962

4.360209e-02
*ELEMENT, TYPE=SPRINGA, ELSET=WK_1963
   43484,    39930,    48094
*SPRING, ELSET=WK_1963

4.360209e-02
*ELEMENT, TYPE=SPRINGA, ELSET=WK_1964
   43485,    39934,    48095
*SPRING, ELSET=WK_1964

4.360209e-02
*ELEMENT, TYPE=SPRINGA, ELSET=WK_1965
   43486,    39938,    48096
*SPRING, ELSET=WK_1965

4.360209e-02
*ELEMENT, TYPE=SPRINGA, ELSET=WK_1966
   43487,    39942,    48097
*SPRING, ELSET=WK_1966

4.360209e-02
*ELEMENT, TYPE=SPRINGA, ELSET=WK_1967
   43488,    39946,    48098
*SPRING, ELSET=WK_1967

4.360209e-02
*ELEMENT, TYPE=SPRINGA, ELSET=WK_1968
   43489,    39950,    48099
*SPRING, ELSET=WK_1968

4.360209e-02
*ELEMENT, TYPE=SPRINGA, ELSET=WK_1969
   43490,    39954,    48100
*SPRING, ELSET=WK_1969

4.360209e-02
*ELEMENT, TYPE=SPRINGA, ELSET=WK_1970
   43491,    39958,    48101
*SPRING, ELSET=WK_1970

4.360209e-02
*ELEMENT, TYPE=SPRINGA, ELSET=WK_1971
   43492,    39962,    48102
*SPRING, ELSET=WK_1971

4.360209e-02
*ELEMENT, TYPE=SPRINGA, ELSET=WK_1972
   43493,    39966,    48103
*SPRING, ELSET=WK_1972

4.360209e-02
*ELEMENT, TYPE=SPRINGA, ELSET=WK_1973
   43494,    39970,    48104
*SPRING, ELSET=WK_1973

4.360209e-02
*ELEMENT, TYPE=SPRINGA, ELSET=WK_1974
   43495,    39974,    48105
*SPRING, ELSET=WK_1974

4.360209e-02
*ELEMENT, TYPE=SPRINGA, ELSET=WK_1975
   43496,    39978,    48106
*SPRING, ELSET=WK_1975

4.360209e-02
*ELEMENT, TYPE=SPRINGA, ELSET=WK_1976
   43497,    39982,    48107
*SPRING, ELSET=WK_1976

4.360209e-02
*ELEMENT, TYPE=SPRINGA, ELSET=WK_1977
   43498,    39986,    48108
*SPRING, ELSET=WK_1977

4.360209e-02
*ELEMENT, TYPE=SPRINGA, ELSET=WK_1978
   43499,    39990,    48109
*SPRING, ELSET=WK_1978

4.360209e-02
*ELEMENT, TYPE=SPRINGA, ELSET=WK_1979
   43500,    39994,    48110
*SPRING, ELSET=WK_1979

4.360209e-02
*ELEMENT, TYPE=SPRINGA, ELSET=WK_1980
   43501,    39998,    48111
*SPRING, ELSET=WK_1980

4.360209e-02
*ELEMENT, TYPE=SPRINGA, ELSET=WK_1981
   43502,    40002,    48112
*SPRING, ELSET=WK_1981

4.360209e-02
*ELEMENT, TYPE=SPRINGA, ELSET=WK_1982
   43503,    40006,    48113
*SPRING, ELSET=WK_1982

4.360209e-02
*ELEMENT, TYPE=SPRINGA, ELSET=WK_1983
   43504,    40010,    48114
*SPRING, ELSET=WK_1983

4.360209e-02
*ELEMENT, TYPE=SPRINGA, ELSET=WK_1984
   43505,    40014,    48115
*SPRING, ELSET=WK_1984

4.360209e-02
*ELEMENT, TYPE=SPRINGA, ELSET=WK_1985
   43506,    40018,    48116
*SPRING, ELSET=WK_1985

4.360209e-02
*ELEMENT, TYPE=SPRINGA, ELSET=WK_1986
   43507,    40022,    48117
*SPRING, ELSET=WK_1986

4.360209e-02
*ELEMENT, TYPE=SPRINGA, ELSET=WK_1987
   43508,    40026,    48118
*SPRING, ELSET=WK_1987

4.360209e-02
*ELEMENT, TYPE=SPRINGA, ELSET=WK_1988
   43509,    40030,    48119
*SPRING, ELSET=WK_1988

4.360209e-02
*ELEMENT, TYPE=SPRINGA, ELSET=WK_1989
   43510,    40034,    48120
*SPRING, ELSET=WK_1989

4.360209e-02
*ELEMENT, TYPE=SPRINGA, ELSET=WK_1990
   43511,    40038,    48121
*SPRING, ELSET=WK_1990

4.360209e-02
*ELEMENT, TYPE=SPRINGA, ELSET=WK_1991
   43512,    40042,    48122
*SPRING, ELSET=WK_1991

4.360209e-02
*ELEMENT, TYPE=SPRINGA, ELSET=WK_1992
   43513,    40046,    48123
*SPRING, ELSET=WK_1992

4.360209e-02
*ELEMENT, TYPE=SPRINGA, ELSET=WK_1993
   43514,    40050,    48124
*SPRING, ELSET=WK_1993

4.360209e-02
*ELEMENT, TYPE=SPRINGA, ELSET=WK_1994
   43515,    40054,    48125
*SPRING, ELSET=WK_1994

4.360209e-02
*ELEMENT, TYPE=SPRINGA, ELSET=WK_1995
   43516,    40058,    48126
*SPRING, ELSET=WK_1995

4.360209e-02
*ELEMENT, TYPE=SPRINGA, ELSET=WK_1996
   43517,    40062,    48127
*SPRING, ELSET=WK_1996

4.360209e-02
*ELEMENT, TYPE=SPRINGA, ELSET=WK_1997
   43518,    40066,    48128
*SPRING, ELSET=WK_1997

4.360209e-02
*ELEMENT, TYPE=SPRINGA, ELSET=WK_1998
   43519,    40070,    48129
*SPRING, ELSET=WK_1998

4.360209e-02
*ELEMENT, TYPE=SPRINGA, ELSET=WK_1999
   43520,    40074,    48130
*SPRING, ELSET=WK_1999

4.360209e-02
*ELEMENT, TYPE=SPRINGA, ELSET=WK_2000
   43521,    40078,    48131
*SPRING, ELSET=WK_2000

4.360209e-02
*ELEMENT, TYPE=SPRINGA, ELSET=WK_2001
   43522,    40082,    48132
*SPRING, ELSET=WK_2001

4.360209e-02
*ELEMENT, TYPE=SPRINGA, ELSET=WK_2002
   43523,    40086,    48133
*SPRING, ELSET=WK_2002

4.360209e-02
*ELEMENT, TYPE=SPRINGA, ELSET=WK_2003
   43524,    40090,    48134
*SPRING, ELSET=WK_2003

4.360209e-02
*ELEMENT, TYPE=SPRINGA, ELSET=WK_2004
   43525,    40094,    48135
*SPRING, ELSET=WK_2004

4.360209e-02
*ELEMENT, TYPE=SPRINGA, ELSET=WK_2005
   43526,    40098,    48136
*SPRING, ELSET=WK_2005

4.360209e-02
*ELEMENT, TYPE=SPRINGA, ELSET=WK_2006
   43527,    40102,    48137
*SPRING, ELSET=WK_2006

4.360209e-02
*ELEMENT, TYPE=SPRINGA, ELSET=WK_2007
   43528,    40106,    48138
*SPRING, ELSET=WK_2007

4.360209e-02
*ELEMENT, TYPE=SPRINGA, ELSET=WK_2008
   43529,    40110,    48139
*SPRING, ELSET=WK_2008

4.360209e-02
*ELEMENT, TYPE=SPRINGA, ELSET=WK_2009
   43530,    40114,    48140
*SPRING, ELSET=WK_2009

4.360209e-02
*ELEMENT, TYPE=SPRINGA, ELSET=WK_2010
   43531,    40118,    48141
*SPRING, ELSET=WK_2010

4.360209e-02
*ELEMENT, TYPE=SPRINGA, ELSET=WK_2011
   43532,    40122,    48142
*SPRING, ELSET=WK_2011

4.360209e-02
*ELEMENT, TYPE=SPRINGA, ELSET=WK_2012
   43533,    40126,    48143
*SPRING, ELSET=WK_2012

4.360209e-02
*ELEMENT, TYPE=SPRINGA, ELSET=WK_2013
   43534,    40130,    48144
*SPRING, ELSET=WK_2013

4.360209e-02
*ELEMENT, TYPE=SPRINGA, ELSET=WK_2014
   43535,    40134,    48145
*SPRING, ELSET=WK_2014

4.360209e-02
*ELEMENT, TYPE=SPRINGA, ELSET=WK_2015
   43536,    40138,    48146
*SPRING, ELSET=WK_2015

4.360209e-02
*ELEMENT, TYPE=SPRINGA, ELSET=WK_2016
   43537,    40142,    48147
*SPRING, ELSET=WK_2016

4.360209e-02
*ELEMENT, TYPE=SPRINGA, ELSET=WK_2017
   43538,    40146,    48148
*SPRING, ELSET=WK_2017

4.360209e-02
*ELEMENT, TYPE=SPRINGA, ELSET=WK_2018
   43539,    40150,    48149
*SPRING, ELSET=WK_2018

4.360209e-02
*ELEMENT, TYPE=SPRINGA, ELSET=WK_2019
   43540,    40154,    48150
*SPRING, ELSET=WK_2019

4.360209e-02
*ELEMENT, TYPE=SPRINGA, ELSET=WK_2020
   43541,    40158,    48151
*SPRING, ELSET=WK_2020

4.360209e-02
*ELEMENT, TYPE=SPRINGA, ELSET=WK_2021
   43542,    40162,    48152
*SPRING, ELSET=WK_2021

4.360209e-02
*ELEMENT, TYPE=SPRINGA, ELSET=WK_2022
   43543,    40166,    48153
*SPRING, ELSET=WK_2022

4.360209e-02
*ELEMENT, TYPE=SPRINGA, ELSET=WK_2023
   43544,    40170,    48154
*SPRING, ELSET=WK_2023

4.360209e-02
*ELEMENT, TYPE=SPRINGA, ELSET=WK_2024
   43545,    40174,    48155
*SPRING, ELSET=WK_2024

4.360209e-02
*ELEMENT, TYPE=SPRINGA, ELSET=WK_2025
   43546,    40178,    48156
*SPRING, ELSET=WK_2025

4.360209e-02
*ELEMENT, TYPE=SPRINGA, ELSET=WK_2026
   43547,    40182,    48157
*SPRING, ELSET=WK_2026

4.360209e-02
*ELEMENT, TYPE=SPRINGA, ELSET=WK_2027
   43548,    40186,    48158
*SPRING, ELSET=WK_2027

4.360209e-02
*ELEMENT, TYPE=SPRINGA, ELSET=WK_2028
   43549,    40190,    48159
*SPRING, ELSET=WK_2028

4.360209e-02
*ELEMENT, TYPE=SPRINGA, ELSET=WK_2029
   43550,    40194,    48160
*SPRING, ELSET=WK_2029

4.360209e-02
*ELEMENT, TYPE=SPRINGA, ELSET=WK_2030
   43551,    40198,    48161
*SPRING, ELSET=WK_2030

4.360209e-02
*ELEMENT, TYPE=SPRINGA, ELSET=WK_2031
   43552,    40202,    48162
*SPRING, ELSET=WK_2031

4.360209e-02
*ELEMENT, TYPE=SPRINGA, ELSET=WK_2032
   43553,    40206,    48163
*SPRING, ELSET=WK_2032

4.360209e-02
*ELEMENT, TYPE=SPRINGA, ELSET=WK_2033
   43554,    40210,    48164
*SPRING, ELSET=WK_2033

4.360209e-02
*ELEMENT, TYPE=SPRINGA, ELSET=WK_2034
   43555,    40214,    48165
*SPRING, ELSET=WK_2034

4.360209e-02
*ELEMENT, TYPE=SPRINGA, ELSET=WK_2035
   43556,    40218,    48166
*SPRING, ELSET=WK_2035

4.360209e-02
*ELEMENT, TYPE=SPRINGA, ELSET=WK_2036
   43557,    40222,    48167
*SPRING, ELSET=WK_2036

4.360209e-02
*ELEMENT, TYPE=SPRINGA, ELSET=WK_2037
   43558,    40226,    48168
*SPRING, ELSET=WK_2037

4.360209e-02
*ELEMENT, TYPE=SPRINGA, ELSET=WK_2038
   43559,    40230,    48169
*SPRING, ELSET=WK_2038

4.360209e-02
*ELEMENT, TYPE=SPRINGA, ELSET=WK_2039
   43560,    40234,    48170
*SPRING, ELSET=WK_2039

4.360209e-02
*ELEMENT, TYPE=SPRINGA, ELSET=WK_2040
   43561,    40238,    48171
*SPRING, ELSET=WK_2040

4.360209e-02
*ELEMENT, TYPE=SPRINGA, ELSET=WK_2041
   43562,    40242,    48172
*SPRING, ELSET=WK_2041

4.360209e-02
*ELEMENT, TYPE=SPRINGA, ELSET=WK_2042
   43563,    40246,    48173
*SPRING, ELSET=WK_2042

4.360209e-02
*ELEMENT, TYPE=SPRINGA, ELSET=WK_2043
   43564,    40250,    48174
*SPRING, ELSET=WK_2043

4.360209e-02
*ELEMENT, TYPE=SPRINGA, ELSET=WK_2044
   43565,    40254,    48175
*SPRING, ELSET=WK_2044

4.360209e-02
*ELEMENT, TYPE=SPRINGA, ELSET=WK_2045
   43566,    40258,    48176
*SPRING, ELSET=WK_2045

4.360209e-02
*ELEMENT, TYPE=SPRINGA, ELSET=WK_2046
   43567,    40262,    48177
*SPRING, ELSET=WK_2046

4.360209e-02
*ELEMENT, TYPE=SPRINGA, ELSET=WK_2047
   43568,    40266,    48178
*SPRING, ELSET=WK_2047

4.360209e-02
*ELEMENT, TYPE=SPRINGA, ELSET=WK_2048
   43569,    40270,    48179
*SPRING, ELSET=WK_2048

4.360209e-02
*ELEMENT, TYPE=SPRINGA, ELSET=WK_2049
   43570,    40274,    48180
*SPRING, ELSET=WK_2049

4.360209e-02
*ELEMENT, TYPE=SPRINGA, ELSET=WK_2050
   43571,    40278,    48181
*SPRING, ELSET=WK_2050

4.360209e-02
*ELEMENT, TYPE=SPRINGA, ELSET=WK_2051
   43572,    40282,    48182
*SPRING, ELSET=WK_2051

4.360209e-02
*ELEMENT, TYPE=SPRINGA, ELSET=WK_2052
   43573,    40286,    48183
*SPRING, ELSET=WK_2052

4.360209e-02
*ELEMENT, TYPE=SPRINGA, ELSET=WK_2053
   43574,    40290,    48184
*SPRING, ELSET=WK_2053

4.360209e-02
*ELEMENT, TYPE=SPRINGA, ELSET=WK_2054
   43575,    40294,    48185
*SPRING, ELSET=WK_2054

4.360209e-02
*ELEMENT, TYPE=SPRINGA, ELSET=WK_2055
   43576,    40298,    48186
*SPRING, ELSET=WK_2055

4.360209e-02
*ELEMENT, TYPE=SPRINGA, ELSET=WK_2056
   43577,    40302,    48187
*SPRING, ELSET=WK_2056

4.360209e-02
*ELEMENT, TYPE=SPRINGA, ELSET=WK_2057
   43578,    40306,    48188
*SPRING, ELSET=WK_2057

4.360209e-02
*ELEMENT, TYPE=SPRINGA, ELSET=WK_2058
   43579,    40310,    48189
*SPRING, ELSET=WK_2058

4.360209e-02
*ELEMENT, TYPE=SPRINGA, ELSET=WK_2059
   43580,    40314,    48190
*SPRING, ELSET=WK_2059

4.360209e-02
*ELEMENT, TYPE=SPRINGA, ELSET=WK_2060
   43581,    40318,    48191
*SPRING, ELSET=WK_2060

4.360209e-02
*ELEMENT, TYPE=SPRINGA, ELSET=WK_2061
   43582,    40322,    48192
*SPRING, ELSET=WK_2061

4.360209e-02
*ELEMENT, TYPE=SPRINGA, ELSET=WK_2062
   43583,    40326,    48193
*SPRING, ELSET=WK_2062

4.360209e-02
*ELEMENT, TYPE=SPRINGA, ELSET=WK_2063
   43584,    40330,    48194
*SPRING, ELSET=WK_2063

4.360209e-02
*ELEMENT, TYPE=SPRINGA, ELSET=WK_2064
   43585,    40334,    48195
*SPRING, ELSET=WK_2064

4.360209e-02
*ELEMENT, TYPE=SPRINGA, ELSET=WK_2065
   43586,    40338,    48196
*SPRING, ELSET=WK_2065

4.360209e-02
*ELEMENT, TYPE=SPRINGA, ELSET=WK_2066
   43587,    40342,    48197
*SPRING, ELSET=WK_2066

4.360209e-02
*ELEMENT, TYPE=SPRINGA, ELSET=WK_2067
   43588,    40346,    48198
*SPRING, ELSET=WK_2067

4.360209e-02
*ELEMENT, TYPE=SPRINGA, ELSET=WK_2068
   43589,    40350,    48199
*SPRING, ELSET=WK_2068

4.360209e-02
*ELEMENT, TYPE=SPRINGA, ELSET=WK_2069
   43590,    40354,    48200
*SPRING, ELSET=WK_2069

4.360209e-02
*ELEMENT, TYPE=SPRINGA, ELSET=WK_2070
   43591,    40358,    48201
*SPRING, ELSET=WK_2070

4.360209e-02
*ELEMENT, TYPE=SPRINGA, ELSET=WK_2071
   43592,    40362,    48202
*SPRING, ELSET=WK_2071

4.360209e-02
*ELEMENT, TYPE=SPRINGA, ELSET=WK_2072
   43593,    40366,    48203
*SPRING, ELSET=WK_2072

4.360209e-02
*ELEMENT, TYPE=SPRINGA, ELSET=WK_2073
   43594,    40370,    48204
*SPRING, ELSET=WK_2073

4.360209e-02
*ELEMENT, TYPE=SPRINGA, ELSET=WK_2074
   43595,    40374,    48205
*SPRING, ELSET=WK_2074

4.360209e-02
*ELEMENT, TYPE=SPRINGA, ELSET=WK_2075
   43596,    40378,    48206
*SPRING, ELSET=WK_2075

4.360209e-02
*ELEMENT, TYPE=SPRINGA, ELSET=WK_2076
   43597,    40382,    48207
*SPRING, ELSET=WK_2076

4.360209e-02
*ELEMENT, TYPE=SPRINGA, ELSET=WK_2077
   43598,    40386,    48208
*SPRING, ELSET=WK_2077

4.360209e-02
*ELEMENT, TYPE=SPRINGA, ELSET=WK_2078
   43599,    40390,    48209
*SPRING, ELSET=WK_2078

4.360209e-02
*ELEMENT, TYPE=SPRINGA, ELSET=WK_2079
   43600,    40394,    48210
*SPRING, ELSET=WK_2079

4.360209e-02
*ELEMENT, TYPE=SPRINGA, ELSET=WK_2080
   43601,    40398,    48211
*SPRING, ELSET=WK_2080

4.360209e-02
*ELEMENT, TYPE=SPRINGA, ELSET=WK_2081
   43602,    40402,    48212
*SPRING, ELSET=WK_2081

4.360209e-02
*ELEMENT, TYPE=SPRINGA, ELSET=WK_2082
   43603,    40406,    48213
*SPRING, ELSET=WK_2082

4.360209e-02
*ELEMENT, TYPE=SPRINGA, ELSET=WK_2083
   43604,    40410,    48214
*SPRING, ELSET=WK_2083

4.360209e-02
*ELEMENT, TYPE=SPRINGA, ELSET=WK_2084
   43605,    40414,    48215
*SPRING, ELSET=WK_2084

4.360209e-02
*ELEMENT, TYPE=SPRINGA, ELSET=WK_2085
   43606,    40418,    48216
*SPRING, ELSET=WK_2085

4.360209e-02
*ELEMENT, TYPE=SPRINGA, ELSET=WK_2086
   43607,    40422,    48217
*SPRING, ELSET=WK_2086

4.360209e-02
*ELEMENT, TYPE=SPRINGA, ELSET=WK_2087
   43608,    40426,    48218
*SPRING, ELSET=WK_2087

4.360209e-02
*ELEMENT, TYPE=SPRINGA, ELSET=WK_2088
   43609,    40430,    48219
*SPRING, ELSET=WK_2088

4.360209e-02
*ELEMENT, TYPE=SPRINGA, ELSET=WK_2089
   43610,    40434,    48220
*SPRING, ELSET=WK_2089

4.360209e-02
*ELEMENT, TYPE=SPRINGA, ELSET=WK_2090
   43611,    40438,    48221
*SPRING, ELSET=WK_2090

4.360209e-02
*ELEMENT, TYPE=SPRINGA, ELSET=WK_2091
   43612,    40442,    48222
*SPRING, ELSET=WK_2091

4.360209e-02
*ELEMENT, TYPE=SPRINGA, ELSET=WK_2092
   43613,    40446,    48223
*SPRING, ELSET=WK_2092

4.360209e-02
*ELEMENT, TYPE=SPRINGA, ELSET=WK_2093
   43614,    40450,    48224
*SPRING, ELSET=WK_2093

4.360209e-02
*ELEMENT, TYPE=SPRINGA, ELSET=WK_2094
   43615,    40454,    48225
*SPRING, ELSET=WK_2094

4.360209e-02
*ELEMENT, TYPE=SPRINGA, ELSET=WK_2095
   43616,    40458,    48226
*SPRING, ELSET=WK_2095

4.360209e-02
*ELEMENT, TYPE=SPRINGA, ELSET=WK_2096
   43617,    40462,    48227
*SPRING, ELSET=WK_2096

4.360209e-02
*ELEMENT, TYPE=SPRINGA, ELSET=WK_2097
   43618,    40466,    48228
*SPRING, ELSET=WK_2097

4.360209e-02
*ELEMENT, TYPE=SPRINGA, ELSET=WK_2098
   43619,    40470,    48229
*SPRING, ELSET=WK_2098

4.360209e-02
*ELEMENT, TYPE=SPRINGA, ELSET=WK_2099
   43620,    40474,    48230
*SPRING, ELSET=WK_2099

4.360209e-02
*ELEMENT, TYPE=SPRINGA, ELSET=WK_2100
   43621,    40478,    48231
*SPRING, ELSET=WK_2100

4.360209e-02
*ELEMENT, TYPE=SPRINGA, ELSET=WK_2101
   43622,    40482,    48232
*SPRING, ELSET=WK_2101

4.360209e-02
*ELEMENT, TYPE=SPRINGA, ELSET=WK_2102
   43623,    40486,    48233
*SPRING, ELSET=WK_2102

4.360209e-02
*ELEMENT, TYPE=SPRINGA, ELSET=WK_2103
   43624,    40490,    48234
*SPRING, ELSET=WK_2103

4.360209e-02
*ELEMENT, TYPE=SPRINGA, ELSET=WK_2104
   43625,    40494,    48235
*SPRING, ELSET=WK_2104

4.360209e-02
*ELEMENT, TYPE=SPRINGA, ELSET=WK_2105
   43626,    40498,    48236
*SPRING, ELSET=WK_2105

4.360209e-02
*ELEMENT, TYPE=SPRINGA, ELSET=WK_2106
   43627,    40502,    48237
*SPRING, ELSET=WK_2106

4.360209e-02
*ELEMENT, TYPE=SPRINGA, ELSET=WK_2107
   43628,    40506,    48238
*SPRING, ELSET=WK_2107

4.360209e-02
*ELEMENT, TYPE=SPRINGA, ELSET=WK_2108
   43629,    40510,    48239
*SPRING, ELSET=WK_2108

4.360209e-02
*ELEMENT, TYPE=SPRINGA, ELSET=WK_2109
   43630,    40514,    48240
*SPRING, ELSET=WK_2109

4.360209e-02
*ELEMENT, TYPE=SPRINGA, ELSET=WK_2110
   43631,    40518,    48241
*SPRING, ELSET=WK_2110

4.360209e-02
*ELEMENT, TYPE=SPRINGA, ELSET=WK_2111
   43632,    40522,    48242
*SPRING, ELSET=WK_2111

4.360209e-02
*ELEMENT, TYPE=SPRINGA, ELSET=WK_2112
   43633,    40526,    48243
*SPRING, ELSET=WK_2112

4.360209e-02
*ELEMENT, TYPE=SPRINGA, ELSET=WK_2113
   43634,    40530,    48244
*SPRING, ELSET=WK_2113

4.360209e-02
*ELEMENT, TYPE=SPRINGA, ELSET=WK_2114
   43635,    40534,    48245
*SPRING, ELSET=WK_2114

4.360209e-02
*ELEMENT, TYPE=SPRINGA, ELSET=WK_2115
   43636,    40538,    48246
*SPRING, ELSET=WK_2115

4.360209e-02
*ELEMENT, TYPE=SPRINGA, ELSET=WK_2116
   43637,    40542,    48247
*SPRING, ELSET=WK_2116

4.360209e-02
*ELEMENT, TYPE=SPRINGA, ELSET=WK_2117
   43638,    40546,    48248
*SPRING, ELSET=WK_2117

4.360209e-02
*ELEMENT, TYPE=SPRINGA, ELSET=WK_2118
   43639,    40550,    48249
*SPRING, ELSET=WK_2118

4.360209e-02
*ELEMENT, TYPE=SPRINGA, ELSET=WK_2119
   43640,    40554,    48250
*SPRING, ELSET=WK_2119

4.360209e-02
*ELEMENT, TYPE=SPRINGA, ELSET=WK_2120
   43641,    40558,    48251
*SPRING, ELSET=WK_2120

4.360209e-02
*ELEMENT, TYPE=SPRINGA, ELSET=WK_2121
   43642,    40562,    48252
*SPRING, ELSET=WK_2121

4.360209e-02
*ELEMENT, TYPE=SPRINGA, ELSET=WK_2122
   43643,    40566,    48253
*SPRING, ELSET=WK_2122

4.360209e-02
*ELEMENT, TYPE=SPRINGA, ELSET=WK_2123
   43644,    40570,    48254
*SPRING, ELSET=WK_2123

4.360209e-02
*ELEMENT, TYPE=SPRINGA, ELSET=WK_2124
   43645,    40574,    48255
*SPRING, ELSET=WK_2124

4.360209e-02
*ELEMENT, TYPE=SPRINGA, ELSET=WK_2125
   43646,    40578,    48256
*SPRING, ELSET=WK_2125

4.360209e-02
*ELEMENT, TYPE=SPRINGA, ELSET=WK_2126
   43647,    40582,    48257
*SPRING, ELSET=WK_2126

4.360209e-02
*ELEMENT, TYPE=SPRINGA, ELSET=WK_2127
   43648,    40586,    48258
*SPRING, ELSET=WK_2127

4.360209e-02
*ELEMENT, TYPE=SPRINGA, ELSET=WK_2128
   43649,    40590,    48259
*SPRING, ELSET=WK_2128

4.360209e-02
*ELEMENT, TYPE=SPRINGA, ELSET=WK_2129
   43650,    40594,    48260
*SPRING, ELSET=WK_2129

4.360209e-02
*ELEMENT, TYPE=SPRINGA, ELSET=WK_2130
   43651,    40598,    48261
*SPRING, ELSET=WK_2130

4.360209e-02
*ELEMENT, TYPE=SPRINGA, ELSET=WK_2131
   43652,    40602,    48262
*SPRING, ELSET=WK_2131

4.360209e-02
*ELEMENT, TYPE=SPRINGA, ELSET=WK_2132
   43653,    40606,    48263
*SPRING, ELSET=WK_2132

4.360209e-02
*ELEMENT, TYPE=SPRINGA, ELSET=WK_2133
   43654,    40610,    48264
*SPRING, ELSET=WK_2133

4.360209e-02
*ELEMENT, TYPE=SPRINGA, ELSET=WK_2134
   43655,    40614,    48265
*SPRING, ELSET=WK_2134

4.360209e-02
*ELEMENT, TYPE=SPRINGA, ELSET=WK_2135
   43656,    40618,    48266
*SPRING, ELSET=WK_2135

4.360209e-02
*ELEMENT, TYPE=SPRINGA, ELSET=WK_2136
   43657,    40622,    48267
*SPRING, ELSET=WK_2136

4.360209e-02
*ELEMENT, TYPE=SPRINGA, ELSET=WK_2137
   43658,    40626,    48268
*SPRING, ELSET=WK_2137

4.360209e-02
*ELEMENT, TYPE=SPRINGA, ELSET=WK_2138
   43659,    40630,    48269
*SPRING, ELSET=WK_2138

4.360209e-02
*ELEMENT, TYPE=SPRINGA, ELSET=WK_2139
   43660,    40634,    48270
*SPRING, ELSET=WK_2139

4.360209e-02
*ELEMENT, TYPE=SPRINGA, ELSET=WK_2140
   43661,    40638,    48271
*SPRING, ELSET=WK_2140

4.360209e-02
*ELEMENT, TYPE=SPRINGA, ELSET=WK_2141
   43662,    40642,    48272
*SPRING, ELSET=WK_2141

4.360209e-02
*ELEMENT, TYPE=SPRINGA, ELSET=WK_2142
   43663,    40646,    48273
*SPRING, ELSET=WK_2142

4.360209e-02
*ELEMENT, TYPE=SPRINGA, ELSET=WK_2143
   43664,    40650,    48274
*SPRING, ELSET=WK_2143

4.360209e-02
*ELEMENT, TYPE=SPRINGA, ELSET=WK_2144
   43665,    40654,    48275
*SPRING, ELSET=WK_2144

4.360209e-02
*ELEMENT, TYPE=SPRINGA, ELSET=WK_2145
   43666,    40658,    48276
*SPRING, ELSET=WK_2145

4.360209e-02
*ELEMENT, TYPE=SPRINGA, ELSET=WK_2146
   43667,    40662,    48277
*SPRING, ELSET=WK_2146

4.360209e-02
*ELEMENT, TYPE=SPRINGA, ELSET=WK_2147
   43668,    40666,    48278
*SPRING, ELSET=WK_2147

4.360209e-02
*ELEMENT, TYPE=SPRINGA, ELSET=WK_2148
   43669,    40670,    48279
*SPRING, ELSET=WK_2148

4.360209e-02
*ELEMENT, TYPE=SPRINGA, ELSET=WK_2149
   43670,    40674,    48280
*SPRING, ELSET=WK_2149

4.360209e-02
*ELEMENT, TYPE=SPRINGA, ELSET=WK_2150
   43671,    40678,    48281
*SPRING, ELSET=WK_2150

4.360209e-02
*ELEMENT, TYPE=SPRINGA, ELSET=WK_2151
   43672,    40682,    48282
*SPRING, ELSET=WK_2151

4.360209e-02
*ELEMENT, TYPE=SPRINGA, ELSET=WK_2152
   43673,    40686,    48283
*SPRING, ELSET=WK_2152

4.360209e-02
*ELEMENT, TYPE=SPRINGA, ELSET=WK_2153
   43674,    40690,    48284
*SPRING, ELSET=WK_2153

4.360209e-02
*ELEMENT, TYPE=SPRINGA, ELSET=WK_2154
   43675,    40694,    48285
*SPRING, ELSET=WK_2154

4.360209e-02
*ELEMENT, TYPE=SPRINGA, ELSET=WK_2155
   43676,    40698,    48286
*SPRING, ELSET=WK_2155

4.360209e-02
*ELEMENT, TYPE=SPRINGA, ELSET=WK_2156
   43677,    40702,    48287
*SPRING, ELSET=WK_2156

4.360209e-02
*ELEMENT, TYPE=SPRINGA, ELSET=WK_2157
   43678,    40706,    48288
*SPRING, ELSET=WK_2157

4.360209e-02
*ELEMENT, TYPE=SPRINGA, ELSET=WK_2158
   43679,    40710,    48289
*SPRING, ELSET=WK_2158

4.360209e-02
*ELEMENT, TYPE=SPRINGA, ELSET=WK_2159
   43680,    40714,    48290
*SPRING, ELSET=WK_2159

4.360209e-02
*ELEMENT, TYPE=SPRINGA, ELSET=WK_2160
   43681,    40718,    48291
*SPRING, ELSET=WK_2160

4.360209e-02
*ELEMENT, TYPE=SPRINGA, ELSET=WK_2161
   43682,    40722,    48292
*SPRING, ELSET=WK_2161

4.360209e-02
*ELEMENT, TYPE=SPRINGA, ELSET=WK_2162
   43683,    40726,    48293
*SPRING, ELSET=WK_2162

4.360209e-02
*ELEMENT, TYPE=SPRINGA, ELSET=WK_2163
   43684,    40730,    48294
*SPRING, ELSET=WK_2163

4.360209e-02
*ELEMENT, TYPE=SPRINGA, ELSET=WK_2164
   43685,    40734,    48295
*SPRING, ELSET=WK_2164

4.360209e-02
*ELEMENT, TYPE=SPRINGA, ELSET=WK_2165
   43686,    40738,    48296
*SPRING, ELSET=WK_2165

4.360209e-02
*ELEMENT, TYPE=SPRINGA, ELSET=WK_2166
   43687,    40742,    48297
*SPRING, ELSET=WK_2166

4.360209e-02
*ELEMENT, TYPE=SPRINGA, ELSET=WK_2167
   43688,    40746,    48298
*SPRING, ELSET=WK_2167

4.360209e-02
*ELEMENT, TYPE=SPRINGA, ELSET=WK_2168
   43689,    40750,    48299
*SPRING, ELSET=WK_2168

4.360209e-02
*ELEMENT, TYPE=SPRINGA, ELSET=WK_2169
   43690,    40754,    48300
*SPRING, ELSET=WK_2169

4.360209e-02
*ELEMENT, TYPE=SPRINGA, ELSET=WK_2170
   43691,    40758,    48301
*SPRING, ELSET=WK_2170

4.360209e-02
*ELEMENT, TYPE=SPRINGA, ELSET=WK_2171
   43692,    40762,    48302
*SPRING, ELSET=WK_2171

4.360209e-02
*ELEMENT, TYPE=SPRINGA, ELSET=WK_2172
   43693,    40766,    48303
*SPRING, ELSET=WK_2172

4.360209e-02
*ELEMENT, TYPE=SPRINGA, ELSET=WK_2173
   43694,    40770,    48304
*SPRING, ELSET=WK_2173

4.360209e-02
*ELEMENT, TYPE=SPRINGA, ELSET=WK_2174
   43695,    40774,    48305
*SPRING, ELSET=WK_2174

4.360209e-02
*ELEMENT, TYPE=SPRINGA, ELSET=WK_2175
   43696,    40778,    48306
*SPRING, ELSET=WK_2175

4.360209e-02
*ELEMENT, TYPE=SPRINGA, ELSET=WK_2176
   43697,    40782,    48307
*SPRING, ELSET=WK_2176

4.360209e-02
*ELEMENT, TYPE=SPRINGA, ELSET=WK_2177
   43698,    40786,    48308
*SPRING, ELSET=WK_2177

4.360209e-02
*ELEMENT, TYPE=SPRINGA, ELSET=WK_2178
   43699,    40790,    48309
*SPRING, ELSET=WK_2178

4.360209e-02
*ELEMENT, TYPE=SPRINGA, ELSET=WK_2179
   43700,    40794,    48310
*SPRING, ELSET=WK_2179

4.360209e-02
*ELEMENT, TYPE=SPRINGA, ELSET=WK_2180
   43701,    40798,    48311
*SPRING, ELSET=WK_2180

4.360209e-02
*ELEMENT, TYPE=SPRINGA, ELSET=WK_2181
   43702,    40802,    48312
*SPRING, ELSET=WK_2181

4.360209e-02
*ELEMENT, TYPE=SPRINGA, ELSET=WK_2182
   43703,    40806,    48313
*SPRING, ELSET=WK_2182

4.360209e-02
*ELEMENT, TYPE=SPRINGA, ELSET=WK_2183
   43704,    40810,    48314
*SPRING, ELSET=WK_2183

4.360209e-02
*ELEMENT, TYPE=SPRINGA, ELSET=WK_2184
   43705,    40814,    48315
*SPRING, ELSET=WK_2184

4.360209e-02
*ELEMENT, TYPE=SPRINGA, ELSET=WK_2185
   43706,    40818,    48316
*SPRING, ELSET=WK_2185

4.360209e-02
*ELEMENT, TYPE=SPRINGA, ELSET=WK_2186
   43707,    40822,    48317
*SPRING, ELSET=WK_2186

4.360209e-02
*ELEMENT, TYPE=SPRINGA, ELSET=WK_2187
   43708,    40826,    48318
*SPRING, ELSET=WK_2187

4.360209e-02
*ELEMENT, TYPE=SPRINGA, ELSET=WK_2188
   43709,    40830,    48319
*SPRING, ELSET=WK_2188

4.360209e-02
*ELEMENT, TYPE=SPRINGA, ELSET=WK_2189
   43710,    40834,    48320
*SPRING, ELSET=WK_2189

4.360209e-02
*ELEMENT, TYPE=SPRINGA, ELSET=WK_2190
   43711,    40838,    48321
*SPRING, ELSET=WK_2190

4.360209e-02
*ELEMENT, TYPE=SPRINGA, ELSET=WK_2191
   43712,    40842,    48322
*SPRING, ELSET=WK_2191

4.360209e-02
*ELEMENT, TYPE=SPRINGA, ELSET=WK_2192
   43713,    40846,    48323
*SPRING, ELSET=WK_2192

4.360209e-02
*ELEMENT, TYPE=SPRINGA, ELSET=WK_2193
   43714,    40850,    48324
*SPRING, ELSET=WK_2193

4.360209e-02
*ELEMENT, TYPE=SPRINGA, ELSET=WK_2194
   43715,    40854,    48325
*SPRING, ELSET=WK_2194

2.180104e-02
*ELEMENT, TYPE=SPRINGA, ELSET=WK_2195
   43716,    40858,    48326
*SPRING, ELSET=WK_2195

2.180104e-02
*ELEMENT, TYPE=SPRINGA, ELSET=WK_2196
   43717,    40862,    48327
*SPRING, ELSET=WK_2196

2.180104e-02
*ELEMENT, TYPE=SPRINGA, ELSET=WK_2197
   43718,    40866,    48328
*SPRING, ELSET=WK_2197

2.180104e-02
*ELEMENT, TYPE=SPRINGA, ELSET=WK_2198
   43719,    40870,    48329
*SPRING, ELSET=WK_2198

2.180104e-02
*ELEMENT, TYPE=SPRINGA, ELSET=WK_2199
   43720,    40874,    48330
*SPRING, ELSET=WK_2199

2.180104e-02
*ELEMENT, TYPE=SPRINGA, ELSET=WK_2200
   43721,    40878,    48331
*SPRING, ELSET=WK_2200

2.180104e-02
*ELEMENT, TYPE=SPRINGA, ELSET=WK_2201
   43722,    40882,    48332
*SPRING, ELSET=WK_2201

2.180104e-02
*ELEMENT, TYPE=SPRINGA, ELSET=WK_2202
   43723,    40886,    48333
*SPRING, ELSET=WK_2202

2.180104e-02
*ELEMENT, TYPE=SPRINGA, ELSET=WK_2203
   43724,    40890,    48334
*SPRING, ELSET=WK_2203

2.180104e-02
*ELEMENT, TYPE=SPRINGA, ELSET=WK_2204
   43725,    40894,    48335
*SPRING, ELSET=WK_2204

2.180104e-02
*BOUNDARY
GHOST_WINKLER, 1, 3, 0
