** Winkler foundation springs em dura_outer (excluindo perturbation_strip)
** Gerado automaticamente por foam_polymesh_to_ccx_inp.py
** k_winkler = 2.000e+05 Pa/m, 552 springs
*NODE, NSET=GHOST_WINKLER
   17841, -1.43470367e-02, -2.51571253e-02,  1.76847411e-03
   17842, -1.41466610e-02, -2.54242928e-02,  2.04869929e-03
   17843, -1.39201332e-02, -2.57263300e-02,  2.26667579e-03
   17844, -1.36743361e-02, -2.60540594e-02,  2.41578050e-03
   17845, -1.34167381e-02, -2.63975234e-02,  2.49148294e-03
   17846, -1.31551663e-02, -2.67462858e-02,  2.49148294e-03
   17847, -1.28975683e-02, -2.70897497e-02,  2.41578050e-03
   17848, -1.26517712e-02, -2.74174792e-02,  2.26667579e-03
   17849, -1.24252434e-02, -2.77195163e-02,  2.04869929e-03
   17850, -1.22248677e-02, -2.79866839e-02,  1.76847411e-03
   17851, -1.28673358e-02, -2.39761112e-02,  1.76847411e-03
   17852, -1.26512458e-02, -2.42307364e-02,  2.04869929e-03
   17853, -1.24069526e-02, -2.45185943e-02,  2.26667579e-03
   17854, -1.21418790e-02, -2.48309383e-02,  2.41578050e-03
   17855, -1.18640791e-02, -2.51582782e-02,  2.49148294e-03
   17856, -1.15819936e-02, -2.54906678e-02,  2.49148294e-03
   17857, -1.13041937e-02, -2.58180076e-02,  2.41578050e-03
   17858, -1.10391201e-02, -2.61303517e-02,  2.26667579e-03
   17859, -1.07948269e-02, -2.64182095e-02,  2.04869929e-03
   17860, -1.05787369e-02, -2.66728347e-02,  1.76847411e-03
   17861, -1.14613872e-02, -2.27081927e-02,  1.76847411e-03
   17862, -1.12303661e-02, -2.29493526e-02,  2.04869929e-03
   17863, -1.09691931e-02, -2.32219878e-02,  2.26667579e-03
   17864, -1.06858038e-02, -2.35178143e-02,  2.41578050e-03
   17865, -1.03888088e-02, -2.38278436e-02,  2.49148294e-03
   17866, -1.00872321e-02, -2.41426555e-02,  2.49148294e-03
   17867, -9.79023712e-03, -2.44526848e-02,  2.41578050e-03
   17868, -9.50684778e-03, -2.47485113e-02,  2.26667579e-03
   17869, -9.24567474e-03, -2.50211465e-02,  2.04869929e-03
   17870, -9.01465363e-03, -2.52623065e-02,  1.76847411e-03
   17871, -1.01342870e-02, -2.13579654e-02,  1.76847411e-03
   17872, -9.88917213e-03, -2.15847860e-02,  2.04869929e-03
   17873, -9.61206589e-03, -2.18412103e-02,  2.26667579e-03
   17874, -9.31138802e-03, -2.21194470e-02,  2.41578050e-03
   17875, -8.99627444e-03, -2.24110419e-02,  2.49148294e-03
   17876, -8.67629973e-03, -2.27071352e-02,  2.49148294e-03
   17877, -8.36118616e-03, -2.29987302e-02,  2.41578050e-03
   17878, -8.06050828e-03, -2.32769668e-02,  2.26667579e-03
   17879, -7.78340205e-03, -2.35333911e-02,  2.04869929e-03
   17880, -7.53828719e-03, -2.37602118e-02,  1.76847411e-03
   17881, -8.89084528e-03, -1.99303234e-02,  1.76847411e-03
   17882, -8.63252512e-03, -2.01419825e-02,  2.04869929e-03
   17883, -8.34049009e-03, -2.03812665e-02,  2.26667579e-03
   17884, -8.02361353e-03, -2.06409049e-02,  2.41578050e-03
   17885, -7.69152355e-03, -2.09130086e-02,  2.49148294e-03
   17886, -7.35431056e-03, -2.11893100e-02,  2.49148294e-03
   17887, -7.02222059e-03, -2.14614137e-02,  2.41578050e-03
   17888, -6.70534402e-03, -2.17210520e-02,  2.26667579e-03
   17889, -6.41330899e-03, -2.19603360e-02,  2.04869929e-03
   17890, -6.15498884e-03, -2.21719952e-02,  1.76847411e-03
   17891, -7.73556913e-03, -1.84304414e-02,  1.76847411e-03
   17892, -7.46498000e-03, -1.86261719e-02,  2.04869929e-03
   17893, -7.15907469e-03, -1.88474483e-02,  2.26667579e-03
   17894, -5.44626695e-03, -2.00864065e-02,  2.26667579e-03
   17895, -5.14036164e-03, -2.03076829e-02,  2.04869929e-03
   17896, -4.86977251e-03, -2.05034133e-02,  1.76847411e-03
   17897, -6.67264600e-03, -1.68637560e-02,  1.76847411e-03
   17898, -6.39076867e-03, -1.70428483e-02,  2.04869929e-03
   17899, -6.07210188e-03, -1.72453150e-02,  2.26667579e-03
   17900, -4.28784075e-03, -1.83789552e-02,  2.26667579e-03
   17901, -3.96917396e-03, -1.85814219e-02,  2.04869929e-03
   17902, -3.68729664e-03, -1.87605143e-02,  1.76847411e-03
   17903, -5.70592858e-03, -1.52359457e-02,  1.76847411e-03
   17904, -5.41378476e-03, -1.53977508e-02,  2.04869929e-03
   17905, -5.08351153e-03, -1.55806740e-02,  2.26667579e-03
   17906, -3.23426430e-03, -1.66048871e-02,  2.26667579e-03
   17907, -2.90399108e-03, -1.67878103e-02,  2.04869929e-03
   17908, -2.61184726e-03, -1.69496153e-02,  1.76847411e-03
   17909, -4.83892086e-03, -1.35529108e-02,  1.76847411e-03
   17910, -4.53756946e-03, -1.36968421e-02,  2.04869929e-03
   17911, -4.19688691e-03, -1.38595587e-02,  2.26667579e-03
   17912, -2.28935642e-03, -1.47706324e-02,  2.26667579e-03
   17913, -1.94867388e-03, -1.49333490e-02,  2.04869929e-03
   17914, -1.64732247e-03, -1.50772803e-02,  1.76847411e-03
   17915, -4.07476543e-03, -1.18207517e-02,  1.76847411e-03
   17916, -3.76529873e-03, -1.19462875e-02,  2.04869929e-03
   17917, -3.41544171e-03, -1.20882078e-02,  2.26667579e-03
   17918, -1.45654204e-03, -1.28828397e-02,  2.26667579e-03
   17919, -1.10668502e-03, -1.30247600e-02,  2.04869929e-03
   17920, -7.97218321e-04, -1.31502958e-02,  1.76847411e-03
   17921, -3.41623205e-03, -1.00457467e-02,  1.76847411e-03
   17922, -3.09977176e-03, -1.01524321e-02,  2.04869929e-03
   17923, -2.74200837e-03, -1.02730416e-02,  2.26667579e-03
   17924, -7.38839799e-04, -1.09483515e-02,  2.26667579e-03
   17925, -3.81076416e-04, -1.10689610e-02,  2.04869929e-03
   17926, -6.46161200e-05, -1.11756464e-02,  1.76847411e-03
   17927, -2.86570768e-03, -8.23432964e-03,  1.76847411e-03
   17928, -2.54340084e-03, -8.32177785e-03,  2.04869929e-03
   17929, -2.17902784e-03, -8.42063943e-03,  2.26667579e-03
   17930, -1.78365999e-03, -8.52791053e-03,  2.41578050e-03
   17931, -1.36931032e-03, -8.64033177e-03,  2.49148294e-03
   17932, -9.48568637e-04, -8.75448730e-03,  2.49148294e-03
   17933, -5.34218968e-04, -8.86690854e-03,  2.41578050e-03
   17934, -1.38851111e-04, -8.97417964e-03,  2.26667579e-03
   17935,  2.25521884e-04, -9.07304123e-03,  2.04869929e-03
   17936,  5.47828723e-04, -9.16048943e-03,  1.76847411e-03
   17937, -2.42518775e-03, -6.39306620e-03,  1.76847411e-03
   17938, -2.09820260e-03, -6.46096027e-03,  2.04869929e-03
   17939, -1.72854072e-03, -6.53771560e-03,  2.26667579e-03
   17940, -1.32743407e-03, -6.62100001e-03,  2.41578050e-03
   17941, -9.07070096e-04, -6.70828294e-03,  2.49148294e-03
   17942, -4.80221327e-04, -6.79691235e-03,  2.49148294e-03
   17943, -5.98573498e-05, -6.88419529e-03,  2.41578050e-03
   17944,  3.41249294e-04, -6.96747969e-03,  2.26667579e-03
   17945,  7.10911182e-04, -7.04423502e-03,  2.04869929e-03
   17946,  1.03789632e-03, -7.11212909e-03,  1.76847411e-03
   17947, -2.09626898e-03, -4.52863028e-03,  1.76847411e-03
   17948, -1.76579074e-03, -4.57672413e-03,  2.04869929e-03
   17949, -1.39217984e-03, -4.63109499e-03,  2.26667579e-03
   17950, -9.86788274e-04, -4.69009082e-03,  2.41578050e-03
   17951, -5.61933651e-04, -4.75191908e-03,  2.49148294e-03
   17952, -1.30524961e-04, -4.81470114e-03,  2.49148294e-03
   17953,  2.94329662e-04, -4.87652939e-03,  2.41578050e-03
   17954,  6.99721230e-04, -4.93552523e-03,  2.26667579e-03
   17955,  1.07333213e-03, -4.98989609e-03,  2.04869929e-03
   17956,  1.40381037e-03, -5.03798993e-03,  1.76847411e-03
   17957, -1.88014359e-03, -2.64777976e-03,  1.76847411e-03
   17958, -1.54737010e-03, -2.67589906e-03,  2.04869929e-03
   17959, -1.17116440e-03, -2.70768838e-03,  2.26667579e-03
   17960, -7.62957302e-04, -2.74218181e-03,  2.41578050e-03
   17961, -3.35151973e-04, -2.77833128e-03,  2.49148294e-03
   17962,  9.92529417e-05, -2.81503842e-03,  2.49148294e-03
   17963,  5.27058270e-04, -2.85118789e-03,  2.41578050e-03
   17964,  9.35265369e-04, -2.88568132e-03,  2.26667579e-03
   17965,  1.31147107e-03, -2.91747064e-03,  2.04869929e-03
   17966,  1.64424456e-03, -2.94558994e-03,  1.76847411e-03
   17967, -1.77759495e-03, -7.57332029e-04,  1.76847411e-03
   17968, -1.44373240e-03, -7.65374861e-04,  2.04869929e-03
   17969, -1.06629549e-03, -7.74467410e-04,  2.26667579e-03
   17970, -6.56752462e-04, -7.84333403e-04,  2.41578050e-03
   17971, -2.27547062e-04, -7.94673068e-04,  2.49148294e-03
   17972,  2.08279522e-04, -8.05172239e-04,  2.49148294e-03
   17973,  6.37484922e-04, -8.15511904e-04,  2.41578050e-03
   17974,  1.04702795e-03, -8.25377897e-04,  2.26667579e-03
   17975,  1.42446486e-03, -8.34470446e-04,  2.04869929e-03
   17976,  1.75832740e-03, -8.42513277e-04,  1.76847411e-03
   17977, -1.20567326e-02, -2.82108640e-02,  1.43451470e-03
   17978, -1.19259467e-02, -2.83852452e-02,  1.05696829e-03
   17979, -1.18364839e-02, -2.85045290e-02,  6.47306439e-04
   17980, -1.17910624e-02, -2.85650909e-02,  2.17976515e-04
   17981, -1.17910624e-02, -2.85650909e-02, -2.17976515e-04
   17982, -1.18364839e-02, -2.85045290e-02, -6.47306439e-04
   17983, -1.19259467e-02, -2.83852452e-02, -1.05696829e-03
   17984, -1.20567326e-02, -2.82108640e-02, -1.43451470e-03
   17985, -1.22248677e-02, -2.79866839e-02, -1.76847411e-03
   17986, -1.03974159e-02, -2.68864906e-02,  1.43451470e-03
   17987, -1.02563731e-02, -2.70526854e-02,  1.05696829e-03
   17988, -1.01598942e-02, -2.71663693e-02,  6.47306439e-04
   17989, -1.01109106e-02, -2.72240881e-02,  2.17976515e-04
   17990, -1.01109106e-02, -2.72240881e-02, -2.17976515e-04
   17991, -1.01598942e-02, -2.71663693e-02, -6.47306439e-04
   17992, -1.02563731e-02, -2.70526854e-02, -1.05696829e-03
   17993, -1.03974159e-02, -2.68864906e-02, -1.43451470e-03
   17994, -1.05787369e-02, -2.66728347e-02, -1.76847411e-03
   17995, -8.82080393e-03, -2.54646637e-02,  1.43451470e-03
   17996, -8.67001562e-03, -2.56220696e-02,  1.05696829e-03
   17997, -8.56687034e-03, -2.57297417e-02,  6.47306439e-04
   17998, -8.51450212e-03, -2.57844082e-02,  2.17976515e-04
   17999, -8.51450212e-03, -2.57844082e-02, -2.17976515e-04
   18000, -8.56687034e-03, -2.57297417e-02, -6.47306439e-04
   18001, -8.67001562e-03, -2.56220696e-02, -1.05696829e-03
   18002, -8.82080393e-03, -2.54646637e-02, -1.43451470e-03
   18003, -9.01465363e-03, -2.52623065e-02, -1.76847411e-03
   18004, -7.33261143e-03, -2.39505368e-02,  1.43451470e-03
   18005, -7.17262409e-03, -2.40985835e-02,  1.05696829e-03
   18006, -7.06318630e-03, -2.41998533e-02,  6.47306439e-04
   18007, -7.00762328e-03, -2.42512694e-02,  2.17976515e-04
   18008, -7.00762328e-03, -2.42512694e-02, -2.17976515e-04
   18009, -7.06318630e-03, -2.41998533e-02, -6.47306439e-04
   18010, -7.17262409e-03, -2.40985835e-02, -1.05696829e-03
   18011, -7.33261143e-03, -2.39505368e-02, -1.43451470e-03
   18012, -7.53828719e-03, -2.37602118e-02, -1.76847411e-03
   18013, -5.93823252e-03, -2.23495982e-02,  1.43451470e-03
   18014, -5.76962604e-03, -2.24877489e-02,  1.05696829e-03
   18015, -5.65429241e-03, -2.25822495e-02,  6.47306439e-04
   18016, -5.59573599e-03, -2.26302287e-02,  2.17976515e-04
   18017, -5.59573599e-03, -2.26302287e-02, -2.17976515e-04
   18018, -5.65429241e-03, -2.25822495e-02, -6.47306439e-04
   18019, -5.76962604e-03, -2.24877489e-02, -1.05696829e-03
   18020, -5.93823252e-03, -2.23495982e-02, -1.43451470e-03
   18021, -6.15498884e-03, -2.21719952e-02, -1.76847411e-03
   18022, -4.64272130e-03, -2.06676506e-02,  1.43451470e-03
   18023, -4.46610681e-03, -2.07954046e-02,  1.05696829e-03
   18024, -4.34529537e-03, -2.08827935e-02,  6.47306439e-04
   18025, -4.28395781e-03, -2.09271620e-02,  2.17976515e-04
   18026, -4.28395781e-03, -2.09271620e-02, -2.17976515e-04
   18027, -4.34529537e-03, -2.08827935e-02, -6.47306439e-04
   18028, -4.46610681e-03, -2.07954046e-02, -1.05696829e-03
   18029, -4.64272130e-03, -2.06676506e-02, -1.43451470e-03
   18030, -4.86977251e-03, -2.05034133e-02, -1.76847411e-03
   18031, -3.45077351e-03, -1.89107905e-02,  1.43451470e-03
   18032, -3.26679117e-03, -1.90276847e-02,  1.05696829e-03
   18033, -3.14093984e-03, -1.91076451e-02,  6.47306439e-04
   18034, -3.07704344e-03, -1.91482420e-02,  2.17976515e-04
   18035, -3.07704344e-03, -1.91482420e-02, -2.17976515e-04
   18036, -3.14093984e-03, -1.91076451e-02, -6.47306439e-04
   18037, -3.26679117e-03, -1.90276847e-02, -1.05696829e-03
   18038, -3.45077351e-03, -1.89107905e-02, -1.43451470e-03
   18039, -3.68729664e-03, -1.87605143e-02, -1.76847411e-03
   18040, -2.36670952e-03, -1.70853859e-02,  1.43451470e-03
   18041, -2.17602620e-03, -1.71909966e-02,  1.05696829e-03
   18042, -2.04559113e-03, -1.72632386e-02,  6.47306439e-04
   18043, -1.97936751e-03, -1.72999168e-02,  2.17976515e-04
   18044, -1.97936751e-03, -1.72999168e-02, -2.17976515e-04
   18045, -2.04559113e-03, -1.72632386e-02, -6.47306439e-04
   18046, -2.17602620e-03, -1.71909966e-02, -1.05696829e-03
   18047, -2.36670952e-03, -1.70853859e-02, -1.43451470e-03
   18048, -2.61184726e-03, -1.69496153e-02, -1.76847411e-03
   18049, -1.39445865e-03, -1.51980530e-02,  1.43451470e-03
   18050, -1.19776551e-03, -1.52919975e-02,  1.05696829e-03
   18051, -1.06321948e-03, -1.53562593e-02,  6.47306439e-04
   18052, -9.94908673e-04, -1.53888859e-02,  2.17976515e-04
   18053, -9.94908673e-04, -1.53888859e-02, -2.17976515e-04
   18054, -1.06321948e-03, -1.53562593e-02, -6.47306439e-04
   18055, -1.19776551e-03, -1.52919975e-02, -1.05696829e-03
   18056, -1.39445865e-03, -1.51980530e-02, -1.43451470e-03
   18057, -1.64732247e-03, -1.50772803e-02, -1.76847411e-03
   18058, -5.37544961e-04, -1.32556329e-02,  1.43451470e-03
   18059, -3.35554940e-04, -1.33375706e-02,  1.05696829e-03
   18060, -1.97385626e-04, -1.33936193e-02,  6.47306439e-04
   18061, -1.27235231e-04, -1.34220759e-02,  2.17976515e-04
   18062, -1.27235231e-04, -1.34220759e-02, -2.17976515e-04
   18063, -1.97385626e-04, -1.33936193e-02, -6.47306439e-04
   18064, -3.35554940e-04, -1.33375706e-02, -1.05696829e-03
   18065, -5.37544961e-04, -1.32556329e-02, -1.43451470e-03
   18066, -7.97218321e-04, -1.31502958e-02, -1.76847411e-03
   18067,  2.00925561e-04, -1.12651661e-02,  1.43451470e-03
   18068,  4.07480327e-04, -1.13348000e-02,  1.05696829e-03
   18069,  5.48772110e-04, -1.13824324e-02,  6.47306439e-04
   18070,  6.20507824e-04, -1.14066160e-02,  2.17976515e-04
   18071,  6.20507824e-04, -1.14066160e-02, -2.17976515e-04
   18072,  5.48772110e-04, -1.13824324e-02, -6.47306439e-04
   18073,  4.07480327e-04, -1.13348000e-02, -1.05696829e-03
   18074,  2.00925561e-04, -1.12651661e-02, -1.43451470e-03
   18075, -6.46161200e-05, -1.11756464e-02, -1.76847411e-03
   18076,  8.18276237e-04, -9.23386718e-03,  1.43451470e-03
   18077,  1.02864706e-03, -9.29094494e-03,  1.05696829e-03
   18078,  1.17254918e-03, -9.32998842e-03,  6.47306439e-04
   18079,  1.24561020e-03, -9.34981132e-03,  2.17976515e-04
   18080,  1.24561020e-03, -9.34981132e-03, -2.17976515e-04
   18081,  1.17254918e-03, -9.32998842e-03, -6.47306439e-04
   18082,  1.02864706e-03, -9.29094494e-03, -1.05696829e-03
   18083,  8.18276237e-04, -9.23386718e-03, -1.43451470e-03
   18084,  5.47828723e-04, -9.16048943e-03, -1.76847411e-03
   18085,  1.31226940e-03, -7.16909897e-03,  1.43451470e-03
   18086,  1.52569377e-03, -7.21341368e-03,  1.05696829e-03
   18087,  1.67168464e-03, -7.24372672e-03,  6.47306439e-04
   18088,  1.74580614e-03, -7.25911706e-03,  2.17976515e-04
   18089,  1.74580614e-03, -7.25911706e-03, -2.17976515e-04
   18090,  1.67168464e-03, -7.24372672e-03, -6.47306439e-04
   18091,  1.52569377e-03, -7.21341368e-03, -1.05696829e-03
   18092,  1.31226940e-03, -7.16909897e-03, -1.43451470e-03
   18093,  1.03789632e-03, -7.11212909e-03, -1.76847411e-03
   18094,  1.68111450e-03, -5.07834546e-03,  1.43451470e-03
   18095,  1.89681883e-03, -5.10973648e-03,  1.05696829e-03
   18096,  2.04436929e-03, -5.13120921e-03,  6.47306439e-04
   18097,  2.11928261e-03, -5.14211120e-03,  2.17976515e-04
   18098,  2.11928261e-03, -5.14211120e-03, -2.17976515e-04
   18099,  2.04436929e-03, -5.13120921e-03, -6.47306439e-04
   18100,  1.89681883e-03, -5.10973648e-03, -1.05696829e-03
   18101,  1.68111450e-03, -5.07834546e-03, -1.43451470e-03
   18102,  1.40381037e-03, -5.03798993e-03, -1.76847411e-03
   18103,  1.92347463e-03, -2.96918483e-03,  1.43451470e-03
   18104,  2.14067707e-03, -2.98753840e-03,  1.05696829e-03
   18105,  2.28925229e-03, -3.00009298e-03,  6.47306439e-04
   18106,  2.36468591e-03, -3.00646710e-03,  2.17976515e-04
   18107,  2.36468591e-03, -3.00646710e-03, -2.17976515e-04
   18108,  2.28925229e-03, -3.00009298e-03, -6.47306439e-04
   18109,  2.14067707e-03, -2.98753840e-03, -1.05696829e-03
   18110,  1.92347463e-03, -2.96918483e-03, -1.43451470e-03
   18111,  1.64424456e-03, -2.94558994e-03, -1.76847411e-03
   18112,  2.03847131e-03, -8.49262014e-04,  1.43451470e-03
   18113,  2.25638458e-03, -8.54511599e-04,  1.05696829e-03
   18114,  2.40544605e-03, -8.58102526e-04,  6.47306439e-04
   18115,  2.48112653e-03, -8.59925688e-04,  2.17976515e-04
   18116,  2.48112653e-03, -8.59925688e-04, -2.17976515e-04
   18117,  2.40544605e-03, -8.58102526e-04, -6.47306439e-04
   18118,  2.25638458e-03, -8.54511599e-04, -1.05696829e-03
   18119,  2.03847131e-03, -8.49262014e-04, -1.43451470e-03
   18120,  1.75832740e-03, -8.42513277e-04, -1.76847411e-03
   18121, -1.24252434e-02, -2.77195163e-02, -2.04869929e-03
   18122, -1.26517712e-02, -2.74174792e-02, -2.26667579e-03
   18123, -1.28975683e-02, -2.70897497e-02, -2.41578050e-03
   18124, -1.31551663e-02, -2.67462858e-02, -2.49148294e-03
   18125, -1.34167381e-02, -2.63975234e-02, -2.49148294e-03
   18126, -1.36743361e-02, -2.60540594e-02, -2.41578050e-03
   18127, -1.39201332e-02, -2.57263300e-02, -2.26667579e-03
   18128, -1.41466610e-02, -2.54242928e-02, -2.04869929e-03
   18129, -1.43470367e-02, -2.51571253e-02, -1.76847411e-03
   18130, -1.07948269e-02, -2.64182095e-02, -2.04869929e-03
   18131, -1.10391201e-02, -2.61303517e-02, -2.26667579e-03
   18132, -1.13041937e-02, -2.58180076e-02, -2.41578050e-03
   18133, -1.15819936e-02, -2.54906678e-02, -2.49148294e-03
   18134, -1.18640791e-02, -2.51582782e-02, -2.49148294e-03
   18135, -1.21418790e-02, -2.48309383e-02, -2.41578050e-03
   18136, -1.24069526e-02, -2.45185943e-02, -2.26667579e-03
   18137, -1.26512458e-02, -2.42307364e-02, -2.04869929e-03
   18138, -1.28673358e-02, -2.39761112e-02, -1.76847411e-03
   18139, -9.24567474e-03, -2.50211465e-02, -2.04869929e-03
   18140, -9.50684778e-03, -2.47485113e-02, -2.26667579e-03
   18141, -9.79023712e-03, -2.44526848e-02, -2.41578050e-03
   18142, -1.00872321e-02, -2.41426555e-02, -2.49148294e-03
   18143, -1.03888088e-02, -2.38278436e-02, -2.49148294e-03
   18144, -1.06858038e-02, -2.35178143e-02, -2.41578050e-03
   18145, -1.09691931e-02, -2.32219878e-02, -2.26667579e-03
   18146, -1.12303661e-02, -2.29493526e-02, -2.04869929e-03
   18147, -1.14613872e-02, -2.27081927e-02, -1.76847411e-03
   18148, -7.78340205e-03, -2.35333911e-02, -2.04869929e-03
   18149, -8.06050828e-03, -2.32769668e-02, -2.26667579e-03
   18150, -8.36118616e-03, -2.29987302e-02, -2.41578050e-03
   18151, -8.67629973e-03, -2.27071352e-02, -2.49148294e-03
   18152, -8.99627444e-03, -2.24110419e-02, -2.49148294e-03
   18153, -9.31138802e-03, -2.21194470e-02, -2.41578050e-03
   18154, -9.61206589e-03, -2.18412103e-02, -2.26667579e-03
   18155, -9.88917213e-03, -2.15847860e-02, -2.04869929e-03
   18156, -1.01342870e-02, -2.13579654e-02, -1.76847411e-03
   18157, -6.41330899e-03, -2.19603360e-02, -2.04869929e-03
   18158, -6.70534402e-03, -2.17210520e-02, -2.26667579e-03
   18159, -7.02222059e-03, -2.14614137e-02, -2.41578050e-03
   18160, -7.35431056e-03, -2.11893100e-02, -2.49148294e-03
   18161, -7.69152355e-03, -2.09130086e-02, -2.49148294e-03
   18162, -8.02361353e-03, -2.06409049e-02, -2.41578050e-03
   18163, -8.34049009e-03, -2.03812665e-02, -2.26667579e-03
   18164, -8.63252512e-03, -2.01419825e-02, -2.04869929e-03
   18165, -8.89084528e-03, -1.99303234e-02, -1.76847411e-03
   18166, -5.14036164e-03, -2.03076829e-02, -2.04869929e-03
   18167, -5.44626695e-03, -2.00864065e-02, -2.26667579e-03
   18168, -5.77819365e-03, -1.98463076e-02, -2.41578050e-03
   18169, -6.12605632e-03, -1.95946814e-02, -2.49148294e-03
   18170, -6.47928533e-03, -1.93391734e-02, -2.49148294e-03
   18171, -6.82714799e-03, -1.90875472e-02, -2.41578050e-03
   18172, -7.15907469e-03, -1.88474483e-02, -2.26667579e-03
   18173, -7.46498000e-03, -1.86261719e-02, -2.04869929e-03
   18174, -7.73556913e-03, -1.84304414e-02, -1.76847411e-03
   18175, -3.96917396e-03, -1.85814219e-02, -2.04869929e-03
   18176, -4.28784075e-03, -1.83789552e-02, -2.26667579e-03
   18177, -4.63361448e-03, -1.81592660e-02, -2.41578050e-03
   18178, -4.99598897e-03, -1.79290293e-02, -2.49148294e-03
   18179, -5.36395367e-03, -1.76952409e-02, -2.49148294e-03
   18180, -5.72632816e-03, -1.74650043e-02, -2.41578050e-03
   18181, -6.07210188e-03, -1.72453150e-02, -2.26667579e-03
   18182, -6.39076867e-03, -1.70428483e-02, -2.04869929e-03
   18183, -6.67264600e-03, -1.68637560e-02, -1.76847411e-03
   18184, -2.90399108e-03, -1.67878103e-02, -2.04869929e-03
   18185, -3.23426430e-03, -1.66048871e-02, -2.26667579e-03
   18186, -3.59263175e-03, -1.64064038e-02, -2.41578050e-03
   18187, -3.96820459e-03, -1.61983913e-02, -2.49148294e-03
   18188, -4.34957125e-03, -1.59871698e-02, -2.49148294e-03
   18189, -4.72514409e-03, -1.57791572e-02, -2.41578050e-03
   18190, -5.08351153e-03, -1.55806740e-02, -2.26667579e-03
   18191, -5.41378476e-03, -1.53977508e-02, -2.04869929e-03
   18192, -5.70592858e-03, -1.52359457e-02, -1.76847411e-03
   18193, -1.94867388e-03, -1.49333490e-02, -2.04869929e-03
   18194, -2.28935642e-03, -1.47706324e-02, -2.26667579e-03
   18195, -2.65901863e-03, -1.45940746e-02, -2.41578050e-03
   18196, -3.04642851e-03, -1.44090401e-02, -2.49148294e-03
   18197, -3.43981482e-03, -1.42211511e-02, -2.49148294e-03
   18198, -3.82722470e-03, -1.40361166e-02, -2.41578050e-03
   18199, -4.19688691e-03, -1.38595587e-02, -2.26667579e-03
   18200, -4.53756946e-03, -1.36968421e-02, -2.04869929e-03
   18201, -4.83892086e-03, -1.35529108e-02, -1.76847411e-03
   18202, -1.10668502e-03, -1.30247600e-02, -2.04869929e-03
   18203, -1.45654204e-03, -1.28828397e-02, -2.26667579e-03
   18204, -1.83615913e-03, -1.27288472e-02, -2.41578050e-03
   18205, -2.23400184e-03, -1.25674615e-02, -2.49148294e-03
   18206, -2.63798191e-03, -1.24035861e-02, -2.49148294e-03
   18207, -3.03582461e-03, -1.22422003e-02, -2.41578050e-03
   18208, -3.41544171e-03, -1.20882078e-02, -2.26667579e-03
   18209, -3.76529873e-03, -1.19462875e-02, -2.04869929e-03
   18210, -4.07476543e-03, -1.18207517e-02, -1.76847411e-03
   18211, -3.81076416e-04, -1.10689610e-02, -2.04869929e-03
   18212, -7.38839799e-04, -1.09483515e-02, -2.26667579e-03
   18213, -1.12703581e-03, -1.08174826e-02, -2.41578050e-03
   18214, -1.53386931e-03, -1.06803305e-02, -2.49148294e-03
   18215, -1.94697887e-03, -1.05410626e-02, -2.49148294e-03
   18216, -2.35381236e-03, -1.04039106e-02, -2.41578050e-03
   18217, -2.74200837e-03, -1.02730416e-02, -2.26667579e-03
   18218, -3.09977176e-03, -1.01524321e-02, -2.04869929e-03
   18219, -3.41623205e-03, -1.00457467e-02, -1.76847411e-03
   18220,  2.25521884e-04, -9.07304123e-03, -2.04869929e-03
   18221, -1.38851111e-04, -8.97417964e-03, -2.26667579e-03
   18222, -5.34218968e-04, -8.86690854e-03, -2.41578050e-03
   18223, -9.48568637e-04, -8.75448730e-03, -2.49148294e-03
   18224, -1.36931032e-03, -8.64033177e-03, -2.49148294e-03
   18225, -1.78365999e-03, -8.52791053e-03, -2.41578050e-03
   18226, -2.17902784e-03, -8.42063943e-03, -2.26667579e-03
   18227, -2.54340084e-03, -8.32177785e-03, -2.04869929e-03
   18228, -2.86570768e-03, -8.23432964e-03, -1.76847411e-03
   18229,  7.10911182e-04, -7.04423502e-03, -2.04869929e-03
   18230,  3.41249294e-04, -6.96747969e-03, -2.26667579e-03
   18231, -5.98573498e-05, -6.88419529e-03, -2.41578050e-03
   18232, -4.80221327e-04, -6.79691235e-03, -2.49148294e-03
   18233, -9.07070096e-04, -6.70828294e-03, -2.49148294e-03
   18234, -1.32743407e-03, -6.62100001e-03, -2.41578050e-03
   18235, -1.72854072e-03, -6.53771560e-03, -2.26667579e-03
   18236, -2.09820260e-03, -6.46096027e-03, -2.04869929e-03
   18237, -2.42518775e-03, -6.39306620e-03, -1.76847411e-03
   18238,  1.07333213e-03, -4.98989609e-03, -2.04869929e-03
   18239,  6.99721230e-04, -4.93552523e-03, -2.26667579e-03
   18240,  2.94329662e-04, -4.87652939e-03, -2.41578050e-03
   18241, -1.30524961e-04, -4.81470114e-03, -2.49148294e-03
   18242, -5.61933651e-04, -4.75191908e-03, -2.49148294e-03
   18243, -9.86788274e-04, -4.69009082e-03, -2.41578050e-03
   18244, -1.39217984e-03, -4.63109499e-03, -2.26667579e-03
   18245, -1.76579074e-03, -4.57672413e-03, -2.04869929e-03
   18246, -2.09626898e-03, -4.52863028e-03, -1.76847411e-03
   18247,  1.31147107e-03, -2.91747064e-03, -2.04869929e-03
   18248,  9.35265369e-04, -2.88568132e-03, -2.26667579e-03
   18249,  5.27058270e-04, -2.85118789e-03, -2.41578050e-03
   18250,  9.92529417e-05, -2.81503842e-03, -2.49148294e-03
   18251, -3.35151973e-04, -2.77833128e-03, -2.49148294e-03
   18252, -7.62957302e-04, -2.74218181e-03, -2.41578050e-03
   18253, -1.17116440e-03, -2.70768838e-03, -2.26667579e-03
   18254, -1.54737010e-03, -2.67589906e-03, -2.04869929e-03
   18255, -1.88014359e-03, -2.64777976e-03, -1.76847411e-03
   18256,  1.42446486e-03, -8.34470446e-04, -2.04869929e-03
   18257,  1.04702795e-03, -8.25377897e-04, -2.26667579e-03
   18258,  6.37484922e-04, -8.15511904e-04, -2.41578050e-03
   18259,  2.08279522e-04, -8.05172239e-04, -2.49148294e-03
   18260, -2.27547062e-04, -7.94673068e-04, -2.49148294e-03
   18261, -6.56752462e-04, -7.84333403e-04, -2.41578050e-03
   18262, -1.06629549e-03, -7.74467410e-04, -2.26667579e-03
   18263, -1.44373240e-03, -7.65374861e-04, -2.04869929e-03
   18264, -1.77759495e-03, -7.57332029e-04, -1.76847411e-03
   18265, -1.45151718e-02, -2.49329452e-02, -1.43451470e-03
   18266, -1.46459577e-02, -2.47585640e-02, -1.05696829e-03
   18267, -1.47354205e-02, -2.46392802e-02, -6.47306439e-04
   18268, -1.47808420e-02, -2.45787182e-02, -2.17976515e-04
   18269, -1.47808420e-02, -2.45787182e-02,  2.17976515e-04
   18270, -1.47354205e-02, -2.46392802e-02,  6.47306439e-04
   18271, -1.46459577e-02, -2.47585640e-02,  1.05696829e-03
   18272, -1.45151718e-02, -2.49329452e-02,  1.43451470e-03
   18273, -1.30486568e-02, -2.37624553e-02, -1.43451470e-03
   18274, -1.31896996e-02, -2.35962605e-02, -1.05696829e-03
   18275, -1.32861785e-02, -2.34825766e-02, -6.47306439e-04
   18276, -1.33351621e-02, -2.34248578e-02, -2.17976515e-04
   18277, -1.33351621e-02, -2.34248578e-02,  2.17976515e-04
   18278, -1.32861785e-02, -2.34825766e-02,  6.47306439e-04
   18279, -1.31896996e-02, -2.35962605e-02,  1.05696829e-03
   18280, -1.30486568e-02, -2.37624553e-02,  1.43451470e-03
   18281, -1.16552370e-02, -2.25058354e-02, -1.43451470e-03
   18282, -1.18060253e-02, -2.23484295e-02, -1.05696829e-03
   18283, -1.19091705e-02, -2.22407574e-02, -6.47306439e-04
   18284, -1.19615388e-02, -2.21860909e-02, -2.17976515e-04
   18285, -1.19615388e-02, -2.21860909e-02,  2.17976515e-04
   18286, -1.19091705e-02, -2.22407574e-02,  6.47306439e-04
   18287, -1.18060253e-02, -2.23484295e-02,  1.05696829e-03
   18288, -1.16552370e-02, -2.25058354e-02,  1.43451470e-03
   18289, -1.03399627e-02, -2.11676403e-02, -1.43451470e-03
   18290, -1.04999501e-02, -2.10195937e-02, -1.05696829e-03
   18291, -1.06093879e-02, -2.09183238e-02, -6.47306439e-04
   18292, -1.06649509e-02, -2.08669077e-02, -2.17976515e-04
   18293, -1.06649509e-02, -2.08669077e-02,  2.17976515e-04
   18294, -1.06093879e-02, -2.09183238e-02,  6.47306439e-04
   18295, -1.04999501e-02, -2.10195937e-02,  1.05696829e-03
   18296, -1.03399627e-02, -2.11676403e-02,  1.43451470e-03
   18297, -9.10760159e-03, -1.97527203e-02, -1.43451470e-03
   18298, -9.27620808e-03, -1.96145697e-02, -1.05696829e-03
   18299, -9.39154171e-03, -1.95200690e-02, -6.47306439e-04
   18300, -9.45009812e-03, -1.94720898e-02, -2.17976515e-04
   18301, -9.45009812e-03, -1.94720898e-02,  2.17976515e-04
   18302, -9.39154171e-03, -1.95200690e-02,  6.47306439e-04
   18303, -9.27620808e-03, -1.96145697e-02,  1.05696829e-03
   18304, -9.10760159e-03, -1.97527203e-02,  1.43451470e-03
   18305, -7.96262034e-03, -1.82662041e-02, -1.43451470e-03
   18306, -8.13923484e-03, -1.81384501e-02, -1.05696829e-03
   18307, -8.26004627e-03, -1.80510613e-02, -6.47306439e-04
   18308, -8.32138383e-03, -1.80066928e-02, -2.17976515e-04
   18309, -8.32138383e-03, -1.80066928e-02,  2.17976515e-04
   18310, -8.26004627e-03, -1.80510613e-02,  6.47306439e-04
   18311, -8.13923484e-03, -1.81384501e-02,  1.05696829e-03
   18312, -7.96262034e-03, -1.82662041e-02,  1.43451470e-03
   18313, -6.90916913e-03, -1.67134797e-02, -1.43451470e-03
   18314, -7.09315147e-03, -1.65965855e-02, -1.05696829e-03
   18315, -7.21900280e-03, -1.65166252e-02, -6.47306439e-04
   18316, -7.28289919e-03, -1.64760282e-02, -2.17976515e-04
   18317, -7.28289919e-03, -1.64760282e-02,  2.17976515e-04
   18318, -7.21900280e-03, -1.65166252e-02,  6.47306439e-04
   18319, -7.09315147e-03, -1.65965855e-02,  1.05696829e-03
   18320, -6.90916913e-03, -1.67134797e-02,  1.43451470e-03
   18321, -5.95106632e-03, -1.51001752e-02, -1.43451470e-03
   18322, -6.14174964e-03, -1.49945644e-02, -1.05696829e-03
   18323, -6.27218471e-03, -1.49223225e-02, -6.47306439e-04
   18324, -6.33840833e-03, -1.48856442e-02, -2.17976515e-04
   18325, -6.33840833e-03, -1.48856442e-02,  2.17976515e-04
   18326, -6.27218471e-03, -1.49223225e-02,  6.47306439e-04
   18327, -6.14174964e-03, -1.49945644e-02,  1.05696829e-03
   18328, -5.95106632e-03, -1.51001752e-02,  1.43451470e-03
   18329, -5.09178468e-03, -1.34321381e-02, -1.43451470e-03
   18330, -5.28847782e-03, -1.33381937e-02, -1.05696829e-03
   18331, -5.42302385e-03, -1.32739319e-02, -6.47306439e-04
   18332, -5.49133466e-03, -1.32413053e-02, -2.17976515e-04
   18333, -5.49133466e-03, -1.32413053e-02,  2.17976515e-04
   18334, -5.42302385e-03, -1.32739319e-02,  6.47306439e-04
   18335, -5.28847782e-03, -1.33381937e-02,  1.05696829e-03
   18336, -5.09178468e-03, -1.34321381e-02,  1.43451470e-03
   18337, -4.33443879e-03, -1.17154146e-02, -1.43451470e-03
   18338, -4.53642881e-03, -1.16334769e-02, -1.05696829e-03
   18339, -4.67459812e-03, -1.15774282e-02, -6.47306439e-04
   18340, -4.74474852e-03, -1.15489716e-02, -2.17976515e-04
   18341, -4.74474852e-03, -1.15489716e-02,  2.17976515e-04
   18342, -4.67459812e-03, -1.15774282e-02,  6.47306439e-04
   18343, -4.53642881e-03, -1.16334769e-02,  1.05696829e-03
   18344, -4.33443879e-03, -1.17154146e-02,  1.43451470e-03
   18345, -3.68177373e-03, -9.95622705e-03, -1.43451470e-03
   18346, -3.88832850e-03, -9.88659313e-03, -1.05696829e-03
   18347, -4.02962028e-03, -9.83896072e-03, -6.47306439e-04
   18348, -4.10135600e-03, -9.81477711e-03, -2.17976515e-04
   18349, -4.10135600e-03, -9.81477711e-03,  2.17976515e-04
   18350, -4.02962028e-03, -9.83896072e-03,  6.47306439e-04
   18351, -3.88832850e-03, -9.88659313e-03,  1.05696829e-03
   18352, -3.68177373e-03, -9.95622705e-03,  1.43451470e-03
   18353, -3.13615519e-03, -8.16095189e-03, -1.43451470e-03
   18354, -3.34652602e-03, -8.10387413e-03, -1.05696829e-03
   18355, -3.49042814e-03, -8.06483065e-03, -6.47306439e-04
   18356, -3.56348915e-03, -8.04500775e-03, -2.17976515e-04
   18357, -3.56348915e-03, -8.04500775e-03,  2.17976515e-04
   18358, -3.49042814e-03, -8.06483065e-03,  6.47306439e-04
   18359, -3.34652602e-03, -8.10387413e-03,  1.05696829e-03
   18360, -3.13615519e-03, -8.16095189e-03,  1.43451470e-03
   18361, -2.69956082e-03, -6.33609632e-03, -1.43451470e-03
   18362, -2.91298519e-03, -6.29178161e-03, -1.05696829e-03
   18363, -3.05897606e-03, -6.26146857e-03, -6.47306439e-04
   18364, -3.13309756e-03, -6.24607824e-03, -2.17976515e-04
   18365, -3.13309756e-03, -6.24607824e-03,  2.17976515e-04
   18366, -3.05897606e-03, -6.26146857e-03,  6.47306439e-04
   18367, -2.91298519e-03, -6.29178161e-03,  1.05696829e-03
   18368, -2.69956082e-03, -6.33609632e-03,  1.43451470e-03
   18369, -2.37357312e-03, -4.48827476e-03, -1.43451470e-03
   18370, -2.58927745e-03, -4.45688373e-03, -1.05696829e-03
   18371, -2.73682790e-03, -4.43541100e-03, -6.47306439e-04
   18372, -2.81174122e-03, -4.42450901e-03, -2.17976515e-04
   18373, -2.81174122e-03, -4.42450901e-03,  2.17976515e-04
   18374, -2.73682790e-03, -4.43541100e-03,  6.47306439e-04
   18375, -2.58927745e-03, -4.45688373e-03,  1.05696829e-03
   18376, -2.37357312e-03, -4.48827476e-03,  1.43451470e-03
   18377, -2.15937366e-03, -2.62418487e-03, -1.43451470e-03
   18378, -2.37657610e-03, -2.60583130e-03, -1.05696829e-03
   18379, -2.52515133e-03, -2.59327672e-03, -6.47306439e-04
   18380, -2.60058494e-03, -2.58690260e-03, -2.17976515e-04
   18381, -2.60058494e-03, -2.58690260e-03,  2.17976515e-04
   18382, -2.52515133e-03, -2.59327672e-03,  6.47306439e-04
   18383, -2.37657610e-03, -2.60583130e-03,  1.05696829e-03
   18384, -2.15937366e-03, -2.62418487e-03,  1.43451470e-03
   18385, -2.05773885e-03, -7.50583293e-04, -1.43451470e-03
   18386, -2.27565212e-03, -7.45333708e-04, -1.05696829e-03
   18387, -2.42471359e-03, -7.41742781e-04, -6.47306439e-04
   18388, -2.50039407e-03, -7.39919619e-04, -2.17976515e-04
   18389, -2.50039407e-03, -7.39919619e-04,  2.17976515e-04
   18390, -2.42471359e-03, -7.41742781e-04,  6.47306439e-04
   18391, -2.27565212e-03, -7.45333708e-04,  1.05696829e-03
   18392, -2.05773885e-03, -7.50583293e-04,  1.43451470e-03
*ELEMENT, TYPE=SPRINGA, ELSET=WK_0
   16588,    12547,    17841
*SPRING, ELSET=WK_0

8.715574e-02
*ELEMENT, TYPE=SPRINGA, ELSET=WK_1
   16589,    12550,    17842
*SPRING, ELSET=WK_1

8.715574e-02
*ELEMENT, TYPE=SPRINGA, ELSET=WK_2
   16590,    12553,    17843
*SPRING, ELSET=WK_2

8.715574e-02
*ELEMENT, TYPE=SPRINGA, ELSET=WK_3
   16591,    12556,    17844
*SPRING, ELSET=WK_3

8.715574e-02
*ELEMENT, TYPE=SPRINGA, ELSET=WK_4
   16592,    12559,    17845
*SPRING, ELSET=WK_4

8.715574e-02
*ELEMENT, TYPE=SPRINGA, ELSET=WK_5
   16593,    12562,    17846
*SPRING, ELSET=WK_5

8.715574e-02
*ELEMENT, TYPE=SPRINGA, ELSET=WK_6
   16594,    12565,    17847
*SPRING, ELSET=WK_6

8.715574e-02
*ELEMENT, TYPE=SPRINGA, ELSET=WK_7
   16595,    12568,    17848
*SPRING, ELSET=WK_7

8.715574e-02
*ELEMENT, TYPE=SPRINGA, ELSET=WK_8
   16596,    12571,    17849
*SPRING, ELSET=WK_8

8.715574e-02
*ELEMENT, TYPE=SPRINGA, ELSET=WK_9
   16597,    12574,    17850
*SPRING, ELSET=WK_9

8.715574e-02
*ELEMENT, TYPE=SPRINGA, ELSET=WK_10
   16598,    12577,    17851
*SPRING, ELSET=WK_10

1.743115e-01
*ELEMENT, TYPE=SPRINGA, ELSET=WK_11
   16599,    12580,    17852
*SPRING, ELSET=WK_11

1.743115e-01
*ELEMENT, TYPE=SPRINGA, ELSET=WK_12
   16600,    12583,    17853
*SPRING, ELSET=WK_12

1.743115e-01
*ELEMENT, TYPE=SPRINGA, ELSET=WK_13
   16601,    12586,    17854
*SPRING, ELSET=WK_13

1.743115e-01
*ELEMENT, TYPE=SPRINGA, ELSET=WK_14
   16602,    12589,    17855
*SPRING, ELSET=WK_14

1.743115e-01
*ELEMENT, TYPE=SPRINGA, ELSET=WK_15
   16603,    12592,    17856
*SPRING, ELSET=WK_15

1.743115e-01
*ELEMENT, TYPE=SPRINGA, ELSET=WK_16
   16604,    12595,    17857
*SPRING, ELSET=WK_16

1.743115e-01
*ELEMENT, TYPE=SPRINGA, ELSET=WK_17
   16605,    12598,    17858
*SPRING, ELSET=WK_17

1.743115e-01
*ELEMENT, TYPE=SPRINGA, ELSET=WK_18
   16606,    12601,    17859
*SPRING, ELSET=WK_18

1.743115e-01
*ELEMENT, TYPE=SPRINGA, ELSET=WK_19
   16607,    12604,    17860
*SPRING, ELSET=WK_19

1.743115e-01
*ELEMENT, TYPE=SPRINGA, ELSET=WK_20
   16608,    12607,    17861
*SPRING, ELSET=WK_20

1.743115e-01
*ELEMENT, TYPE=SPRINGA, ELSET=WK_21
   16609,    12610,    17862
*SPRING, ELSET=WK_21

1.743115e-01
*ELEMENT, TYPE=SPRINGA, ELSET=WK_22
   16610,    12613,    17863
*SPRING, ELSET=WK_22

1.743115e-01
*ELEMENT, TYPE=SPRINGA, ELSET=WK_23
   16611,    12616,    17864
*SPRING, ELSET=WK_23

1.743115e-01
*ELEMENT, TYPE=SPRINGA, ELSET=WK_24
   16612,    12619,    17865
*SPRING, ELSET=WK_24

1.743115e-01
*ELEMENT, TYPE=SPRINGA, ELSET=WK_25
   16613,    12622,    17866
*SPRING, ELSET=WK_25

1.743115e-01
*ELEMENT, TYPE=SPRINGA, ELSET=WK_26
   16614,    12625,    17867
*SPRING, ELSET=WK_26

1.743115e-01
*ELEMENT, TYPE=SPRINGA, ELSET=WK_27
   16615,    12628,    17868
*SPRING, ELSET=WK_27

1.743115e-01
*ELEMENT, TYPE=SPRINGA, ELSET=WK_28
   16616,    12631,    17869
*SPRING, ELSET=WK_28

1.743115e-01
*ELEMENT, TYPE=SPRINGA, ELSET=WK_29
   16617,    12634,    17870
*SPRING, ELSET=WK_29

1.743115e-01
*ELEMENT, TYPE=SPRINGA, ELSET=WK_30
   16618,    12637,    17871
*SPRING, ELSET=WK_30

1.743115e-01
*ELEMENT, TYPE=SPRINGA, ELSET=WK_31
   16619,    12640,    17872
*SPRING, ELSET=WK_31

1.743115e-01
*ELEMENT, TYPE=SPRINGA, ELSET=WK_32
   16620,    12643,    17873
*SPRING, ELSET=WK_32

1.743115e-01
*ELEMENT, TYPE=SPRINGA, ELSET=WK_33
   16621,    12646,    17874
*SPRING, ELSET=WK_33

1.743115e-01
*ELEMENT, TYPE=SPRINGA, ELSET=WK_34
   16622,    12649,    17875
*SPRING, ELSET=WK_34

1.743115e-01
*ELEMENT, TYPE=SPRINGA, ELSET=WK_35
   16623,    12652,    17876
*SPRING, ELSET=WK_35

1.743115e-01
*ELEMENT, TYPE=SPRINGA, ELSET=WK_36
   16624,    12655,    17877
*SPRING, ELSET=WK_36

1.743115e-01
*ELEMENT, TYPE=SPRINGA, ELSET=WK_37
   16625,    12658,    17878
*SPRING, ELSET=WK_37

1.743115e-01
*ELEMENT, TYPE=SPRINGA, ELSET=WK_38
   16626,    12661,    17879
*SPRING, ELSET=WK_38

1.743115e-01
*ELEMENT, TYPE=SPRINGA, ELSET=WK_39
   16627,    12664,    17880
*SPRING, ELSET=WK_39

1.743115e-01
*ELEMENT, TYPE=SPRINGA, ELSET=WK_40
   16628,    12667,    17881
*SPRING, ELSET=WK_40

1.743115e-01
*ELEMENT, TYPE=SPRINGA, ELSET=WK_41
   16629,    12670,    17882
*SPRING, ELSET=WK_41

1.743115e-01
*ELEMENT, TYPE=SPRINGA, ELSET=WK_42
   16630,    12673,    17883
*SPRING, ELSET=WK_42

1.743115e-01
*ELEMENT, TYPE=SPRINGA, ELSET=WK_43
   16631,    12676,    17884
*SPRING, ELSET=WK_43

1.743115e-01
*ELEMENT, TYPE=SPRINGA, ELSET=WK_44
   16632,    12679,    17885
*SPRING, ELSET=WK_44

1.743115e-01
*ELEMENT, TYPE=SPRINGA, ELSET=WK_45
   16633,    12682,    17886
*SPRING, ELSET=WK_45

1.743115e-01
*ELEMENT, TYPE=SPRINGA, ELSET=WK_46
   16634,    12685,    17887
*SPRING, ELSET=WK_46

1.743115e-01
*ELEMENT, TYPE=SPRINGA, ELSET=WK_47
   16635,    12688,    17888
*SPRING, ELSET=WK_47

1.743115e-01
*ELEMENT, TYPE=SPRINGA, ELSET=WK_48
   16636,    12691,    17889
*SPRING, ELSET=WK_48

1.743115e-01
*ELEMENT, TYPE=SPRINGA, ELSET=WK_49
   16637,    12694,    17890
*SPRING, ELSET=WK_49

1.743115e-01
*ELEMENT, TYPE=SPRINGA, ELSET=WK_50
   16638,    12697,    17891
*SPRING, ELSET=WK_50

1.743115e-01
*ELEMENT, TYPE=SPRINGA, ELSET=WK_51
   16639,    12700,    17892
*SPRING, ELSET=WK_51

1.743115e-01
*ELEMENT, TYPE=SPRINGA, ELSET=WK_52
   16640,    12703,    17893
*SPRING, ELSET=WK_52

1.743115e-01
*ELEMENT, TYPE=SPRINGA, ELSET=WK_53
   16641,    12718,    17894
*SPRING, ELSET=WK_53

1.743115e-01
*ELEMENT, TYPE=SPRINGA, ELSET=WK_54
   16642,    12721,    17895
*SPRING, ELSET=WK_54

1.743115e-01
*ELEMENT, TYPE=SPRINGA, ELSET=WK_55
   16643,    12724,    17896
*SPRING, ELSET=WK_55

1.743115e-01
*ELEMENT, TYPE=SPRINGA, ELSET=WK_56
   16644,    12727,    17897
*SPRING, ELSET=WK_56

1.743115e-01
*ELEMENT, TYPE=SPRINGA, ELSET=WK_57
   16645,    12730,    17898
*SPRING, ELSET=WK_57

1.743115e-01
*ELEMENT, TYPE=SPRINGA, ELSET=WK_58
   16646,    12733,    17899
*SPRING, ELSET=WK_58

1.743115e-01
*ELEMENT, TYPE=SPRINGA, ELSET=WK_59
   16647,    12748,    17900
*SPRING, ELSET=WK_59

1.743115e-01
*ELEMENT, TYPE=SPRINGA, ELSET=WK_60
   16648,    12751,    17901
*SPRING, ELSET=WK_60

1.743115e-01
*ELEMENT, TYPE=SPRINGA, ELSET=WK_61
   16649,    12754,    17902
*SPRING, ELSET=WK_61

1.743115e-01
*ELEMENT, TYPE=SPRINGA, ELSET=WK_62
   16650,    12757,    17903
*SPRING, ELSET=WK_62

1.743115e-01
*ELEMENT, TYPE=SPRINGA, ELSET=WK_63
   16651,    12760,    17904
*SPRING, ELSET=WK_63

1.743115e-01
*ELEMENT, TYPE=SPRINGA, ELSET=WK_64
   16652,    12763,    17905
*SPRING, ELSET=WK_64

1.743115e-01
*ELEMENT, TYPE=SPRINGA, ELSET=WK_65
   16653,    12778,    17906
*SPRING, ELSET=WK_65

1.743115e-01
*ELEMENT, TYPE=SPRINGA, ELSET=WK_66
   16654,    12781,    17907
*SPRING, ELSET=WK_66

1.743115e-01
*ELEMENT, TYPE=SPRINGA, ELSET=WK_67
   16655,    12784,    17908
*SPRING, ELSET=WK_67

1.743115e-01
*ELEMENT, TYPE=SPRINGA, ELSET=WK_68
   16656,    12787,    17909
*SPRING, ELSET=WK_68

1.743115e-01
*ELEMENT, TYPE=SPRINGA, ELSET=WK_69
   16657,    12790,    17910
*SPRING, ELSET=WK_69

1.743115e-01
*ELEMENT, TYPE=SPRINGA, ELSET=WK_70
   16658,    12793,    17911
*SPRING, ELSET=WK_70

1.743115e-01
*ELEMENT, TYPE=SPRINGA, ELSET=WK_71
   16659,    12808,    17912
*SPRING, ELSET=WK_71

1.743115e-01
*ELEMENT, TYPE=SPRINGA, ELSET=WK_72
   16660,    12811,    17913
*SPRING, ELSET=WK_72

1.743115e-01
*ELEMENT, TYPE=SPRINGA, ELSET=WK_73
   16661,    12814,    17914
*SPRING, ELSET=WK_73

1.743115e-01
*ELEMENT, TYPE=SPRINGA, ELSET=WK_74
   16662,    12817,    17915
*SPRING, ELSET=WK_74

1.743115e-01
*ELEMENT, TYPE=SPRINGA, ELSET=WK_75
   16663,    12820,    17916
*SPRING, ELSET=WK_75

1.743115e-01
*ELEMENT, TYPE=SPRINGA, ELSET=WK_76
   16664,    12823,    17917
*SPRING, ELSET=WK_76

1.743115e-01
*ELEMENT, TYPE=SPRINGA, ELSET=WK_77
   16665,    12838,    17918
*SPRING, ELSET=WK_77

1.743115e-01
*ELEMENT, TYPE=SPRINGA, ELSET=WK_78
   16666,    12841,    17919
*SPRING, ELSET=WK_78

1.743115e-01
*ELEMENT, TYPE=SPRINGA, ELSET=WK_79
   16667,    12844,    17920
*SPRING, ELSET=WK_79

1.743115e-01
*ELEMENT, TYPE=SPRINGA, ELSET=WK_80
   16668,    12847,    17921
*SPRING, ELSET=WK_80

1.743115e-01
*ELEMENT, TYPE=SPRINGA, ELSET=WK_81
   16669,    12850,    17922
*SPRING, ELSET=WK_81

1.743115e-01
*ELEMENT, TYPE=SPRINGA, ELSET=WK_82
   16670,    12853,    17923
*SPRING, ELSET=WK_82

1.743115e-01
*ELEMENT, TYPE=SPRINGA, ELSET=WK_83
   16671,    12868,    17924
*SPRING, ELSET=WK_83

1.743115e-01
*ELEMENT, TYPE=SPRINGA, ELSET=WK_84
   16672,    12871,    17925
*SPRING, ELSET=WK_84

1.743115e-01
*ELEMENT, TYPE=SPRINGA, ELSET=WK_85
   16673,    12874,    17926
*SPRING, ELSET=WK_85

1.743115e-01
*ELEMENT, TYPE=SPRINGA, ELSET=WK_86
   16674,    12877,    17927
*SPRING, ELSET=WK_86

1.743115e-01
*ELEMENT, TYPE=SPRINGA, ELSET=WK_87
   16675,    12880,    17928
*SPRING, ELSET=WK_87

1.743115e-01
*ELEMENT, TYPE=SPRINGA, ELSET=WK_88
   16676,    12883,    17929
*SPRING, ELSET=WK_88

1.743115e-01
*ELEMENT, TYPE=SPRINGA, ELSET=WK_89
   16677,    12886,    17930
*SPRING, ELSET=WK_89

1.743115e-01
*ELEMENT, TYPE=SPRINGA, ELSET=WK_90
   16678,    12889,    17931
*SPRING, ELSET=WK_90

1.743115e-01
*ELEMENT, TYPE=SPRINGA, ELSET=WK_91
   16679,    12892,    17932
*SPRING, ELSET=WK_91

1.743115e-01
*ELEMENT, TYPE=SPRINGA, ELSET=WK_92
   16680,    12895,    17933
*SPRING, ELSET=WK_92

1.743115e-01
*ELEMENT, TYPE=SPRINGA, ELSET=WK_93
   16681,    12898,    17934
*SPRING, ELSET=WK_93

1.743115e-01
*ELEMENT, TYPE=SPRINGA, ELSET=WK_94
   16682,    12901,    17935
*SPRING, ELSET=WK_94

1.743115e-01
*ELEMENT, TYPE=SPRINGA, ELSET=WK_95
   16683,    12904,    17936
*SPRING, ELSET=WK_95

1.743115e-01
*ELEMENT, TYPE=SPRINGA, ELSET=WK_96
   16684,    12907,    17937
*SPRING, ELSET=WK_96

1.743115e-01
*ELEMENT, TYPE=SPRINGA, ELSET=WK_97
   16685,    12910,    17938
*SPRING, ELSET=WK_97

1.743115e-01
*ELEMENT, TYPE=SPRINGA, ELSET=WK_98
   16686,    12913,    17939
*SPRING, ELSET=WK_98

1.743115e-01
*ELEMENT, TYPE=SPRINGA, ELSET=WK_99
   16687,    12916,    17940
*SPRING, ELSET=WK_99

1.743115e-01
*ELEMENT, TYPE=SPRINGA, ELSET=WK_100
   16688,    12919,    17941
*SPRING, ELSET=WK_100

1.743115e-01
*ELEMENT, TYPE=SPRINGA, ELSET=WK_101
   16689,    12922,    17942
*SPRING, ELSET=WK_101

1.743115e-01
*ELEMENT, TYPE=SPRINGA, ELSET=WK_102
   16690,    12925,    17943
*SPRING, ELSET=WK_102

1.743115e-01
*ELEMENT, TYPE=SPRINGA, ELSET=WK_103
   16691,    12928,    17944
*SPRING, ELSET=WK_103

1.743115e-01
*ELEMENT, TYPE=SPRINGA, ELSET=WK_104
   16692,    12931,    17945
*SPRING, ELSET=WK_104

1.743115e-01
*ELEMENT, TYPE=SPRINGA, ELSET=WK_105
   16693,    12934,    17946
*SPRING, ELSET=WK_105

1.743115e-01
*ELEMENT, TYPE=SPRINGA, ELSET=WK_106
   16694,    12937,    17947
*SPRING, ELSET=WK_106

1.743115e-01
*ELEMENT, TYPE=SPRINGA, ELSET=WK_107
   16695,    12940,    17948
*SPRING, ELSET=WK_107

1.743115e-01
*ELEMENT, TYPE=SPRINGA, ELSET=WK_108
   16696,    12943,    17949
*SPRING, ELSET=WK_108

1.743115e-01
*ELEMENT, TYPE=SPRINGA, ELSET=WK_109
   16697,    12946,    17950
*SPRING, ELSET=WK_109

1.743115e-01
*ELEMENT, TYPE=SPRINGA, ELSET=WK_110
   16698,    12949,    17951
*SPRING, ELSET=WK_110

1.743115e-01
*ELEMENT, TYPE=SPRINGA, ELSET=WK_111
   16699,    12952,    17952
*SPRING, ELSET=WK_111

1.743115e-01
*ELEMENT, TYPE=SPRINGA, ELSET=WK_112
   16700,    12955,    17953
*SPRING, ELSET=WK_112

1.743115e-01
*ELEMENT, TYPE=SPRINGA, ELSET=WK_113
   16701,    12958,    17954
*SPRING, ELSET=WK_113

1.743115e-01
*ELEMENT, TYPE=SPRINGA, ELSET=WK_114
   16702,    12961,    17955
*SPRING, ELSET=WK_114

1.743115e-01
*ELEMENT, TYPE=SPRINGA, ELSET=WK_115
   16703,    12964,    17956
*SPRING, ELSET=WK_115

1.743115e-01
*ELEMENT, TYPE=SPRINGA, ELSET=WK_116
   16704,    12967,    17957
*SPRING, ELSET=WK_116

1.743115e-01
*ELEMENT, TYPE=SPRINGA, ELSET=WK_117
   16705,    12970,    17958
*SPRING, ELSET=WK_117

1.743115e-01
*ELEMENT, TYPE=SPRINGA, ELSET=WK_118
   16706,    12973,    17959
*SPRING, ELSET=WK_118

1.743115e-01
*ELEMENT, TYPE=SPRINGA, ELSET=WK_119
   16707,    12976,    17960
*SPRING, ELSET=WK_119

1.743115e-01
*ELEMENT, TYPE=SPRINGA, ELSET=WK_120
   16708,    12979,    17961
*SPRING, ELSET=WK_120

1.743115e-01
*ELEMENT, TYPE=SPRINGA, ELSET=WK_121
   16709,    12982,    17962
*SPRING, ELSET=WK_121

1.743115e-01
*ELEMENT, TYPE=SPRINGA, ELSET=WK_122
   16710,    12985,    17963
*SPRING, ELSET=WK_122

1.743115e-01
*ELEMENT, TYPE=SPRINGA, ELSET=WK_123
   16711,    12988,    17964
*SPRING, ELSET=WK_123

1.743115e-01
*ELEMENT, TYPE=SPRINGA, ELSET=WK_124
   16712,    12991,    17965
*SPRING, ELSET=WK_124

1.743115e-01
*ELEMENT, TYPE=SPRINGA, ELSET=WK_125
   16713,    12994,    17966
*SPRING, ELSET=WK_125

1.743115e-01
*ELEMENT, TYPE=SPRINGA, ELSET=WK_126
   16714,    12997,    17967
*SPRING, ELSET=WK_126

8.715574e-02
*ELEMENT, TYPE=SPRINGA, ELSET=WK_127
   16715,    13000,    17968
*SPRING, ELSET=WK_127

8.715574e-02
*ELEMENT, TYPE=SPRINGA, ELSET=WK_128
   16716,    13003,    17969
*SPRING, ELSET=WK_128

8.715574e-02
*ELEMENT, TYPE=SPRINGA, ELSET=WK_129
   16717,    13006,    17970
*SPRING, ELSET=WK_129

8.715574e-02
*ELEMENT, TYPE=SPRINGA, ELSET=WK_130
   16718,    13009,    17971
*SPRING, ELSET=WK_130

8.715574e-02
*ELEMENT, TYPE=SPRINGA, ELSET=WK_131
   16719,    13012,    17972
*SPRING, ELSET=WK_131

8.715574e-02
*ELEMENT, TYPE=SPRINGA, ELSET=WK_132
   16720,    13015,    17973
*SPRING, ELSET=WK_132

8.715574e-02
*ELEMENT, TYPE=SPRINGA, ELSET=WK_133
   16721,    13018,    17974
*SPRING, ELSET=WK_133

8.715574e-02
*ELEMENT, TYPE=SPRINGA, ELSET=WK_134
   16722,    13021,    17975
*SPRING, ELSET=WK_134

8.715574e-02
*ELEMENT, TYPE=SPRINGA, ELSET=WK_135
   16723,    13024,    17976
*SPRING, ELSET=WK_135

8.715574e-02
*ELEMENT, TYPE=SPRINGA, ELSET=WK_136
   16724,    13027,    17977
*SPRING, ELSET=WK_136

8.715574e-02
*ELEMENT, TYPE=SPRINGA, ELSET=WK_137
   16725,    13030,    17978
*SPRING, ELSET=WK_137

8.715574e-02
*ELEMENT, TYPE=SPRINGA, ELSET=WK_138
   16726,    13033,    17979
*SPRING, ELSET=WK_138

8.715574e-02
*ELEMENT, TYPE=SPRINGA, ELSET=WK_139
   16727,    13036,    17980
*SPRING, ELSET=WK_139

8.715574e-02
*ELEMENT, TYPE=SPRINGA, ELSET=WK_140
   16728,    13039,    17981
*SPRING, ELSET=WK_140

8.715574e-02
*ELEMENT, TYPE=SPRINGA, ELSET=WK_141
   16729,    13042,    17982
*SPRING, ELSET=WK_141

8.715574e-02
*ELEMENT, TYPE=SPRINGA, ELSET=WK_142
   16730,    13045,    17983
*SPRING, ELSET=WK_142

8.715574e-02
*ELEMENT, TYPE=SPRINGA, ELSET=WK_143
   16731,    13048,    17984
*SPRING, ELSET=WK_143

8.715574e-02
*ELEMENT, TYPE=SPRINGA, ELSET=WK_144
   16732,    13051,    17985
*SPRING, ELSET=WK_144

8.715574e-02
*ELEMENT, TYPE=SPRINGA, ELSET=WK_145
   16733,    13054,    17986
*SPRING, ELSET=WK_145

1.743115e-01
*ELEMENT, TYPE=SPRINGA, ELSET=WK_146
   16734,    13057,    17987
*SPRING, ELSET=WK_146

1.743115e-01
*ELEMENT, TYPE=SPRINGA, ELSET=WK_147
   16735,    13060,    17988
*SPRING, ELSET=WK_147

1.743115e-01
*ELEMENT, TYPE=SPRINGA, ELSET=WK_148
   16736,    13063,    17989
*SPRING, ELSET=WK_148

1.743115e-01
*ELEMENT, TYPE=SPRINGA, ELSET=WK_149
   16737,    13066,    17990
*SPRING, ELSET=WK_149

1.743115e-01
*ELEMENT, TYPE=SPRINGA, ELSET=WK_150
   16738,    13069,    17991
*SPRING, ELSET=WK_150

1.743115e-01
*ELEMENT, TYPE=SPRINGA, ELSET=WK_151
   16739,    13072,    17992
*SPRING, ELSET=WK_151

1.743115e-01
*ELEMENT, TYPE=SPRINGA, ELSET=WK_152
   16740,    13075,    17993
*SPRING, ELSET=WK_152

1.743115e-01
*ELEMENT, TYPE=SPRINGA, ELSET=WK_153
   16741,    13078,    17994
*SPRING, ELSET=WK_153

1.743115e-01
*ELEMENT, TYPE=SPRINGA, ELSET=WK_154
   16742,    13081,    17995
*SPRING, ELSET=WK_154

1.743115e-01
*ELEMENT, TYPE=SPRINGA, ELSET=WK_155
   16743,    13084,    17996
*SPRING, ELSET=WK_155

1.743115e-01
*ELEMENT, TYPE=SPRINGA, ELSET=WK_156
   16744,    13087,    17997
*SPRING, ELSET=WK_156

1.743115e-01
*ELEMENT, TYPE=SPRINGA, ELSET=WK_157
   16745,    13090,    17998
*SPRING, ELSET=WK_157

1.743115e-01
*ELEMENT, TYPE=SPRINGA, ELSET=WK_158
   16746,    13093,    17999
*SPRING, ELSET=WK_158

1.743115e-01
*ELEMENT, TYPE=SPRINGA, ELSET=WK_159
   16747,    13096,    18000
*SPRING, ELSET=WK_159

1.743115e-01
*ELEMENT, TYPE=SPRINGA, ELSET=WK_160
   16748,    13099,    18001
*SPRING, ELSET=WK_160

1.743115e-01
*ELEMENT, TYPE=SPRINGA, ELSET=WK_161
   16749,    13102,    18002
*SPRING, ELSET=WK_161

1.743115e-01
*ELEMENT, TYPE=SPRINGA, ELSET=WK_162
   16750,    13105,    18003
*SPRING, ELSET=WK_162

1.743115e-01
*ELEMENT, TYPE=SPRINGA, ELSET=WK_163
   16751,    13108,    18004
*SPRING, ELSET=WK_163

1.743115e-01
*ELEMENT, TYPE=SPRINGA, ELSET=WK_164
   16752,    13111,    18005
*SPRING, ELSET=WK_164

1.743115e-01
*ELEMENT, TYPE=SPRINGA, ELSET=WK_165
   16753,    13114,    18006
*SPRING, ELSET=WK_165

1.743115e-01
*ELEMENT, TYPE=SPRINGA, ELSET=WK_166
   16754,    13117,    18007
*SPRING, ELSET=WK_166

1.743115e-01
*ELEMENT, TYPE=SPRINGA, ELSET=WK_167
   16755,    13120,    18008
*SPRING, ELSET=WK_167

1.743115e-01
*ELEMENT, TYPE=SPRINGA, ELSET=WK_168
   16756,    13123,    18009
*SPRING, ELSET=WK_168

1.743115e-01
*ELEMENT, TYPE=SPRINGA, ELSET=WK_169
   16757,    13126,    18010
*SPRING, ELSET=WK_169

1.743115e-01
*ELEMENT, TYPE=SPRINGA, ELSET=WK_170
   16758,    13129,    18011
*SPRING, ELSET=WK_170

1.743115e-01
*ELEMENT, TYPE=SPRINGA, ELSET=WK_171
   16759,    13132,    18012
*SPRING, ELSET=WK_171

1.743115e-01
*ELEMENT, TYPE=SPRINGA, ELSET=WK_172
   16760,    13135,    18013
*SPRING, ELSET=WK_172

1.743115e-01
*ELEMENT, TYPE=SPRINGA, ELSET=WK_173
   16761,    13138,    18014
*SPRING, ELSET=WK_173

1.743115e-01
*ELEMENT, TYPE=SPRINGA, ELSET=WK_174
   16762,    13141,    18015
*SPRING, ELSET=WK_174

1.743115e-01
*ELEMENT, TYPE=SPRINGA, ELSET=WK_175
   16763,    13144,    18016
*SPRING, ELSET=WK_175

1.743115e-01
*ELEMENT, TYPE=SPRINGA, ELSET=WK_176
   16764,    13147,    18017
*SPRING, ELSET=WK_176

1.743115e-01
*ELEMENT, TYPE=SPRINGA, ELSET=WK_177
   16765,    13150,    18018
*SPRING, ELSET=WK_177

1.743115e-01
*ELEMENT, TYPE=SPRINGA, ELSET=WK_178
   16766,    13153,    18019
*SPRING, ELSET=WK_178

1.743115e-01
*ELEMENT, TYPE=SPRINGA, ELSET=WK_179
   16767,    13156,    18020
*SPRING, ELSET=WK_179

1.743115e-01
*ELEMENT, TYPE=SPRINGA, ELSET=WK_180
   16768,    13159,    18021
*SPRING, ELSET=WK_180

1.743115e-01
*ELEMENT, TYPE=SPRINGA, ELSET=WK_181
   16769,    13162,    18022
*SPRING, ELSET=WK_181

1.743115e-01
*ELEMENT, TYPE=SPRINGA, ELSET=WK_182
   16770,    13165,    18023
*SPRING, ELSET=WK_182

1.743115e-01
*ELEMENT, TYPE=SPRINGA, ELSET=WK_183
   16771,    13168,    18024
*SPRING, ELSET=WK_183

1.743115e-01
*ELEMENT, TYPE=SPRINGA, ELSET=WK_184
   16772,    13171,    18025
*SPRING, ELSET=WK_184

1.743115e-01
*ELEMENT, TYPE=SPRINGA, ELSET=WK_185
   16773,    13174,    18026
*SPRING, ELSET=WK_185

1.743115e-01
*ELEMENT, TYPE=SPRINGA, ELSET=WK_186
   16774,    13177,    18027
*SPRING, ELSET=WK_186

1.743115e-01
*ELEMENT, TYPE=SPRINGA, ELSET=WK_187
   16775,    13180,    18028
*SPRING, ELSET=WK_187

1.743115e-01
*ELEMENT, TYPE=SPRINGA, ELSET=WK_188
   16776,    13183,    18029
*SPRING, ELSET=WK_188

1.743115e-01
*ELEMENT, TYPE=SPRINGA, ELSET=WK_189
   16777,    13186,    18030
*SPRING, ELSET=WK_189

1.743115e-01
*ELEMENT, TYPE=SPRINGA, ELSET=WK_190
   16778,    13189,    18031
*SPRING, ELSET=WK_190

1.743115e-01
*ELEMENT, TYPE=SPRINGA, ELSET=WK_191
   16779,    13192,    18032
*SPRING, ELSET=WK_191

1.743115e-01
*ELEMENT, TYPE=SPRINGA, ELSET=WK_192
   16780,    13195,    18033
*SPRING, ELSET=WK_192

1.743115e-01
*ELEMENT, TYPE=SPRINGA, ELSET=WK_193
   16781,    13198,    18034
*SPRING, ELSET=WK_193

1.743115e-01
*ELEMENT, TYPE=SPRINGA, ELSET=WK_194
   16782,    13201,    18035
*SPRING, ELSET=WK_194

1.743115e-01
*ELEMENT, TYPE=SPRINGA, ELSET=WK_195
   16783,    13204,    18036
*SPRING, ELSET=WK_195

1.743115e-01
*ELEMENT, TYPE=SPRINGA, ELSET=WK_196
   16784,    13207,    18037
*SPRING, ELSET=WK_196

1.743115e-01
*ELEMENT, TYPE=SPRINGA, ELSET=WK_197
   16785,    13210,    18038
*SPRING, ELSET=WK_197

1.743115e-01
*ELEMENT, TYPE=SPRINGA, ELSET=WK_198
   16786,    13213,    18039
*SPRING, ELSET=WK_198

1.743115e-01
*ELEMENT, TYPE=SPRINGA, ELSET=WK_199
   16787,    13216,    18040
*SPRING, ELSET=WK_199

1.743115e-01
*ELEMENT, TYPE=SPRINGA, ELSET=WK_200
   16788,    13219,    18041
*SPRING, ELSET=WK_200

1.743115e-01
*ELEMENT, TYPE=SPRINGA, ELSET=WK_201
   16789,    13222,    18042
*SPRING, ELSET=WK_201

1.743115e-01
*ELEMENT, TYPE=SPRINGA, ELSET=WK_202
   16790,    13225,    18043
*SPRING, ELSET=WK_202

1.743115e-01
*ELEMENT, TYPE=SPRINGA, ELSET=WK_203
   16791,    13228,    18044
*SPRING, ELSET=WK_203

1.743115e-01
*ELEMENT, TYPE=SPRINGA, ELSET=WK_204
   16792,    13231,    18045
*SPRING, ELSET=WK_204

1.743115e-01
*ELEMENT, TYPE=SPRINGA, ELSET=WK_205
   16793,    13234,    18046
*SPRING, ELSET=WK_205

1.743115e-01
*ELEMENT, TYPE=SPRINGA, ELSET=WK_206
   16794,    13237,    18047
*SPRING, ELSET=WK_206

1.743115e-01
*ELEMENT, TYPE=SPRINGA, ELSET=WK_207
   16795,    13240,    18048
*SPRING, ELSET=WK_207

1.743115e-01
*ELEMENT, TYPE=SPRINGA, ELSET=WK_208
   16796,    13243,    18049
*SPRING, ELSET=WK_208

1.743115e-01
*ELEMENT, TYPE=SPRINGA, ELSET=WK_209
   16797,    13246,    18050
*SPRING, ELSET=WK_209

1.743115e-01
*ELEMENT, TYPE=SPRINGA, ELSET=WK_210
   16798,    13249,    18051
*SPRING, ELSET=WK_210

1.743115e-01
*ELEMENT, TYPE=SPRINGA, ELSET=WK_211
   16799,    13252,    18052
*SPRING, ELSET=WK_211

1.743115e-01
*ELEMENT, TYPE=SPRINGA, ELSET=WK_212
   16800,    13255,    18053
*SPRING, ELSET=WK_212

1.743115e-01
*ELEMENT, TYPE=SPRINGA, ELSET=WK_213
   16801,    13258,    18054
*SPRING, ELSET=WK_213

1.743115e-01
*ELEMENT, TYPE=SPRINGA, ELSET=WK_214
   16802,    13261,    18055
*SPRING, ELSET=WK_214

1.743115e-01
*ELEMENT, TYPE=SPRINGA, ELSET=WK_215
   16803,    13264,    18056
*SPRING, ELSET=WK_215

1.743115e-01
*ELEMENT, TYPE=SPRINGA, ELSET=WK_216
   16804,    13267,    18057
*SPRING, ELSET=WK_216

1.743115e-01
*ELEMENT, TYPE=SPRINGA, ELSET=WK_217
   16805,    13270,    18058
*SPRING, ELSET=WK_217

1.743115e-01
*ELEMENT, TYPE=SPRINGA, ELSET=WK_218
   16806,    13273,    18059
*SPRING, ELSET=WK_218

1.743115e-01
*ELEMENT, TYPE=SPRINGA, ELSET=WK_219
   16807,    13276,    18060
*SPRING, ELSET=WK_219

1.743115e-01
*ELEMENT, TYPE=SPRINGA, ELSET=WK_220
   16808,    13279,    18061
*SPRING, ELSET=WK_220

1.743115e-01
*ELEMENT, TYPE=SPRINGA, ELSET=WK_221
   16809,    13282,    18062
*SPRING, ELSET=WK_221

1.743115e-01
*ELEMENT, TYPE=SPRINGA, ELSET=WK_222
   16810,    13285,    18063
*SPRING, ELSET=WK_222

1.743115e-01
*ELEMENT, TYPE=SPRINGA, ELSET=WK_223
   16811,    13288,    18064
*SPRING, ELSET=WK_223

1.743115e-01
*ELEMENT, TYPE=SPRINGA, ELSET=WK_224
   16812,    13291,    18065
*SPRING, ELSET=WK_224

1.743115e-01
*ELEMENT, TYPE=SPRINGA, ELSET=WK_225
   16813,    13294,    18066
*SPRING, ELSET=WK_225

1.743115e-01
*ELEMENT, TYPE=SPRINGA, ELSET=WK_226
   16814,    13297,    18067
*SPRING, ELSET=WK_226

1.743115e-01
*ELEMENT, TYPE=SPRINGA, ELSET=WK_227
   16815,    13300,    18068
*SPRING, ELSET=WK_227

1.743115e-01
*ELEMENT, TYPE=SPRINGA, ELSET=WK_228
   16816,    13303,    18069
*SPRING, ELSET=WK_228

1.743115e-01
*ELEMENT, TYPE=SPRINGA, ELSET=WK_229
   16817,    13306,    18070
*SPRING, ELSET=WK_229

1.743115e-01
*ELEMENT, TYPE=SPRINGA, ELSET=WK_230
   16818,    13309,    18071
*SPRING, ELSET=WK_230

1.743115e-01
*ELEMENT, TYPE=SPRINGA, ELSET=WK_231
   16819,    13312,    18072
*SPRING, ELSET=WK_231

1.743115e-01
*ELEMENT, TYPE=SPRINGA, ELSET=WK_232
   16820,    13315,    18073
*SPRING, ELSET=WK_232

1.743115e-01
*ELEMENT, TYPE=SPRINGA, ELSET=WK_233
   16821,    13318,    18074
*SPRING, ELSET=WK_233

1.743115e-01
*ELEMENT, TYPE=SPRINGA, ELSET=WK_234
   16822,    13321,    18075
*SPRING, ELSET=WK_234

1.743115e-01
*ELEMENT, TYPE=SPRINGA, ELSET=WK_235
   16823,    13324,    18076
*SPRING, ELSET=WK_235

1.743115e-01
*ELEMENT, TYPE=SPRINGA, ELSET=WK_236
   16824,    13327,    18077
*SPRING, ELSET=WK_236

1.743115e-01
*ELEMENT, TYPE=SPRINGA, ELSET=WK_237
   16825,    13330,    18078
*SPRING, ELSET=WK_237

1.743115e-01
*ELEMENT, TYPE=SPRINGA, ELSET=WK_238
   16826,    13333,    18079
*SPRING, ELSET=WK_238

1.743115e-01
*ELEMENT, TYPE=SPRINGA, ELSET=WK_239
   16827,    13336,    18080
*SPRING, ELSET=WK_239

1.743115e-01
*ELEMENT, TYPE=SPRINGA, ELSET=WK_240
   16828,    13339,    18081
*SPRING, ELSET=WK_240

1.743115e-01
*ELEMENT, TYPE=SPRINGA, ELSET=WK_241
   16829,    13342,    18082
*SPRING, ELSET=WK_241

1.743115e-01
*ELEMENT, TYPE=SPRINGA, ELSET=WK_242
   16830,    13345,    18083
*SPRING, ELSET=WK_242

1.743115e-01
*ELEMENT, TYPE=SPRINGA, ELSET=WK_243
   16831,    13348,    18084
*SPRING, ELSET=WK_243

1.743115e-01
*ELEMENT, TYPE=SPRINGA, ELSET=WK_244
   16832,    13351,    18085
*SPRING, ELSET=WK_244

1.743115e-01
*ELEMENT, TYPE=SPRINGA, ELSET=WK_245
   16833,    13354,    18086
*SPRING, ELSET=WK_245

1.743115e-01
*ELEMENT, TYPE=SPRINGA, ELSET=WK_246
   16834,    13357,    18087
*SPRING, ELSET=WK_246

1.743115e-01
*ELEMENT, TYPE=SPRINGA, ELSET=WK_247
   16835,    13360,    18088
*SPRING, ELSET=WK_247

1.743115e-01
*ELEMENT, TYPE=SPRINGA, ELSET=WK_248
   16836,    13363,    18089
*SPRING, ELSET=WK_248

1.743115e-01
*ELEMENT, TYPE=SPRINGA, ELSET=WK_249
   16837,    13366,    18090
*SPRING, ELSET=WK_249

1.743115e-01
*ELEMENT, TYPE=SPRINGA, ELSET=WK_250
   16838,    13369,    18091
*SPRING, ELSET=WK_250

1.743115e-01
*ELEMENT, TYPE=SPRINGA, ELSET=WK_251
   16839,    13372,    18092
*SPRING, ELSET=WK_251

1.743115e-01
*ELEMENT, TYPE=SPRINGA, ELSET=WK_252
   16840,    13375,    18093
*SPRING, ELSET=WK_252

1.743115e-01
*ELEMENT, TYPE=SPRINGA, ELSET=WK_253
   16841,    13378,    18094
*SPRING, ELSET=WK_253

1.743115e-01
*ELEMENT, TYPE=SPRINGA, ELSET=WK_254
   16842,    13381,    18095
*SPRING, ELSET=WK_254

1.743115e-01
*ELEMENT, TYPE=SPRINGA, ELSET=WK_255
   16843,    13384,    18096
*SPRING, ELSET=WK_255

1.743115e-01
*ELEMENT, TYPE=SPRINGA, ELSET=WK_256
   16844,    13387,    18097
*SPRING, ELSET=WK_256

1.743115e-01
*ELEMENT, TYPE=SPRINGA, ELSET=WK_257
   16845,    13390,    18098
*SPRING, ELSET=WK_257

1.743115e-01
*ELEMENT, TYPE=SPRINGA, ELSET=WK_258
   16846,    13393,    18099
*SPRING, ELSET=WK_258

1.743115e-01
*ELEMENT, TYPE=SPRINGA, ELSET=WK_259
   16847,    13396,    18100
*SPRING, ELSET=WK_259

1.743115e-01
*ELEMENT, TYPE=SPRINGA, ELSET=WK_260
   16848,    13399,    18101
*SPRING, ELSET=WK_260

1.743115e-01
*ELEMENT, TYPE=SPRINGA, ELSET=WK_261
   16849,    13402,    18102
*SPRING, ELSET=WK_261

1.743115e-01
*ELEMENT, TYPE=SPRINGA, ELSET=WK_262
   16850,    13405,    18103
*SPRING, ELSET=WK_262

1.743115e-01
*ELEMENT, TYPE=SPRINGA, ELSET=WK_263
   16851,    13408,    18104
*SPRING, ELSET=WK_263

1.743115e-01
*ELEMENT, TYPE=SPRINGA, ELSET=WK_264
   16852,    13411,    18105
*SPRING, ELSET=WK_264

1.743115e-01
*ELEMENT, TYPE=SPRINGA, ELSET=WK_265
   16853,    13414,    18106
*SPRING, ELSET=WK_265

1.743115e-01
*ELEMENT, TYPE=SPRINGA, ELSET=WK_266
   16854,    13417,    18107
*SPRING, ELSET=WK_266

1.743115e-01
*ELEMENT, TYPE=SPRINGA, ELSET=WK_267
   16855,    13420,    18108
*SPRING, ELSET=WK_267

1.743115e-01
*ELEMENT, TYPE=SPRINGA, ELSET=WK_268
   16856,    13423,    18109
*SPRING, ELSET=WK_268

1.743115e-01
*ELEMENT, TYPE=SPRINGA, ELSET=WK_269
   16857,    13426,    18110
*SPRING, ELSET=WK_269

1.743115e-01
*ELEMENT, TYPE=SPRINGA, ELSET=WK_270
   16858,    13429,    18111
*SPRING, ELSET=WK_270

1.743115e-01
*ELEMENT, TYPE=SPRINGA, ELSET=WK_271
   16859,    13432,    18112
*SPRING, ELSET=WK_271

8.715574e-02
*ELEMENT, TYPE=SPRINGA, ELSET=WK_272
   16860,    13435,    18113
*SPRING, ELSET=WK_272

8.715574e-02
*ELEMENT, TYPE=SPRINGA, ELSET=WK_273
   16861,    13438,    18114
*SPRING, ELSET=WK_273

8.715574e-02
*ELEMENT, TYPE=SPRINGA, ELSET=WK_274
   16862,    13441,    18115
*SPRING, ELSET=WK_274

8.715574e-02
*ELEMENT, TYPE=SPRINGA, ELSET=WK_275
   16863,    13444,    18116
*SPRING, ELSET=WK_275

8.715574e-02
*ELEMENT, TYPE=SPRINGA, ELSET=WK_276
   16864,    13447,    18117
*SPRING, ELSET=WK_276

8.715574e-02
*ELEMENT, TYPE=SPRINGA, ELSET=WK_277
   16865,    13450,    18118
*SPRING, ELSET=WK_277

8.715574e-02
*ELEMENT, TYPE=SPRINGA, ELSET=WK_278
   16866,    13453,    18119
*SPRING, ELSET=WK_278

8.715574e-02
*ELEMENT, TYPE=SPRINGA, ELSET=WK_279
   16867,    13456,    18120
*SPRING, ELSET=WK_279

8.715574e-02
*ELEMENT, TYPE=SPRINGA, ELSET=WK_280
   16868,    13459,    18121
*SPRING, ELSET=WK_280

8.715574e-02
*ELEMENT, TYPE=SPRINGA, ELSET=WK_281
   16869,    13462,    18122
*SPRING, ELSET=WK_281

8.715574e-02
*ELEMENT, TYPE=SPRINGA, ELSET=WK_282
   16870,    13465,    18123
*SPRING, ELSET=WK_282

8.715574e-02
*ELEMENT, TYPE=SPRINGA, ELSET=WK_283
   16871,    13468,    18124
*SPRING, ELSET=WK_283

8.715574e-02
*ELEMENT, TYPE=SPRINGA, ELSET=WK_284
   16872,    13471,    18125
*SPRING, ELSET=WK_284

8.715574e-02
*ELEMENT, TYPE=SPRINGA, ELSET=WK_285
   16873,    13474,    18126
*SPRING, ELSET=WK_285

8.715574e-02
*ELEMENT, TYPE=SPRINGA, ELSET=WK_286
   16874,    13477,    18127
*SPRING, ELSET=WK_286

8.715574e-02
*ELEMENT, TYPE=SPRINGA, ELSET=WK_287
   16875,    13480,    18128
*SPRING, ELSET=WK_287

8.715574e-02
*ELEMENT, TYPE=SPRINGA, ELSET=WK_288
   16876,    13483,    18129
*SPRING, ELSET=WK_288

8.715574e-02
*ELEMENT, TYPE=SPRINGA, ELSET=WK_289
   16877,    13486,    18130
*SPRING, ELSET=WK_289

1.743115e-01
*ELEMENT, TYPE=SPRINGA, ELSET=WK_290
   16878,    13489,    18131
*SPRING, ELSET=WK_290

1.743115e-01
*ELEMENT, TYPE=SPRINGA, ELSET=WK_291
   16879,    13492,    18132
*SPRING, ELSET=WK_291

1.743115e-01
*ELEMENT, TYPE=SPRINGA, ELSET=WK_292
   16880,    13495,    18133
*SPRING, ELSET=WK_292

1.743115e-01
*ELEMENT, TYPE=SPRINGA, ELSET=WK_293
   16881,    13498,    18134
*SPRING, ELSET=WK_293

1.743115e-01
*ELEMENT, TYPE=SPRINGA, ELSET=WK_294
   16882,    13501,    18135
*SPRING, ELSET=WK_294

1.743115e-01
*ELEMENT, TYPE=SPRINGA, ELSET=WK_295
   16883,    13504,    18136
*SPRING, ELSET=WK_295

1.743115e-01
*ELEMENT, TYPE=SPRINGA, ELSET=WK_296
   16884,    13507,    18137
*SPRING, ELSET=WK_296

1.743115e-01
*ELEMENT, TYPE=SPRINGA, ELSET=WK_297
   16885,    13510,    18138
*SPRING, ELSET=WK_297

1.743115e-01
*ELEMENT, TYPE=SPRINGA, ELSET=WK_298
   16886,    13513,    18139
*SPRING, ELSET=WK_298

1.743115e-01
*ELEMENT, TYPE=SPRINGA, ELSET=WK_299
   16887,    13516,    18140
*SPRING, ELSET=WK_299

1.743115e-01
*ELEMENT, TYPE=SPRINGA, ELSET=WK_300
   16888,    13519,    18141
*SPRING, ELSET=WK_300

1.743115e-01
*ELEMENT, TYPE=SPRINGA, ELSET=WK_301
   16889,    13522,    18142
*SPRING, ELSET=WK_301

1.743115e-01
*ELEMENT, TYPE=SPRINGA, ELSET=WK_302
   16890,    13525,    18143
*SPRING, ELSET=WK_302

1.743115e-01
*ELEMENT, TYPE=SPRINGA, ELSET=WK_303
   16891,    13528,    18144
*SPRING, ELSET=WK_303

1.743115e-01
*ELEMENT, TYPE=SPRINGA, ELSET=WK_304
   16892,    13531,    18145
*SPRING, ELSET=WK_304

1.743115e-01
*ELEMENT, TYPE=SPRINGA, ELSET=WK_305
   16893,    13534,    18146
*SPRING, ELSET=WK_305

1.743115e-01
*ELEMENT, TYPE=SPRINGA, ELSET=WK_306
   16894,    13537,    18147
*SPRING, ELSET=WK_306

1.743115e-01
*ELEMENT, TYPE=SPRINGA, ELSET=WK_307
   16895,    13540,    18148
*SPRING, ELSET=WK_307

1.743115e-01
*ELEMENT, TYPE=SPRINGA, ELSET=WK_308
   16896,    13543,    18149
*SPRING, ELSET=WK_308

1.743115e-01
*ELEMENT, TYPE=SPRINGA, ELSET=WK_309
   16897,    13546,    18150
*SPRING, ELSET=WK_309

1.743115e-01
*ELEMENT, TYPE=SPRINGA, ELSET=WK_310
   16898,    13549,    18151
*SPRING, ELSET=WK_310

1.743115e-01
*ELEMENT, TYPE=SPRINGA, ELSET=WK_311
   16899,    13552,    18152
*SPRING, ELSET=WK_311

1.743115e-01
*ELEMENT, TYPE=SPRINGA, ELSET=WK_312
   16900,    13555,    18153
*SPRING, ELSET=WK_312

1.743115e-01
*ELEMENT, TYPE=SPRINGA, ELSET=WK_313
   16901,    13558,    18154
*SPRING, ELSET=WK_313

1.743115e-01
*ELEMENT, TYPE=SPRINGA, ELSET=WK_314
   16902,    13561,    18155
*SPRING, ELSET=WK_314

1.743115e-01
*ELEMENT, TYPE=SPRINGA, ELSET=WK_315
   16903,    13564,    18156
*SPRING, ELSET=WK_315

1.743115e-01
*ELEMENT, TYPE=SPRINGA, ELSET=WK_316
   16904,    13567,    18157
*SPRING, ELSET=WK_316

1.743115e-01
*ELEMENT, TYPE=SPRINGA, ELSET=WK_317
   16905,    13570,    18158
*SPRING, ELSET=WK_317

1.743115e-01
*ELEMENT, TYPE=SPRINGA, ELSET=WK_318
   16906,    13573,    18159
*SPRING, ELSET=WK_318

1.743115e-01
*ELEMENT, TYPE=SPRINGA, ELSET=WK_319
   16907,    13576,    18160
*SPRING, ELSET=WK_319

1.743115e-01
*ELEMENT, TYPE=SPRINGA, ELSET=WK_320
   16908,    13579,    18161
*SPRING, ELSET=WK_320

1.743115e-01
*ELEMENT, TYPE=SPRINGA, ELSET=WK_321
   16909,    13582,    18162
*SPRING, ELSET=WK_321

1.743115e-01
*ELEMENT, TYPE=SPRINGA, ELSET=WK_322
   16910,    13585,    18163
*SPRING, ELSET=WK_322

1.743115e-01
*ELEMENT, TYPE=SPRINGA, ELSET=WK_323
   16911,    13588,    18164
*SPRING, ELSET=WK_323

1.743115e-01
*ELEMENT, TYPE=SPRINGA, ELSET=WK_324
   16912,    13591,    18165
*SPRING, ELSET=WK_324

1.743115e-01
*ELEMENT, TYPE=SPRINGA, ELSET=WK_325
   16913,    13594,    18166
*SPRING, ELSET=WK_325

1.743115e-01
*ELEMENT, TYPE=SPRINGA, ELSET=WK_326
   16914,    13597,    18167
*SPRING, ELSET=WK_326

1.743115e-01
*ELEMENT, TYPE=SPRINGA, ELSET=WK_327
   16915,    13600,    18168
*SPRING, ELSET=WK_327

1.743115e-01
*ELEMENT, TYPE=SPRINGA, ELSET=WK_328
   16916,    13603,    18169
*SPRING, ELSET=WK_328

1.743115e-01
*ELEMENT, TYPE=SPRINGA, ELSET=WK_329
   16917,    13606,    18170
*SPRING, ELSET=WK_329

1.743115e-01
*ELEMENT, TYPE=SPRINGA, ELSET=WK_330
   16918,    13609,    18171
*SPRING, ELSET=WK_330

1.743115e-01
*ELEMENT, TYPE=SPRINGA, ELSET=WK_331
   16919,    13612,    18172
*SPRING, ELSET=WK_331

1.743115e-01
*ELEMENT, TYPE=SPRINGA, ELSET=WK_332
   16920,    13615,    18173
*SPRING, ELSET=WK_332

1.743115e-01
*ELEMENT, TYPE=SPRINGA, ELSET=WK_333
   16921,    13618,    18174
*SPRING, ELSET=WK_333

1.743115e-01
*ELEMENT, TYPE=SPRINGA, ELSET=WK_334
   16922,    13621,    18175
*SPRING, ELSET=WK_334

1.743115e-01
*ELEMENT, TYPE=SPRINGA, ELSET=WK_335
   16923,    13624,    18176
*SPRING, ELSET=WK_335

1.743115e-01
*ELEMENT, TYPE=SPRINGA, ELSET=WK_336
   16924,    13627,    18177
*SPRING, ELSET=WK_336

1.743115e-01
*ELEMENT, TYPE=SPRINGA, ELSET=WK_337
   16925,    13630,    18178
*SPRING, ELSET=WK_337

1.743115e-01
*ELEMENT, TYPE=SPRINGA, ELSET=WK_338
   16926,    13633,    18179
*SPRING, ELSET=WK_338

1.743115e-01
*ELEMENT, TYPE=SPRINGA, ELSET=WK_339
   16927,    13636,    18180
*SPRING, ELSET=WK_339

1.743115e-01
*ELEMENT, TYPE=SPRINGA, ELSET=WK_340
   16928,    13639,    18181
*SPRING, ELSET=WK_340

1.743115e-01
*ELEMENT, TYPE=SPRINGA, ELSET=WK_341
   16929,    13642,    18182
*SPRING, ELSET=WK_341

1.743115e-01
*ELEMENT, TYPE=SPRINGA, ELSET=WK_342
   16930,    13645,    18183
*SPRING, ELSET=WK_342

1.743115e-01
*ELEMENT, TYPE=SPRINGA, ELSET=WK_343
   16931,    13648,    18184
*SPRING, ELSET=WK_343

1.743115e-01
*ELEMENT, TYPE=SPRINGA, ELSET=WK_344
   16932,    13651,    18185
*SPRING, ELSET=WK_344

1.743115e-01
*ELEMENT, TYPE=SPRINGA, ELSET=WK_345
   16933,    13654,    18186
*SPRING, ELSET=WK_345

1.743115e-01
*ELEMENT, TYPE=SPRINGA, ELSET=WK_346
   16934,    13657,    18187
*SPRING, ELSET=WK_346

1.743115e-01
*ELEMENT, TYPE=SPRINGA, ELSET=WK_347
   16935,    13660,    18188
*SPRING, ELSET=WK_347

1.743115e-01
*ELEMENT, TYPE=SPRINGA, ELSET=WK_348
   16936,    13663,    18189
*SPRING, ELSET=WK_348

1.743115e-01
*ELEMENT, TYPE=SPRINGA, ELSET=WK_349
   16937,    13666,    18190
*SPRING, ELSET=WK_349

1.743115e-01
*ELEMENT, TYPE=SPRINGA, ELSET=WK_350
   16938,    13669,    18191
*SPRING, ELSET=WK_350

1.743115e-01
*ELEMENT, TYPE=SPRINGA, ELSET=WK_351
   16939,    13672,    18192
*SPRING, ELSET=WK_351

1.743115e-01
*ELEMENT, TYPE=SPRINGA, ELSET=WK_352
   16940,    13675,    18193
*SPRING, ELSET=WK_352

1.743115e-01
*ELEMENT, TYPE=SPRINGA, ELSET=WK_353
   16941,    13678,    18194
*SPRING, ELSET=WK_353

1.743115e-01
*ELEMENT, TYPE=SPRINGA, ELSET=WK_354
   16942,    13681,    18195
*SPRING, ELSET=WK_354

1.743115e-01
*ELEMENT, TYPE=SPRINGA, ELSET=WK_355
   16943,    13684,    18196
*SPRING, ELSET=WK_355

1.743115e-01
*ELEMENT, TYPE=SPRINGA, ELSET=WK_356
   16944,    13687,    18197
*SPRING, ELSET=WK_356

1.743115e-01
*ELEMENT, TYPE=SPRINGA, ELSET=WK_357
   16945,    13690,    18198
*SPRING, ELSET=WK_357

1.743115e-01
*ELEMENT, TYPE=SPRINGA, ELSET=WK_358
   16946,    13693,    18199
*SPRING, ELSET=WK_358

1.743115e-01
*ELEMENT, TYPE=SPRINGA, ELSET=WK_359
   16947,    13696,    18200
*SPRING, ELSET=WK_359

1.743115e-01
*ELEMENT, TYPE=SPRINGA, ELSET=WK_360
   16948,    13699,    18201
*SPRING, ELSET=WK_360

1.743115e-01
*ELEMENT, TYPE=SPRINGA, ELSET=WK_361
   16949,    13702,    18202
*SPRING, ELSET=WK_361

1.743115e-01
*ELEMENT, TYPE=SPRINGA, ELSET=WK_362
   16950,    13705,    18203
*SPRING, ELSET=WK_362

1.743115e-01
*ELEMENT, TYPE=SPRINGA, ELSET=WK_363
   16951,    13708,    18204
*SPRING, ELSET=WK_363

1.743115e-01
*ELEMENT, TYPE=SPRINGA, ELSET=WK_364
   16952,    13711,    18205
*SPRING, ELSET=WK_364

1.743115e-01
*ELEMENT, TYPE=SPRINGA, ELSET=WK_365
   16953,    13714,    18206
*SPRING, ELSET=WK_365

1.743115e-01
*ELEMENT, TYPE=SPRINGA, ELSET=WK_366
   16954,    13717,    18207
*SPRING, ELSET=WK_366

1.743115e-01
*ELEMENT, TYPE=SPRINGA, ELSET=WK_367
   16955,    13720,    18208
*SPRING, ELSET=WK_367

1.743115e-01
*ELEMENT, TYPE=SPRINGA, ELSET=WK_368
   16956,    13723,    18209
*SPRING, ELSET=WK_368

1.743115e-01
*ELEMENT, TYPE=SPRINGA, ELSET=WK_369
   16957,    13726,    18210
*SPRING, ELSET=WK_369

1.743115e-01
*ELEMENT, TYPE=SPRINGA, ELSET=WK_370
   16958,    13729,    18211
*SPRING, ELSET=WK_370

1.743115e-01
*ELEMENT, TYPE=SPRINGA, ELSET=WK_371
   16959,    13732,    18212
*SPRING, ELSET=WK_371

1.743115e-01
*ELEMENT, TYPE=SPRINGA, ELSET=WK_372
   16960,    13735,    18213
*SPRING, ELSET=WK_372

1.743115e-01
*ELEMENT, TYPE=SPRINGA, ELSET=WK_373
   16961,    13738,    18214
*SPRING, ELSET=WK_373

1.743115e-01
*ELEMENT, TYPE=SPRINGA, ELSET=WK_374
   16962,    13741,    18215
*SPRING, ELSET=WK_374

1.743115e-01
*ELEMENT, TYPE=SPRINGA, ELSET=WK_375
   16963,    13744,    18216
*SPRING, ELSET=WK_375

1.743115e-01
*ELEMENT, TYPE=SPRINGA, ELSET=WK_376
   16964,    13747,    18217
*SPRING, ELSET=WK_376

1.743115e-01
*ELEMENT, TYPE=SPRINGA, ELSET=WK_377
   16965,    13750,    18218
*SPRING, ELSET=WK_377

1.743115e-01
*ELEMENT, TYPE=SPRINGA, ELSET=WK_378
   16966,    13753,    18219
*SPRING, ELSET=WK_378

1.743115e-01
*ELEMENT, TYPE=SPRINGA, ELSET=WK_379
   16967,    13756,    18220
*SPRING, ELSET=WK_379

1.743115e-01
*ELEMENT, TYPE=SPRINGA, ELSET=WK_380
   16968,    13759,    18221
*SPRING, ELSET=WK_380

1.743115e-01
*ELEMENT, TYPE=SPRINGA, ELSET=WK_381
   16969,    13762,    18222
*SPRING, ELSET=WK_381

1.743115e-01
*ELEMENT, TYPE=SPRINGA, ELSET=WK_382
   16970,    13765,    18223
*SPRING, ELSET=WK_382

1.743115e-01
*ELEMENT, TYPE=SPRINGA, ELSET=WK_383
   16971,    13768,    18224
*SPRING, ELSET=WK_383

1.743115e-01
*ELEMENT, TYPE=SPRINGA, ELSET=WK_384
   16972,    13771,    18225
*SPRING, ELSET=WK_384

1.743115e-01
*ELEMENT, TYPE=SPRINGA, ELSET=WK_385
   16973,    13774,    18226
*SPRING, ELSET=WK_385

1.743115e-01
*ELEMENT, TYPE=SPRINGA, ELSET=WK_386
   16974,    13777,    18227
*SPRING, ELSET=WK_386

1.743115e-01
*ELEMENT, TYPE=SPRINGA, ELSET=WK_387
   16975,    13780,    18228
*SPRING, ELSET=WK_387

1.743115e-01
*ELEMENT, TYPE=SPRINGA, ELSET=WK_388
   16976,    13783,    18229
*SPRING, ELSET=WK_388

1.743115e-01
*ELEMENT, TYPE=SPRINGA, ELSET=WK_389
   16977,    13786,    18230
*SPRING, ELSET=WK_389

1.743115e-01
*ELEMENT, TYPE=SPRINGA, ELSET=WK_390
   16978,    13789,    18231
*SPRING, ELSET=WK_390

1.743115e-01
*ELEMENT, TYPE=SPRINGA, ELSET=WK_391
   16979,    13792,    18232
*SPRING, ELSET=WK_391

1.743115e-01
*ELEMENT, TYPE=SPRINGA, ELSET=WK_392
   16980,    13795,    18233
*SPRING, ELSET=WK_392

1.743115e-01
*ELEMENT, TYPE=SPRINGA, ELSET=WK_393
   16981,    13798,    18234
*SPRING, ELSET=WK_393

1.743115e-01
*ELEMENT, TYPE=SPRINGA, ELSET=WK_394
   16982,    13801,    18235
*SPRING, ELSET=WK_394

1.743115e-01
*ELEMENT, TYPE=SPRINGA, ELSET=WK_395
   16983,    13804,    18236
*SPRING, ELSET=WK_395

1.743115e-01
*ELEMENT, TYPE=SPRINGA, ELSET=WK_396
   16984,    13807,    18237
*SPRING, ELSET=WK_396

1.743115e-01
*ELEMENT, TYPE=SPRINGA, ELSET=WK_397
   16985,    13810,    18238
*SPRING, ELSET=WK_397

1.743115e-01
*ELEMENT, TYPE=SPRINGA, ELSET=WK_398
   16986,    13813,    18239
*SPRING, ELSET=WK_398

1.743115e-01
*ELEMENT, TYPE=SPRINGA, ELSET=WK_399
   16987,    13816,    18240
*SPRING, ELSET=WK_399

1.743115e-01
*ELEMENT, TYPE=SPRINGA, ELSET=WK_400
   16988,    13819,    18241
*SPRING, ELSET=WK_400

1.743115e-01
*ELEMENT, TYPE=SPRINGA, ELSET=WK_401
   16989,    13822,    18242
*SPRING, ELSET=WK_401

1.743115e-01
*ELEMENT, TYPE=SPRINGA, ELSET=WK_402
   16990,    13825,    18243
*SPRING, ELSET=WK_402

1.743115e-01
*ELEMENT, TYPE=SPRINGA, ELSET=WK_403
   16991,    13828,    18244
*SPRING, ELSET=WK_403

1.743115e-01
*ELEMENT, TYPE=SPRINGA, ELSET=WK_404
   16992,    13831,    18245
*SPRING, ELSET=WK_404

1.743115e-01
*ELEMENT, TYPE=SPRINGA, ELSET=WK_405
   16993,    13834,    18246
*SPRING, ELSET=WK_405

1.743115e-01
*ELEMENT, TYPE=SPRINGA, ELSET=WK_406
   16994,    13837,    18247
*SPRING, ELSET=WK_406

1.743115e-01
*ELEMENT, TYPE=SPRINGA, ELSET=WK_407
   16995,    13840,    18248
*SPRING, ELSET=WK_407

1.743115e-01
*ELEMENT, TYPE=SPRINGA, ELSET=WK_408
   16996,    13843,    18249
*SPRING, ELSET=WK_408

1.743115e-01
*ELEMENT, TYPE=SPRINGA, ELSET=WK_409
   16997,    13846,    18250
*SPRING, ELSET=WK_409

1.743115e-01
*ELEMENT, TYPE=SPRINGA, ELSET=WK_410
   16998,    13849,    18251
*SPRING, ELSET=WK_410

1.743115e-01
*ELEMENT, TYPE=SPRINGA, ELSET=WK_411
   16999,    13852,    18252
*SPRING, ELSET=WK_411

1.743115e-01
*ELEMENT, TYPE=SPRINGA, ELSET=WK_412
   17000,    13855,    18253
*SPRING, ELSET=WK_412

1.743115e-01
*ELEMENT, TYPE=SPRINGA, ELSET=WK_413
   17001,    13858,    18254
*SPRING, ELSET=WK_413

1.743115e-01
*ELEMENT, TYPE=SPRINGA, ELSET=WK_414
   17002,    13861,    18255
*SPRING, ELSET=WK_414

1.743115e-01
*ELEMENT, TYPE=SPRINGA, ELSET=WK_415
   17003,    13864,    18256
*SPRING, ELSET=WK_415

8.715574e-02
*ELEMENT, TYPE=SPRINGA, ELSET=WK_416
   17004,    13867,    18257
*SPRING, ELSET=WK_416

8.715574e-02
*ELEMENT, TYPE=SPRINGA, ELSET=WK_417
   17005,    13870,    18258
*SPRING, ELSET=WK_417

8.715574e-02
*ELEMENT, TYPE=SPRINGA, ELSET=WK_418
   17006,    13873,    18259
*SPRING, ELSET=WK_418

8.715574e-02
*ELEMENT, TYPE=SPRINGA, ELSET=WK_419
   17007,    13876,    18260
*SPRING, ELSET=WK_419

8.715574e-02
*ELEMENT, TYPE=SPRINGA, ELSET=WK_420
   17008,    13879,    18261
*SPRING, ELSET=WK_420

8.715574e-02
*ELEMENT, TYPE=SPRINGA, ELSET=WK_421
   17009,    13882,    18262
*SPRING, ELSET=WK_421

8.715574e-02
*ELEMENT, TYPE=SPRINGA, ELSET=WK_422
   17010,    13885,    18263
*SPRING, ELSET=WK_422

8.715574e-02
*ELEMENT, TYPE=SPRINGA, ELSET=WK_423
   17011,    13888,    18264
*SPRING, ELSET=WK_423

8.715574e-02
*ELEMENT, TYPE=SPRINGA, ELSET=WK_424
   17012,    13891,    18265
*SPRING, ELSET=WK_424

8.715574e-02
*ELEMENT, TYPE=SPRINGA, ELSET=WK_425
   17013,    13894,    18266
*SPRING, ELSET=WK_425

8.715574e-02
*ELEMENT, TYPE=SPRINGA, ELSET=WK_426
   17014,    13897,    18267
*SPRING, ELSET=WK_426

8.715574e-02
*ELEMENT, TYPE=SPRINGA, ELSET=WK_427
   17015,    13900,    18268
*SPRING, ELSET=WK_427

8.715574e-02
*ELEMENT, TYPE=SPRINGA, ELSET=WK_428
   17016,    13903,    18269
*SPRING, ELSET=WK_428

8.715574e-02
*ELEMENT, TYPE=SPRINGA, ELSET=WK_429
   17017,    13906,    18270
*SPRING, ELSET=WK_429

8.715574e-02
*ELEMENT, TYPE=SPRINGA, ELSET=WK_430
   17018,    13909,    18271
*SPRING, ELSET=WK_430

8.715574e-02
*ELEMENT, TYPE=SPRINGA, ELSET=WK_431
   17019,    13912,    18272
*SPRING, ELSET=WK_431

8.715574e-02
*ELEMENT, TYPE=SPRINGA, ELSET=WK_432
   17020,    13915,    18273
*SPRING, ELSET=WK_432

1.743115e-01
*ELEMENT, TYPE=SPRINGA, ELSET=WK_433
   17021,    13918,    18274
*SPRING, ELSET=WK_433

1.743115e-01
*ELEMENT, TYPE=SPRINGA, ELSET=WK_434
   17022,    13921,    18275
*SPRING, ELSET=WK_434

1.743115e-01
*ELEMENT, TYPE=SPRINGA, ELSET=WK_435
   17023,    13924,    18276
*SPRING, ELSET=WK_435

1.743115e-01
*ELEMENT, TYPE=SPRINGA, ELSET=WK_436
   17024,    13927,    18277
*SPRING, ELSET=WK_436

1.743115e-01
*ELEMENT, TYPE=SPRINGA, ELSET=WK_437
   17025,    13930,    18278
*SPRING, ELSET=WK_437

1.743115e-01
*ELEMENT, TYPE=SPRINGA, ELSET=WK_438
   17026,    13933,    18279
*SPRING, ELSET=WK_438

1.743115e-01
*ELEMENT, TYPE=SPRINGA, ELSET=WK_439
   17027,    13936,    18280
*SPRING, ELSET=WK_439

1.743115e-01
*ELEMENT, TYPE=SPRINGA, ELSET=WK_440
   17028,    13939,    18281
*SPRING, ELSET=WK_440

1.743115e-01
*ELEMENT, TYPE=SPRINGA, ELSET=WK_441
   17029,    13942,    18282
*SPRING, ELSET=WK_441

1.743115e-01
*ELEMENT, TYPE=SPRINGA, ELSET=WK_442
   17030,    13945,    18283
*SPRING, ELSET=WK_442

1.743115e-01
*ELEMENT, TYPE=SPRINGA, ELSET=WK_443
   17031,    13948,    18284
*SPRING, ELSET=WK_443

1.743115e-01
*ELEMENT, TYPE=SPRINGA, ELSET=WK_444
   17032,    13951,    18285
*SPRING, ELSET=WK_444

1.743115e-01
*ELEMENT, TYPE=SPRINGA, ELSET=WK_445
   17033,    13954,    18286
*SPRING, ELSET=WK_445

1.743115e-01
*ELEMENT, TYPE=SPRINGA, ELSET=WK_446
   17034,    13957,    18287
*SPRING, ELSET=WK_446

1.743115e-01
*ELEMENT, TYPE=SPRINGA, ELSET=WK_447
   17035,    13960,    18288
*SPRING, ELSET=WK_447

1.743115e-01
*ELEMENT, TYPE=SPRINGA, ELSET=WK_448
   17036,    13963,    18289
*SPRING, ELSET=WK_448

1.743115e-01
*ELEMENT, TYPE=SPRINGA, ELSET=WK_449
   17037,    13966,    18290
*SPRING, ELSET=WK_449

1.743115e-01
*ELEMENT, TYPE=SPRINGA, ELSET=WK_450
   17038,    13969,    18291
*SPRING, ELSET=WK_450

1.743115e-01
*ELEMENT, TYPE=SPRINGA, ELSET=WK_451
   17039,    13972,    18292
*SPRING, ELSET=WK_451

1.743115e-01
*ELEMENT, TYPE=SPRINGA, ELSET=WK_452
   17040,    13975,    18293
*SPRING, ELSET=WK_452

1.743115e-01
*ELEMENT, TYPE=SPRINGA, ELSET=WK_453
   17041,    13978,    18294
*SPRING, ELSET=WK_453

1.743115e-01
*ELEMENT, TYPE=SPRINGA, ELSET=WK_454
   17042,    13981,    18295
*SPRING, ELSET=WK_454

1.743115e-01
*ELEMENT, TYPE=SPRINGA, ELSET=WK_455
   17043,    13984,    18296
*SPRING, ELSET=WK_455

1.743115e-01
*ELEMENT, TYPE=SPRINGA, ELSET=WK_456
   17044,    13987,    18297
*SPRING, ELSET=WK_456

1.743115e-01
*ELEMENT, TYPE=SPRINGA, ELSET=WK_457
   17045,    13990,    18298
*SPRING, ELSET=WK_457

1.743115e-01
*ELEMENT, TYPE=SPRINGA, ELSET=WK_458
   17046,    13993,    18299
*SPRING, ELSET=WK_458

1.743115e-01
*ELEMENT, TYPE=SPRINGA, ELSET=WK_459
   17047,    13996,    18300
*SPRING, ELSET=WK_459

1.743115e-01
*ELEMENT, TYPE=SPRINGA, ELSET=WK_460
   17048,    13999,    18301
*SPRING, ELSET=WK_460

1.743115e-01
*ELEMENT, TYPE=SPRINGA, ELSET=WK_461
   17049,    14002,    18302
*SPRING, ELSET=WK_461

1.743115e-01
*ELEMENT, TYPE=SPRINGA, ELSET=WK_462
   17050,    14005,    18303
*SPRING, ELSET=WK_462

1.743115e-01
*ELEMENT, TYPE=SPRINGA, ELSET=WK_463
   17051,    14008,    18304
*SPRING, ELSET=WK_463

1.743115e-01
*ELEMENT, TYPE=SPRINGA, ELSET=WK_464
   17052,    14011,    18305
*SPRING, ELSET=WK_464

1.743115e-01
*ELEMENT, TYPE=SPRINGA, ELSET=WK_465
   17053,    14014,    18306
*SPRING, ELSET=WK_465

1.743115e-01
*ELEMENT, TYPE=SPRINGA, ELSET=WK_466
   17054,    14017,    18307
*SPRING, ELSET=WK_466

1.743115e-01
*ELEMENT, TYPE=SPRINGA, ELSET=WK_467
   17055,    14020,    18308
*SPRING, ELSET=WK_467

1.743115e-01
*ELEMENT, TYPE=SPRINGA, ELSET=WK_468
   17056,    14023,    18309
*SPRING, ELSET=WK_468

1.743115e-01
*ELEMENT, TYPE=SPRINGA, ELSET=WK_469
   17057,    14026,    18310
*SPRING, ELSET=WK_469

1.743115e-01
*ELEMENT, TYPE=SPRINGA, ELSET=WK_470
   17058,    14029,    18311
*SPRING, ELSET=WK_470

1.743115e-01
*ELEMENT, TYPE=SPRINGA, ELSET=WK_471
   17059,    14032,    18312
*SPRING, ELSET=WK_471

1.743115e-01
*ELEMENT, TYPE=SPRINGA, ELSET=WK_472
   17060,    14035,    18313
*SPRING, ELSET=WK_472

1.743115e-01
*ELEMENT, TYPE=SPRINGA, ELSET=WK_473
   17061,    14038,    18314
*SPRING, ELSET=WK_473

1.743115e-01
*ELEMENT, TYPE=SPRINGA, ELSET=WK_474
   17062,    14041,    18315
*SPRING, ELSET=WK_474

1.743115e-01
*ELEMENT, TYPE=SPRINGA, ELSET=WK_475
   17063,    14044,    18316
*SPRING, ELSET=WK_475

1.743115e-01
*ELEMENT, TYPE=SPRINGA, ELSET=WK_476
   17064,    14047,    18317
*SPRING, ELSET=WK_476

1.743115e-01
*ELEMENT, TYPE=SPRINGA, ELSET=WK_477
   17065,    14050,    18318
*SPRING, ELSET=WK_477

1.743115e-01
*ELEMENT, TYPE=SPRINGA, ELSET=WK_478
   17066,    14053,    18319
*SPRING, ELSET=WK_478

1.743115e-01
*ELEMENT, TYPE=SPRINGA, ELSET=WK_479
   17067,    14056,    18320
*SPRING, ELSET=WK_479

1.743115e-01
*ELEMENT, TYPE=SPRINGA, ELSET=WK_480
   17068,    14059,    18321
*SPRING, ELSET=WK_480

1.743115e-01
*ELEMENT, TYPE=SPRINGA, ELSET=WK_481
   17069,    14062,    18322
*SPRING, ELSET=WK_481

1.743115e-01
*ELEMENT, TYPE=SPRINGA, ELSET=WK_482
   17070,    14065,    18323
*SPRING, ELSET=WK_482

1.743115e-01
*ELEMENT, TYPE=SPRINGA, ELSET=WK_483
   17071,    14068,    18324
*SPRING, ELSET=WK_483

1.743115e-01
*ELEMENT, TYPE=SPRINGA, ELSET=WK_484
   17072,    14071,    18325
*SPRING, ELSET=WK_484

1.743115e-01
*ELEMENT, TYPE=SPRINGA, ELSET=WK_485
   17073,    14074,    18326
*SPRING, ELSET=WK_485

1.743115e-01
*ELEMENT, TYPE=SPRINGA, ELSET=WK_486
   17074,    14077,    18327
*SPRING, ELSET=WK_486

1.743115e-01
*ELEMENT, TYPE=SPRINGA, ELSET=WK_487
   17075,    14080,    18328
*SPRING, ELSET=WK_487

1.743115e-01
*ELEMENT, TYPE=SPRINGA, ELSET=WK_488
   17076,    14083,    18329
*SPRING, ELSET=WK_488

1.743115e-01
*ELEMENT, TYPE=SPRINGA, ELSET=WK_489
   17077,    14086,    18330
*SPRING, ELSET=WK_489

1.743115e-01
*ELEMENT, TYPE=SPRINGA, ELSET=WK_490
   17078,    14089,    18331
*SPRING, ELSET=WK_490

1.743115e-01
*ELEMENT, TYPE=SPRINGA, ELSET=WK_491
   17079,    14092,    18332
*SPRING, ELSET=WK_491

1.743115e-01
*ELEMENT, TYPE=SPRINGA, ELSET=WK_492
   17080,    14095,    18333
*SPRING, ELSET=WK_492

1.743115e-01
*ELEMENT, TYPE=SPRINGA, ELSET=WK_493
   17081,    14098,    18334
*SPRING, ELSET=WK_493

1.743115e-01
*ELEMENT, TYPE=SPRINGA, ELSET=WK_494
   17082,    14101,    18335
*SPRING, ELSET=WK_494

1.743115e-01
*ELEMENT, TYPE=SPRINGA, ELSET=WK_495
   17083,    14104,    18336
*SPRING, ELSET=WK_495

1.743115e-01
*ELEMENT, TYPE=SPRINGA, ELSET=WK_496
   17084,    14107,    18337
*SPRING, ELSET=WK_496

1.743115e-01
*ELEMENT, TYPE=SPRINGA, ELSET=WK_497
   17085,    14110,    18338
*SPRING, ELSET=WK_497

1.743115e-01
*ELEMENT, TYPE=SPRINGA, ELSET=WK_498
   17086,    14113,    18339
*SPRING, ELSET=WK_498

1.743115e-01
*ELEMENT, TYPE=SPRINGA, ELSET=WK_499
   17087,    14116,    18340
*SPRING, ELSET=WK_499

1.743115e-01
*ELEMENT, TYPE=SPRINGA, ELSET=WK_500
   17088,    14119,    18341
*SPRING, ELSET=WK_500

1.743115e-01
*ELEMENT, TYPE=SPRINGA, ELSET=WK_501
   17089,    14122,    18342
*SPRING, ELSET=WK_501

1.743115e-01
*ELEMENT, TYPE=SPRINGA, ELSET=WK_502
   17090,    14125,    18343
*SPRING, ELSET=WK_502

1.743115e-01
*ELEMENT, TYPE=SPRINGA, ELSET=WK_503
   17091,    14128,    18344
*SPRING, ELSET=WK_503

1.743115e-01
*ELEMENT, TYPE=SPRINGA, ELSET=WK_504
   17092,    14131,    18345
*SPRING, ELSET=WK_504

1.743115e-01
*ELEMENT, TYPE=SPRINGA, ELSET=WK_505
   17093,    14134,    18346
*SPRING, ELSET=WK_505

1.743115e-01
*ELEMENT, TYPE=SPRINGA, ELSET=WK_506
   17094,    14137,    18347
*SPRING, ELSET=WK_506

1.743115e-01
*ELEMENT, TYPE=SPRINGA, ELSET=WK_507
   17095,    14140,    18348
*SPRING, ELSET=WK_507

1.743115e-01
*ELEMENT, TYPE=SPRINGA, ELSET=WK_508
   17096,    14143,    18349
*SPRING, ELSET=WK_508

1.743115e-01
*ELEMENT, TYPE=SPRINGA, ELSET=WK_509
   17097,    14146,    18350
*SPRING, ELSET=WK_509

1.743115e-01
*ELEMENT, TYPE=SPRINGA, ELSET=WK_510
   17098,    14149,    18351
*SPRING, ELSET=WK_510

1.743115e-01
*ELEMENT, TYPE=SPRINGA, ELSET=WK_511
   17099,    14152,    18352
*SPRING, ELSET=WK_511

1.743115e-01
*ELEMENT, TYPE=SPRINGA, ELSET=WK_512
   17100,    14155,    18353
*SPRING, ELSET=WK_512

1.743115e-01
*ELEMENT, TYPE=SPRINGA, ELSET=WK_513
   17101,    14158,    18354
*SPRING, ELSET=WK_513

1.743115e-01
*ELEMENT, TYPE=SPRINGA, ELSET=WK_514
   17102,    14161,    18355
*SPRING, ELSET=WK_514

1.743115e-01
*ELEMENT, TYPE=SPRINGA, ELSET=WK_515
   17103,    14164,    18356
*SPRING, ELSET=WK_515

1.743115e-01
*ELEMENT, TYPE=SPRINGA, ELSET=WK_516
   17104,    14167,    18357
*SPRING, ELSET=WK_516

1.743115e-01
*ELEMENT, TYPE=SPRINGA, ELSET=WK_517
   17105,    14170,    18358
*SPRING, ELSET=WK_517

1.743115e-01
*ELEMENT, TYPE=SPRINGA, ELSET=WK_518
   17106,    14173,    18359
*SPRING, ELSET=WK_518

1.743115e-01
*ELEMENT, TYPE=SPRINGA, ELSET=WK_519
   17107,    14176,    18360
*SPRING, ELSET=WK_519

1.743115e-01
*ELEMENT, TYPE=SPRINGA, ELSET=WK_520
   17108,    14179,    18361
*SPRING, ELSET=WK_520

1.743115e-01
*ELEMENT, TYPE=SPRINGA, ELSET=WK_521
   17109,    14182,    18362
*SPRING, ELSET=WK_521

1.743115e-01
*ELEMENT, TYPE=SPRINGA, ELSET=WK_522
   17110,    14185,    18363
*SPRING, ELSET=WK_522

1.743115e-01
*ELEMENT, TYPE=SPRINGA, ELSET=WK_523
   17111,    14188,    18364
*SPRING, ELSET=WK_523

1.743115e-01
*ELEMENT, TYPE=SPRINGA, ELSET=WK_524
   17112,    14191,    18365
*SPRING, ELSET=WK_524

1.743115e-01
*ELEMENT, TYPE=SPRINGA, ELSET=WK_525
   17113,    14194,    18366
*SPRING, ELSET=WK_525

1.743115e-01
*ELEMENT, TYPE=SPRINGA, ELSET=WK_526
   17114,    14197,    18367
*SPRING, ELSET=WK_526

1.743115e-01
*ELEMENT, TYPE=SPRINGA, ELSET=WK_527
   17115,    14200,    18368
*SPRING, ELSET=WK_527

1.743115e-01
*ELEMENT, TYPE=SPRINGA, ELSET=WK_528
   17116,    14203,    18369
*SPRING, ELSET=WK_528

1.743115e-01
*ELEMENT, TYPE=SPRINGA, ELSET=WK_529
   17117,    14206,    18370
*SPRING, ELSET=WK_529

1.743115e-01
*ELEMENT, TYPE=SPRINGA, ELSET=WK_530
   17118,    14209,    18371
*SPRING, ELSET=WK_530

1.743115e-01
*ELEMENT, TYPE=SPRINGA, ELSET=WK_531
   17119,    14212,    18372
*SPRING, ELSET=WK_531

1.743115e-01
*ELEMENT, TYPE=SPRINGA, ELSET=WK_532
   17120,    14215,    18373
*SPRING, ELSET=WK_532

1.743115e-01
*ELEMENT, TYPE=SPRINGA, ELSET=WK_533
   17121,    14218,    18374
*SPRING, ELSET=WK_533

1.743115e-01
*ELEMENT, TYPE=SPRINGA, ELSET=WK_534
   17122,    14221,    18375
*SPRING, ELSET=WK_534

1.743115e-01
*ELEMENT, TYPE=SPRINGA, ELSET=WK_535
   17123,    14224,    18376
*SPRING, ELSET=WK_535

1.743115e-01
*ELEMENT, TYPE=SPRINGA, ELSET=WK_536
   17124,    14227,    18377
*SPRING, ELSET=WK_536

1.743115e-01
*ELEMENT, TYPE=SPRINGA, ELSET=WK_537
   17125,    14230,    18378
*SPRING, ELSET=WK_537

1.743115e-01
*ELEMENT, TYPE=SPRINGA, ELSET=WK_538
   17126,    14233,    18379
*SPRING, ELSET=WK_538

1.743115e-01
*ELEMENT, TYPE=SPRINGA, ELSET=WK_539
   17127,    14236,    18380
*SPRING, ELSET=WK_539

1.743115e-01
*ELEMENT, TYPE=SPRINGA, ELSET=WK_540
   17128,    14239,    18381
*SPRING, ELSET=WK_540

1.743115e-01
*ELEMENT, TYPE=SPRINGA, ELSET=WK_541
   17129,    14242,    18382
*SPRING, ELSET=WK_541

1.743115e-01
*ELEMENT, TYPE=SPRINGA, ELSET=WK_542
   17130,    14245,    18383
*SPRING, ELSET=WK_542

1.743115e-01
*ELEMENT, TYPE=SPRINGA, ELSET=WK_543
   17131,    14248,    18384
*SPRING, ELSET=WK_543

1.743115e-01
*ELEMENT, TYPE=SPRINGA, ELSET=WK_544
   17132,    14251,    18385
*SPRING, ELSET=WK_544

8.715574e-02
*ELEMENT, TYPE=SPRINGA, ELSET=WK_545
   17133,    14254,    18386
*SPRING, ELSET=WK_545

8.715574e-02
*ELEMENT, TYPE=SPRINGA, ELSET=WK_546
   17134,    14257,    18387
*SPRING, ELSET=WK_546

8.715574e-02
*ELEMENT, TYPE=SPRINGA, ELSET=WK_547
   17135,    14260,    18388
*SPRING, ELSET=WK_547

8.715574e-02
*ELEMENT, TYPE=SPRINGA, ELSET=WK_548
   17136,    14263,    18389
*SPRING, ELSET=WK_548

8.715574e-02
*ELEMENT, TYPE=SPRINGA, ELSET=WK_549
   17137,    14266,    18390
*SPRING, ELSET=WK_549

8.715574e-02
*ELEMENT, TYPE=SPRINGA, ELSET=WK_550
   17138,    14269,    18391
*SPRING, ELSET=WK_550

8.715574e-02
*ELEMENT, TYPE=SPRINGA, ELSET=WK_551
   17139,    14272,    18392
*SPRING, ELSET=WK_551

8.715574e-02
*BOUNDARY
GHOST_WINKLER, 1, 3, 0
