** Trabeculas aracnoides - molas radiais conectando pia outer (r=1.5) e
** dura inner (r=2.5). k baixo simula colageno macio do SAS.
** Total: ~k_total = N_pares * k_each
** Total pares: 264
*ELEMENT, TYPE=SPRINGA, ELSET=ARACHNOID_TRAB
50001, 543, 1862
50002, 547, 1865
50003, 551, 1868
50004, 555, 1871
50005, 559, 1874
50006, 563, 1877
50007, 567, 1880
50008, 571, 1883
50009, 575, 1886
50010, 579, 1889
50011, 583, 1892
50012, 587, 1895
50013, 591, 1898
50014, 595, 1901
50015, 599, 1904
50016, 603, 1907
50017, 607, 1910
50018, 611, 1913
50019, 615, 1916
50020, 619, 1919
50021, 623, 1922
50022, 627, 1925
50023, 631, 1928
50024, 635, 1931
50025, 639, 1934
50026, 643, 1937
50027, 647, 1940
50028, 651, 1943
50029, 655, 1946
50030, 659, 1949
50031, 663, 1952
50032, 667, 1955
50033, 671, 1958
50034, 675, 1961
50035, 679, 1964
50036, 683, 1967
50037, 687, 1970
50038, 691, 1973
50039, 695, 1976
50040, 699, 1979
50041, 703, 1982
50042, 707, 1985
50043, 711, 1988
50044, 715, 1991
50045, 719, 1994
50046, 723, 1997
50047, 727, 2000
50048, 731, 2003
50049, 735, 2006
50050, 739, 2009
50051, 743, 2012
50052, 747, 2015
50053, 751, 2018
50054, 755, 2021
50055, 759, 2024
50056, 763, 2027
50057, 767, 2030
50058, 771, 2033
50059, 775, 2036
50060, 779, 2039
50061, 783, 2042
50062, 787, 2045
50063, 791, 2048
50064, 795, 2051
50065, 799, 2054
50066, 803, 2057
50067, 807, 2060
50068, 811, 2063
50069, 815, 2066
50070, 819, 2069
50071, 823, 2072
50072, 827, 2075
50073, 831, 2078
50074, 835, 2081
50075, 839, 2084
50076, 843, 2087
50077, 847, 2090
50078, 851, 2093
50079, 855, 2096
50080, 859, 2099
50081, 863, 2102
50082, 867, 2105
50083, 871, 2108
50084, 875, 2111
50085, 879, 2114
50086, 883, 2117
50087, 887, 2120
50088, 891, 2123
50089, 895, 2126
50090, 899, 2129
50091, 903, 2132
50092, 907, 2135
50093, 911, 2138
50094, 915, 2141
50095, 919, 2144
50096, 923, 2147
50097, 927, 2150
50098, 931, 2153
50099, 935, 2156
50100, 939, 2159
50101, 943, 2162
50102, 947, 2165
50103, 951, 2168
50104, 955, 2171
50105, 959, 2174
50106, 963, 2177
50107, 967, 2180
50108, 971, 2183
50109, 975, 2186
50110, 979, 2189
50111, 983, 2192
50112, 987, 2195
50113, 991, 2198
50114, 995, 2201
50115, 999, 2204
50116, 1003, 2207
50117, 1007, 2210
50118, 1011, 2213
50119, 1015, 2216
50120, 1019, 2219
50121, 1023, 2222
50122, 1027, 2225
50123, 1031, 2228
50124, 1035, 2231
50125, 1039, 2234
50126, 1043, 2237
50127, 1047, 2240
50128, 1051, 2243
50129, 1055, 2246
50130, 1059, 2249
50131, 1063, 2252
50132, 1067, 2255
50133, 1071, 2258
50134, 1075, 2261
50135, 1079, 2264
50136, 1083, 2267
50137, 1087, 2270
50138, 1091, 2273
50139, 1095, 2276
50140, 1099, 2279
50141, 1103, 2282
50142, 1107, 2285
50143, 1111, 2288
50144, 1115, 2291
50145, 1119, 2294
50146, 1123, 2297
50147, 1127, 2300
50148, 1131, 2303
50149, 1135, 2306
50150, 1139, 2309
50151, 1143, 2312
50152, 1147, 2315
50153, 1151, 2318
50154, 1155, 2321
50155, 1159, 2324
50156, 1163, 2327
50157, 1167, 2330
50158, 1171, 2333
50159, 1175, 2336
50160, 1179, 2339
50161, 1183, 2342
50162, 1187, 2345
50163, 1191, 2348
50164, 1195, 2351
50165, 1199, 2354
50166, 1203, 2357
50167, 1207, 2360
50168, 1211, 2363
50169, 1215, 2366
50170, 1219, 2369
50171, 1223, 2372
50172, 1227, 2375
50173, 1231, 2378
50174, 1235, 2381
50175, 1239, 2384
50176, 1243, 2387
50177, 1247, 2390
50178, 1251, 2393
50179, 1255, 2396
50180, 1259, 2399
50181, 1263, 2402
50182, 1267, 2405
50183, 1271, 2408
50184, 1275, 2411
50185, 1279, 2414
50186, 1283, 2417
50187, 1287, 2420
50188, 1291, 2423
50189, 1295, 2426
50190, 1299, 2429
50191, 1303, 2432
50192, 1307, 2435
50193, 1311, 2438
50194, 1315, 2441
50195, 1319, 2444
50196, 1323, 2447
50197, 1327, 2450
50198, 1331, 2453
50199, 1335, 2456
50200, 1339, 2459
50201, 1343, 2462
50202, 1347, 2465
50203, 1351, 2468
50204, 1355, 2471
50205, 1359, 2474
50206, 1363, 2477
50207, 1367, 2480
50208, 1371, 2483
50209, 1375, 2486
50210, 1379, 2489
50211, 1383, 2492
50212, 1387, 2495
50213, 1391, 2498
50214, 1395, 2501
50215, 1399, 2504
50216, 1403, 2507
50217, 1407, 2510
50218, 1411, 2513
50219, 1415, 2516
50220, 1419, 2519
50221, 1423, 2522
50222, 1427, 2525
50223, 1431, 2528
50224, 1435, 2531
50225, 1439, 2534
50226, 1443, 2537
50227, 1447, 2540
50228, 1451, 2543
50229, 1455, 2546
50230, 1459, 2549
50231, 1463, 2552
50232, 1467, 2555
50233, 1471, 2558
50234, 1475, 2561
50235, 1479, 2564
50236, 1483, 2567
50237, 1487, 2570
50238, 1491, 2573
50239, 1495, 2576
50240, 1499, 2579
50241, 1503, 2582
50242, 1507, 2585
50243, 1511, 2588
50244, 1515, 2591
50245, 1519, 2594
50246, 1523, 2597
50247, 1527, 2600
50248, 1531, 2603
50249, 1535, 2606
50250, 1539, 2609
50251, 1543, 2612
50252, 1547, 2615
50253, 1551, 2618
50254, 1555, 2621
50255, 1559, 2624
50256, 1563, 2627
50257, 1567, 2630
50258, 1571, 2633
50259, 1575, 2636
50260, 1579, 2639
50261, 1583, 2642
50262, 1587, 2645
50263, 1591, 2648
50264, 1595, 2651
*SPRING, ELSET=ARACHNOID_TRAB
** stiffness k em N/m por mola
** k_each = 0.5 N/m -> k_total = 132.0 N/m (trabeculas macias)
5.000000e-01
