** on-caso-1.2 -- INDEPENDENCIA DE MALHA do SOLIDO (standalone, sem preCICE).
** Material elastico linear (Tabela tab:mat-linear, Caso 1), nu=0.45.
** Carga FSI substituida por pressao estatica equivalente nas faces FSI.
*INCLUDE, INPUT=all_mesh.inp

** ---- Materiais elasticos lineares (E, nu) por zona ----
*MATERIAL, NAME=ON_MAT
*ELASTIC
30000.0, 0.45
*DENSITY
1000.0
*MATERIAL, NAME=PIA_MAT
*ELASTIC
3.0e6, 0.45
*DENSITY
1100.0
*MATERIAL, NAME=DURA_MAT
*ELASTIC
3.0e6, 0.45
*DENSITY
1100.0
*MATERIAL, NAME=LC_MAT
*ELASTIC
0.4e6, 0.45
*DENSITY
1100.0
*MATERIAL, NAME=SCLERA_PERI_MAT
*ELASTIC
5.0e6, 0.45
*DENSITY
1400.0
*MATERIAL, NAME=SCLERA_RING_MAT
*ELASTIC
5.0e6, 0.45
*DENSITY
1400.0
*MATERIAL, NAME=GLOBO_MAT
*ELASTIC
5.0e6, 0.45
*DENSITY
1400.0

** ---- Solid sections (ELSET = zona.upper()) ----
*SOLID SECTION, ELSET=ON,          MATERIAL=ON_MAT
*SOLID SECTION, ELSET=PIA,         MATERIAL=PIA_MAT
*SOLID SECTION, ELSET=DURA,        MATERIAL=DURA_MAT
*SOLID SECTION, ELSET=LC,          MATERIAL=LC_MAT
*SOLID SECTION, ELSET=SCLERA_PERI, MATERIAL=SCLERA_PERI_MAT
*SOLID SECTION, ELSET=SCLERA_RING, MATERIAL=SCLERA_RING_MAT
*SOLID SECTION, ELSET=GLOBO,       MATERIAL=GLOBO_MAT

** ---- Winkler (gordura orbital) em dura_outer ----
*INCLUDE, INPUT=winkler.inp

** ---- Engaste z=0 (canal optico) + globo ----
*BOUNDARY
POSTERIOR_ON,   1, 3, 0.0
POSTERIOR_PIA,  1, 3, 0.0
POSTERIOR_DURA, 1, 3, 0.0
GLOBO_OUTER,    1, 3, 0.0

** ---- Step estatico linear ----
*STEP
*STATIC, SOLVER=ITERATIVE CHOLESKY

** Pressao do SAS transmitida as faces FSI (pia comprime, dura distende)
*DLOAD
FSI_PIA_SURF,  P, 3800.0
FSI_DURA_SURF, P, 3800.0
** Caps da esclera (desacoplamento seletivo, estatico)
FSI_SCLERA_PERI_SURF, P, 1333.0
FSI_SCLERA_RING_SURF, P, 1333.0

*NODE FILE
U
*EL FILE
S
*END STEP
