** Winkler foundation springs em dura_outer (excluindo perturbation_strip)
** Gerado automaticamente por foam_polymesh_to_ccx_inp.py
** k_winkler = 2.000e+06 Pa/m, 499 springs
*NODE, NSET=GHOST_WINKLER
   10226,  1.76847411e-03, -1.76847411e-03,  0.00000000e+00
   10227,  2.16592956e-03, -1.25050002e-03,  0.00000000e+00
   10228,  2.41578050e-03, -6.47306439e-04,  0.00000000e+00
   10229,  2.50100000e-03,  2.22133423e-19,  0.00000000e+00
   10230,  2.41578050e-03,  6.47306439e-04,  0.00000000e+00
   10231,  2.16592956e-03,  1.25050002e-03,  0.00000000e+00
   10232,  1.76847411e-03,  1.76847411e-03,  0.00000000e+00
   10233,  1.76847411e-03, -1.76847411e-03,  1.50000000e-03
   10234,  2.16592956e-03, -1.25050002e-03,  1.50000000e-03
   10235,  2.41578050e-03, -6.47306439e-04,  1.50000000e-03
   10236,  2.50100000e-03,  2.22133423e-19,  1.50000000e-03
   10237,  2.41578050e-03,  6.47306439e-04,  1.50000000e-03
   10238,  2.16592956e-03,  1.25050002e-03,  1.50000000e-03
   10239,  1.76847411e-03,  1.76847411e-03,  1.50000000e-03
   10240,  1.76847411e-03, -1.76847411e-03,  3.00000000e-03
   10241,  2.16592956e-03, -1.25050002e-03,  3.00000000e-03
   10242,  2.41578050e-03, -6.47306439e-04,  3.00000000e-03
   10243,  2.50100000e-03,  2.22133423e-19,  3.00000000e-03
   10244,  2.41578050e-03,  6.47306439e-04,  3.00000000e-03
   10245,  2.16592956e-03,  1.25050002e-03,  3.00000000e-03
   10246,  1.76847411e-03,  1.76847411e-03,  3.00000000e-03
   10247,  1.76847411e-03, -1.76847411e-03,  4.50000000e-03
   10248,  2.16592956e-03, -1.25050002e-03,  4.50000000e-03
   10249,  2.41578050e-03, -6.47306439e-04,  4.50000000e-03
   10250,  2.50100000e-03,  2.22133423e-19,  4.50000000e-03
   10251,  2.41578050e-03,  6.47306439e-04,  4.50000000e-03
   10252,  2.16592956e-03,  1.25050002e-03,  4.50000000e-03
   10253,  1.76847411e-03,  1.76847411e-03,  4.50000000e-03
   10254,  1.76847411e-03, -1.76847411e-03,  6.00000000e-03
   10255,  2.16592956e-03, -1.25050002e-03,  6.00000000e-03
   10256,  2.41578050e-03, -6.47306439e-04,  6.00000000e-03
   10257,  2.50100000e-03,  2.22133423e-19,  6.00000000e-03
   10258,  2.41578050e-03,  6.47306439e-04,  6.00000000e-03
   10259,  2.16592956e-03,  1.25050002e-03,  6.00000000e-03
   10260,  1.76847411e-03,  1.76847411e-03,  6.00000000e-03
   10261,  1.76847411e-03, -1.76847411e-03,  7.50000000e-03
   10262,  2.16592956e-03, -1.25050002e-03,  7.50000000e-03
   10263,  2.41578050e-03, -6.47306439e-04,  7.50000000e-03
   10264,  2.50100000e-03,  2.22133423e-19,  7.50000000e-03
   10265,  2.41578050e-03,  6.47306439e-04,  7.50000000e-03
   10266,  2.16592956e-03,  1.25050002e-03,  7.50000000e-03
   10267,  1.76847411e-03,  1.76847411e-03,  7.50000000e-03
   10268,  1.76847411e-03, -1.76847411e-03,  9.00000000e-03
   10269,  2.16592956e-03, -1.25050002e-03,  9.00000000e-03
   10270,  2.41578050e-03, -6.47306439e-04,  9.00000000e-03
   10271,  2.50100000e-03,  2.22133423e-19,  9.00000000e-03
   10272,  2.41578050e-03,  6.47306439e-04,  9.00000000e-03
   10273,  2.16592956e-03,  1.25050002e-03,  9.00000000e-03
   10274,  1.76847411e-03,  1.76847411e-03,  9.00000000e-03
   10275,  1.76847411e-03, -1.76847411e-03,  1.05000000e-02
   10276,  2.16592956e-03, -1.25050002e-03,  1.05000000e-02
   10277,  2.41578050e-03, -6.47306439e-04,  1.05000000e-02
   10278,  2.50100000e-03,  2.22133423e-19,  1.05000000e-02
   10279,  2.41578050e-03,  6.47306439e-04,  1.05000000e-02
   10280,  2.16592956e-03,  1.25050002e-03,  1.05000000e-02
   10281,  1.76847411e-03,  1.76847411e-03,  1.05000000e-02
   10282,  1.76847411e-03, -1.76847411e-03,  1.20000000e-02
   10283,  2.16592956e-03, -1.25050002e-03,  1.20000000e-02
   10284,  2.41578050e-03, -6.47306439e-04,  1.20000000e-02
   10285,  2.50100000e-03,  2.22133423e-19,  1.20000000e-02
   10286,  2.41578050e-03,  6.47306439e-04,  1.20000000e-02
   10287,  2.16592956e-03,  1.25050002e-03,  1.20000000e-02
   10288,  1.76847411e-03,  1.76847411e-03,  1.20000000e-02
   10289,  1.76847411e-03, -1.76847411e-03,  1.35000000e-02
   10290,  2.16592956e-03, -1.25050002e-03,  1.35000000e-02
   10291,  2.41578050e-03, -6.47306439e-04,  1.35000000e-02
   10292,  2.50100000e-03,  2.22133423e-19,  1.35000000e-02
   10293,  2.41578050e-03,  6.47306439e-04,  1.35000000e-02
   10294,  2.16592956e-03,  1.25050002e-03,  1.35000000e-02
   10295,  1.76847411e-03,  1.76847411e-03,  1.35000000e-02
   10296,  1.76847411e-03, -1.76847411e-03,  1.50000000e-02
   10297,  2.16592956e-03, -1.25050002e-03,  1.50000000e-02
   10298,  2.41578050e-03, -6.47306439e-04,  1.50000000e-02
   10299,  2.50100000e-03,  2.22133423e-19,  1.50000000e-02
   10300,  2.41578050e-03,  6.47306439e-04,  1.50000000e-02
   10301,  2.16592956e-03,  1.25050002e-03,  1.50000000e-02
   10302,  1.76847411e-03,  1.76847411e-03,  1.50000000e-02
   10303,  1.76847411e-03, -1.76847411e-03,  1.65000000e-02
   10304,  2.16592956e-03, -1.25050002e-03,  1.65000000e-02
   10305,  2.41578050e-03, -6.47306439e-04,  1.65000000e-02
   10306,  2.50100000e-03,  2.22133423e-19,  1.65000000e-02
   10307,  2.41578050e-03,  6.47306439e-04,  1.65000000e-02
   10308,  2.16592956e-03,  1.25050002e-03,  1.65000000e-02
   10309,  1.76847411e-03,  1.76847411e-03,  1.65000000e-02
   10310,  1.76847411e-03, -1.76847411e-03,  1.80000000e-02
   10311,  2.16592956e-03, -1.25050002e-03,  1.80000000e-02
   10312,  2.41578050e-03, -6.47306439e-04,  1.80000000e-02
   10313,  2.50100000e-03,  2.22133423e-19,  1.80000000e-02
   10314,  2.41578050e-03,  6.47306439e-04,  1.80000000e-02
   10315,  2.16592956e-03,  1.25050002e-03,  1.80000000e-02
   10316,  1.76847411e-03,  1.76847411e-03,  1.80000000e-02
   10317,  1.76847411e-03, -1.76847411e-03,  1.95000000e-02
   10318,  2.16592956e-03, -1.25050002e-03,  1.95000000e-02
   10319,  2.41578050e-03, -6.47306439e-04,  1.95000000e-02
   10320,  2.41578050e-03,  6.47306439e-04,  1.95000000e-02
   10321,  2.16592956e-03,  1.25050002e-03,  1.95000000e-02
   10322,  1.76847411e-03,  1.76847411e-03,  1.95000000e-02
   10323,  1.76847411e-03, -1.76847411e-03,  2.10000000e-02
   10324,  2.16592956e-03, -1.25050002e-03,  2.10000000e-02
   10325,  2.41578050e-03, -6.47306439e-04,  2.10000000e-02
   10326,  2.41578050e-03,  6.47306439e-04,  2.10000000e-02
   10327,  2.16592956e-03,  1.25050002e-03,  2.10000000e-02
   10328,  1.76847411e-03,  1.76847411e-03,  2.10000000e-02
   10329,  1.76847411e-03, -1.76847411e-03,  2.25000000e-02
   10330,  2.16592956e-03, -1.25050002e-03,  2.25000000e-02
   10331,  2.41578050e-03, -6.47306439e-04,  2.25000000e-02
   10332,  2.41578050e-03,  6.47306439e-04,  2.25000000e-02
   10333,  2.16592956e-03,  1.25050002e-03,  2.25000000e-02
   10334,  1.76847411e-03,  1.76847411e-03,  2.25000000e-02
   10335,  1.76847411e-03, -1.76847411e-03,  2.40000000e-02
   10336,  2.16592956e-03, -1.25050002e-03,  2.40000000e-02
   10337,  2.41578050e-03, -6.47306439e-04,  2.40000000e-02
   10338,  2.41578050e-03,  6.47306439e-04,  2.40000000e-02
   10339,  2.16592956e-03,  1.25050002e-03,  2.40000000e-02
   10340,  1.76847411e-03,  1.76847411e-03,  2.40000000e-02
   10341,  1.76847411e-03, -1.76847411e-03,  2.55000000e-02
   10342,  2.16592956e-03, -1.25050002e-03,  2.55000000e-02
   10343,  2.41578050e-03, -6.47306439e-04,  2.55000000e-02
   10344,  2.41578050e-03,  6.47306439e-04,  2.55000000e-02
   10345,  2.16592956e-03,  1.25050002e-03,  2.55000000e-02
   10346,  1.76847411e-03,  1.76847411e-03,  2.55000000e-02
   10347,  1.76847411e-03, -1.76847411e-03,  2.70000000e-02
   10348,  2.16592956e-03, -1.25050002e-03,  2.70000000e-02
   10349,  2.41578050e-03, -6.47306439e-04,  2.70000000e-02
   10350,  2.50100000e-03,  2.22133423e-19,  2.70000000e-02
   10351,  2.41578050e-03,  6.47306439e-04,  2.70000000e-02
   10352,  2.16592956e-03,  1.25050002e-03,  2.70000000e-02
   10353,  1.76847411e-03,  1.76847411e-03,  2.70000000e-02
   10354,  1.76847411e-03, -1.76847411e-03,  2.85000000e-02
   10355,  2.16592956e-03, -1.25050002e-03,  2.85000000e-02
   10356,  2.41578050e-03, -6.47306439e-04,  2.85000000e-02
   10357,  2.50100000e-03,  2.22133423e-19,  2.85000000e-02
   10358,  2.41578050e-03,  6.47306439e-04,  2.85000000e-02
   10359,  2.16592956e-03,  1.25050002e-03,  2.85000000e-02
   10360,  1.76847411e-03,  1.76847411e-03,  2.85000000e-02
   10361,  1.76847411e-03, -1.76847411e-03,  3.00000000e-02
   10362,  2.16592956e-03, -1.25050002e-03,  3.00000000e-02
   10363,  2.41578050e-03, -6.47306439e-04,  3.00000000e-02
   10364,  2.50100000e-03,  2.22133423e-19,  3.00000000e-02
   10365,  2.41578050e-03,  6.47306439e-04,  3.00000000e-02
   10366,  2.16592956e-03,  1.25050002e-03,  3.00000000e-02
   10367,  1.76847411e-03,  1.76847411e-03,  3.00000000e-02
   10368,  1.25050002e-03,  2.16592956e-03,  0.00000000e+00
   10369,  6.47306439e-04,  2.41578050e-03,  0.00000000e+00
   10370,  2.22133423e-19,  2.50100000e-03,  0.00000000e+00
   10371, -6.47306439e-04,  2.41578050e-03,  0.00000000e+00
   10372, -1.25050002e-03,  2.16592956e-03,  0.00000000e+00
   10373, -1.76847411e-03,  1.76847411e-03,  0.00000000e+00
   10374,  1.25050002e-03,  2.16592956e-03,  1.50000000e-03
   10375,  6.47306439e-04,  2.41578050e-03,  1.50000000e-03
   10376,  2.22133423e-19,  2.50100000e-03,  1.50000000e-03
   10377, -6.47306439e-04,  2.41578050e-03,  1.50000000e-03
   10378, -1.25050002e-03,  2.16592956e-03,  1.50000000e-03
   10379, -1.76847411e-03,  1.76847411e-03,  1.50000000e-03
   10380,  1.25050002e-03,  2.16592956e-03,  3.00000000e-03
   10381,  6.47306439e-04,  2.41578050e-03,  3.00000000e-03
   10382,  2.22133423e-19,  2.50100000e-03,  3.00000000e-03
   10383, -6.47306439e-04,  2.41578050e-03,  3.00000000e-03
   10384, -1.25050002e-03,  2.16592956e-03,  3.00000000e-03
   10385, -1.76847411e-03,  1.76847411e-03,  3.00000000e-03
   10386,  1.25050002e-03,  2.16592956e-03,  4.50000000e-03
   10387,  6.47306439e-04,  2.41578050e-03,  4.50000000e-03
   10388,  2.22133423e-19,  2.50100000e-03,  4.50000000e-03
   10389, -6.47306439e-04,  2.41578050e-03,  4.50000000e-03
   10390, -1.25050002e-03,  2.16592956e-03,  4.50000000e-03
   10391, -1.76847411e-03,  1.76847411e-03,  4.50000000e-03
   10392,  1.25050002e-03,  2.16592956e-03,  6.00000000e-03
   10393,  6.47306439e-04,  2.41578050e-03,  6.00000000e-03
   10394,  2.22133423e-19,  2.50100000e-03,  6.00000000e-03
   10395, -6.47306439e-04,  2.41578050e-03,  6.00000000e-03
   10396, -1.25050002e-03,  2.16592956e-03,  6.00000000e-03
   10397, -1.76847411e-03,  1.76847411e-03,  6.00000000e-03
   10398,  1.25050002e-03,  2.16592956e-03,  7.50000000e-03
   10399,  6.47306439e-04,  2.41578050e-03,  7.50000000e-03
   10400,  2.22133423e-19,  2.50100000e-03,  7.50000000e-03
   10401, -6.47306439e-04,  2.41578050e-03,  7.50000000e-03
   10402, -1.25050002e-03,  2.16592956e-03,  7.50000000e-03
   10403, -1.76847411e-03,  1.76847411e-03,  7.50000000e-03
   10404,  1.25050002e-03,  2.16592956e-03,  9.00000000e-03
   10405,  6.47306439e-04,  2.41578050e-03,  9.00000000e-03
   10406,  2.22133423e-19,  2.50100000e-03,  9.00000000e-03
   10407, -6.47306439e-04,  2.41578050e-03,  9.00000000e-03
   10408, -1.25050002e-03,  2.16592956e-03,  9.00000000e-03
   10409, -1.76847411e-03,  1.76847411e-03,  9.00000000e-03
   10410,  1.25050002e-03,  2.16592956e-03,  1.05000000e-02
   10411,  6.47306439e-04,  2.41578050e-03,  1.05000000e-02
   10412,  2.22133423e-19,  2.50100000e-03,  1.05000000e-02
   10413, -6.47306439e-04,  2.41578050e-03,  1.05000000e-02
   10414, -1.25050002e-03,  2.16592956e-03,  1.05000000e-02
   10415, -1.76847411e-03,  1.76847411e-03,  1.05000000e-02
   10416,  1.25050002e-03,  2.16592956e-03,  1.20000000e-02
   10417,  6.47306439e-04,  2.41578050e-03,  1.20000000e-02
   10418,  2.22133423e-19,  2.50100000e-03,  1.20000000e-02
   10419, -6.47306439e-04,  2.41578050e-03,  1.20000000e-02
   10420, -1.25050002e-03,  2.16592956e-03,  1.20000000e-02
   10421, -1.76847411e-03,  1.76847411e-03,  1.20000000e-02
   10422,  1.25050002e-03,  2.16592956e-03,  1.35000000e-02
   10423,  6.47306439e-04,  2.41578050e-03,  1.35000000e-02
   10424,  2.22133423e-19,  2.50100000e-03,  1.35000000e-02
   10425, -6.47306439e-04,  2.41578050e-03,  1.35000000e-02
   10426, -1.25050002e-03,  2.16592956e-03,  1.35000000e-02
   10427, -1.76847411e-03,  1.76847411e-03,  1.35000000e-02
   10428,  1.25050002e-03,  2.16592956e-03,  1.50000000e-02
   10429,  6.47306439e-04,  2.41578050e-03,  1.50000000e-02
   10430,  2.22133423e-19,  2.50100000e-03,  1.50000000e-02
   10431, -6.47306439e-04,  2.41578050e-03,  1.50000000e-02
   10432, -1.25050002e-03,  2.16592956e-03,  1.50000000e-02
   10433, -1.76847411e-03,  1.76847411e-03,  1.50000000e-02
   10434,  1.25050002e-03,  2.16592956e-03,  1.65000000e-02
   10435,  6.47306439e-04,  2.41578050e-03,  1.65000000e-02
   10436,  2.22133423e-19,  2.50100000e-03,  1.65000000e-02
   10437, -6.47306439e-04,  2.41578050e-03,  1.65000000e-02
   10438, -1.25050002e-03,  2.16592956e-03,  1.65000000e-02
   10439, -1.76847411e-03,  1.76847411e-03,  1.65000000e-02
   10440,  1.25050002e-03,  2.16592956e-03,  1.80000000e-02
   10441,  6.47306439e-04,  2.41578050e-03,  1.80000000e-02
   10442,  2.22133423e-19,  2.50100000e-03,  1.80000000e-02
   10443, -6.47306439e-04,  2.41578050e-03,  1.80000000e-02
   10444, -1.25050002e-03,  2.16592956e-03,  1.80000000e-02
   10445, -1.76847411e-03,  1.76847411e-03,  1.80000000e-02
   10446,  1.25050002e-03,  2.16592956e-03,  1.95000000e-02
   10447,  6.47306439e-04,  2.41578050e-03,  1.95000000e-02
   10448,  2.22133423e-19,  2.50100000e-03,  1.95000000e-02
   10449, -6.47306439e-04,  2.41578050e-03,  1.95000000e-02
   10450, -1.25050002e-03,  2.16592956e-03,  1.95000000e-02
   10451, -1.76847411e-03,  1.76847411e-03,  1.95000000e-02
   10452,  1.25050002e-03,  2.16592956e-03,  2.10000000e-02
   10453,  6.47306439e-04,  2.41578050e-03,  2.10000000e-02
   10454,  2.22133423e-19,  2.50100000e-03,  2.10000000e-02
   10455, -6.47306439e-04,  2.41578050e-03,  2.10000000e-02
   10456, -1.25050002e-03,  2.16592956e-03,  2.10000000e-02
   10457, -1.76847411e-03,  1.76847411e-03,  2.10000000e-02
   10458,  1.25050002e-03,  2.16592956e-03,  2.25000000e-02
   10459,  6.47306439e-04,  2.41578050e-03,  2.25000000e-02
   10460,  2.22133423e-19,  2.50100000e-03,  2.25000000e-02
   10461, -6.47306439e-04,  2.41578050e-03,  2.25000000e-02
   10462, -1.25050002e-03,  2.16592956e-03,  2.25000000e-02
   10463, -1.76847411e-03,  1.76847411e-03,  2.25000000e-02
   10464,  1.25050002e-03,  2.16592956e-03,  2.40000000e-02
   10465,  6.47306439e-04,  2.41578050e-03,  2.40000000e-02
   10466,  2.22133423e-19,  2.50100000e-03,  2.40000000e-02
   10467, -6.47306439e-04,  2.41578050e-03,  2.40000000e-02
   10468, -1.25050002e-03,  2.16592956e-03,  2.40000000e-02
   10469, -1.76847411e-03,  1.76847411e-03,  2.40000000e-02
   10470,  1.25050002e-03,  2.16592956e-03,  2.55000000e-02
   10471,  6.47306439e-04,  2.41578050e-03,  2.55000000e-02
   10472,  2.22133423e-19,  2.50100000e-03,  2.55000000e-02
   10473, -6.47306439e-04,  2.41578050e-03,  2.55000000e-02
   10474, -1.25050002e-03,  2.16592956e-03,  2.55000000e-02
   10475, -1.76847411e-03,  1.76847411e-03,  2.55000000e-02
   10476,  1.25050002e-03,  2.16592956e-03,  2.70000000e-02
   10477,  6.47306439e-04,  2.41578050e-03,  2.70000000e-02
   10478,  2.22133423e-19,  2.50100000e-03,  2.70000000e-02
   10479, -6.47306439e-04,  2.41578050e-03,  2.70000000e-02
   10480, -1.25050002e-03,  2.16592956e-03,  2.70000000e-02
   10481, -1.76847411e-03,  1.76847411e-03,  2.70000000e-02
   10482,  1.25050002e-03,  2.16592956e-03,  2.85000000e-02
   10483,  6.47306439e-04,  2.41578050e-03,  2.85000000e-02
   10484,  2.22133423e-19,  2.50100000e-03,  2.85000000e-02
   10485, -6.47306439e-04,  2.41578050e-03,  2.85000000e-02
   10486, -1.25050002e-03,  2.16592956e-03,  2.85000000e-02
   10487, -1.76847411e-03,  1.76847411e-03,  2.85000000e-02
   10488,  1.25050002e-03,  2.16592956e-03,  3.00000000e-02
   10489,  6.47306439e-04,  2.41578050e-03,  3.00000000e-02
   10490,  2.22133423e-19,  2.50100000e-03,  3.00000000e-02
   10491, -6.47306439e-04,  2.41578050e-03,  3.00000000e-02
   10492, -1.25050002e-03,  2.16592956e-03,  3.00000000e-02
   10493, -1.76847411e-03,  1.76847411e-03,  3.00000000e-02
   10494, -2.16592956e-03,  1.25050002e-03,  0.00000000e+00
   10495, -2.41578050e-03,  6.47306439e-04,  0.00000000e+00
   10496, -2.50100000e-03,  2.22133423e-19,  0.00000000e+00
   10497, -2.41578050e-03, -6.47306439e-04,  0.00000000e+00
   10498, -2.16592956e-03, -1.25050002e-03,  0.00000000e+00
   10499, -1.76847411e-03, -1.76847411e-03,  0.00000000e+00
   10500, -2.16592956e-03,  1.25050002e-03,  1.50000000e-03
   10501, -2.41578050e-03,  6.47306439e-04,  1.50000000e-03
   10502, -2.50100000e-03,  2.22133423e-19,  1.50000000e-03
   10503, -2.41578050e-03, -6.47306439e-04,  1.50000000e-03
   10504, -2.16592956e-03, -1.25050002e-03,  1.50000000e-03
   10505, -1.76847411e-03, -1.76847411e-03,  1.50000000e-03
   10506, -2.16592956e-03,  1.25050002e-03,  3.00000000e-03
   10507, -2.41578050e-03,  6.47306439e-04,  3.00000000e-03
   10508, -2.50100000e-03,  2.22133423e-19,  3.00000000e-03
   10509, -2.41578050e-03, -6.47306439e-04,  3.00000000e-03
   10510, -2.16592956e-03, -1.25050002e-03,  3.00000000e-03
   10511, -1.76847411e-03, -1.76847411e-03,  3.00000000e-03
   10512, -2.16592956e-03,  1.25050002e-03,  4.50000000e-03
   10513, -2.41578050e-03,  6.47306439e-04,  4.50000000e-03
   10514, -2.50100000e-03,  2.22133423e-19,  4.50000000e-03
   10515, -2.41578050e-03, -6.47306439e-04,  4.50000000e-03
   10516, -2.16592956e-03, -1.25050002e-03,  4.50000000e-03
   10517, -1.76847411e-03, -1.76847411e-03,  4.50000000e-03
   10518, -2.16592956e-03,  1.25050002e-03,  6.00000000e-03
   10519, -2.41578050e-03,  6.47306439e-04,  6.00000000e-03
   10520, -2.50100000e-03,  2.22133423e-19,  6.00000000e-03
   10521, -2.41578050e-03, -6.47306439e-04,  6.00000000e-03
   10522, -2.16592956e-03, -1.25050002e-03,  6.00000000e-03
   10523, -1.76847411e-03, -1.76847411e-03,  6.00000000e-03
   10524, -2.16592956e-03,  1.25050002e-03,  7.50000000e-03
   10525, -2.41578050e-03,  6.47306439e-04,  7.50000000e-03
   10526, -2.50100000e-03,  2.22133423e-19,  7.50000000e-03
   10527, -2.41578050e-03, -6.47306439e-04,  7.50000000e-03
   10528, -2.16592956e-03, -1.25050002e-03,  7.50000000e-03
   10529, -1.76847411e-03, -1.76847411e-03,  7.50000000e-03
   10530, -2.16592956e-03,  1.25050002e-03,  9.00000000e-03
   10531, -2.41578050e-03,  6.47306439e-04,  9.00000000e-03
   10532, -2.50100000e-03,  2.22133423e-19,  9.00000000e-03
   10533, -2.41578050e-03, -6.47306439e-04,  9.00000000e-03
   10534, -2.16592956e-03, -1.25050002e-03,  9.00000000e-03
   10535, -1.76847411e-03, -1.76847411e-03,  9.00000000e-03
   10536, -2.16592956e-03,  1.25050002e-03,  1.05000000e-02
   10537, -2.41578050e-03,  6.47306439e-04,  1.05000000e-02
   10538, -2.50100000e-03,  2.22133423e-19,  1.05000000e-02
   10539, -2.41578050e-03, -6.47306439e-04,  1.05000000e-02
   10540, -2.16592956e-03, -1.25050002e-03,  1.05000000e-02
   10541, -1.76847411e-03, -1.76847411e-03,  1.05000000e-02
   10542, -2.16592956e-03,  1.25050002e-03,  1.20000000e-02
   10543, -2.41578050e-03,  6.47306439e-04,  1.20000000e-02
   10544, -2.50100000e-03,  2.22133423e-19,  1.20000000e-02
   10545, -2.41578050e-03, -6.47306439e-04,  1.20000000e-02
   10546, -2.16592956e-03, -1.25050002e-03,  1.20000000e-02
   10547, -1.76847411e-03, -1.76847411e-03,  1.20000000e-02
   10548, -2.16592956e-03,  1.25050002e-03,  1.35000000e-02
   10549, -2.41578050e-03,  6.47306439e-04,  1.35000000e-02
   10550, -2.50100000e-03,  2.22133423e-19,  1.35000000e-02
   10551, -2.41578050e-03, -6.47306439e-04,  1.35000000e-02
   10552, -2.16592956e-03, -1.25050002e-03,  1.35000000e-02
   10553, -1.76847411e-03, -1.76847411e-03,  1.35000000e-02
   10554, -2.16592956e-03,  1.25050002e-03,  1.50000000e-02
   10555, -2.41578050e-03,  6.47306439e-04,  1.50000000e-02
   10556, -2.50100000e-03,  2.22133423e-19,  1.50000000e-02
   10557, -2.41578050e-03, -6.47306439e-04,  1.50000000e-02
   10558, -2.16592956e-03, -1.25050002e-03,  1.50000000e-02
   10559, -1.76847411e-03, -1.76847411e-03,  1.50000000e-02
   10560, -2.16592956e-03,  1.25050002e-03,  1.65000000e-02
   10561, -2.41578050e-03,  6.47306439e-04,  1.65000000e-02
   10562, -2.50100000e-03,  2.22133423e-19,  1.65000000e-02
   10563, -2.41578050e-03, -6.47306439e-04,  1.65000000e-02
   10564, -2.16592956e-03, -1.25050002e-03,  1.65000000e-02
   10565, -1.76847411e-03, -1.76847411e-03,  1.65000000e-02
   10566, -2.16592956e-03,  1.25050002e-03,  1.80000000e-02
   10567, -2.41578050e-03,  6.47306439e-04,  1.80000000e-02
   10568, -2.50100000e-03,  2.22133423e-19,  1.80000000e-02
   10569, -2.41578050e-03, -6.47306439e-04,  1.80000000e-02
   10570, -2.16592956e-03, -1.25050002e-03,  1.80000000e-02
   10571, -1.76847411e-03, -1.76847411e-03,  1.80000000e-02
   10572, -2.16592956e-03,  1.25050002e-03,  1.95000000e-02
   10573, -2.41578050e-03,  6.47306439e-04,  1.95000000e-02
   10574, -2.50100000e-03,  2.22133423e-19,  1.95000000e-02
   10575, -2.41578050e-03, -6.47306439e-04,  1.95000000e-02
   10576, -2.16592956e-03, -1.25050002e-03,  1.95000000e-02
   10577, -1.76847411e-03, -1.76847411e-03,  1.95000000e-02
   10578, -2.16592956e-03,  1.25050002e-03,  2.10000000e-02
   10579, -2.41578050e-03,  6.47306439e-04,  2.10000000e-02
   10580, -2.50100000e-03,  2.22133423e-19,  2.10000000e-02
   10581, -2.41578050e-03, -6.47306439e-04,  2.10000000e-02
   10582, -2.16592956e-03, -1.25050002e-03,  2.10000000e-02
   10583, -1.76847411e-03, -1.76847411e-03,  2.10000000e-02
   10584, -2.16592956e-03,  1.25050002e-03,  2.25000000e-02
   10585, -2.41578050e-03,  6.47306439e-04,  2.25000000e-02
   10586, -2.50100000e-03,  2.22133423e-19,  2.25000000e-02
   10587, -2.41578050e-03, -6.47306439e-04,  2.25000000e-02
   10588, -2.16592956e-03, -1.25050002e-03,  2.25000000e-02
   10589, -1.76847411e-03, -1.76847411e-03,  2.25000000e-02
   10590, -2.16592956e-03,  1.25050002e-03,  2.40000000e-02
   10591, -2.41578050e-03,  6.47306439e-04,  2.40000000e-02
   10592, -2.50100000e-03,  2.22133423e-19,  2.40000000e-02
   10593, -2.41578050e-03, -6.47306439e-04,  2.40000000e-02
   10594, -2.16592956e-03, -1.25050002e-03,  2.40000000e-02
   10595, -1.76847411e-03, -1.76847411e-03,  2.40000000e-02
   10596, -2.16592956e-03,  1.25050002e-03,  2.55000000e-02
   10597, -2.41578050e-03,  6.47306439e-04,  2.55000000e-02
   10598, -2.50100000e-03,  2.22133423e-19,  2.55000000e-02
   10599, -2.41578050e-03, -6.47306439e-04,  2.55000000e-02
   10600, -2.16592956e-03, -1.25050002e-03,  2.55000000e-02
   10601, -1.76847411e-03, -1.76847411e-03,  2.55000000e-02
   10602, -2.16592956e-03,  1.25050002e-03,  2.70000000e-02
   10603, -2.41578050e-03,  6.47306439e-04,  2.70000000e-02
   10604, -2.50100000e-03,  2.22133423e-19,  2.70000000e-02
   10605, -2.41578050e-03, -6.47306439e-04,  2.70000000e-02
   10606, -2.16592956e-03, -1.25050002e-03,  2.70000000e-02
   10607, -1.76847411e-03, -1.76847411e-03,  2.70000000e-02
   10608, -2.16592956e-03,  1.25050002e-03,  2.85000000e-02
   10609, -2.41578050e-03,  6.47306439e-04,  2.85000000e-02
   10610, -2.50100000e-03,  2.22133423e-19,  2.85000000e-02
   10611, -2.41578050e-03, -6.47306439e-04,  2.85000000e-02
   10612, -2.16592956e-03, -1.25050002e-03,  2.85000000e-02
   10613, -1.76847411e-03, -1.76847411e-03,  2.85000000e-02
   10614, -2.16592956e-03,  1.25050002e-03,  3.00000000e-02
   10615, -2.41578050e-03,  6.47306439e-04,  3.00000000e-02
   10616, -2.50100000e-03,  2.22133423e-19,  3.00000000e-02
   10617, -2.41578050e-03, -6.47306439e-04,  3.00000000e-02
   10618, -2.16592956e-03, -1.25050002e-03,  3.00000000e-02
   10619, -1.76847411e-03, -1.76847411e-03,  3.00000000e-02
   10620, -1.25050002e-03, -2.16592956e-03,  0.00000000e+00
   10621, -6.47306439e-04, -2.41578050e-03,  0.00000000e+00
   10622, -2.22133423e-19, -2.50100000e-03,  0.00000000e+00
   10623,  6.47306439e-04, -2.41578050e-03,  0.00000000e+00
   10624,  1.25050002e-03, -2.16592956e-03,  0.00000000e+00
   10625, -1.25050002e-03, -2.16592956e-03,  1.50000000e-03
   10626, -6.47306439e-04, -2.41578050e-03,  1.50000000e-03
   10627, -2.22133423e-19, -2.50100000e-03,  1.50000000e-03
   10628,  6.47306439e-04, -2.41578050e-03,  1.50000000e-03
   10629,  1.25050002e-03, -2.16592956e-03,  1.50000000e-03
   10630, -1.25050002e-03, -2.16592956e-03,  3.00000000e-03
   10631, -6.47306439e-04, -2.41578050e-03,  3.00000000e-03
   10632, -2.22133423e-19, -2.50100000e-03,  3.00000000e-03
   10633,  6.47306439e-04, -2.41578050e-03,  3.00000000e-03
   10634,  1.25050002e-03, -2.16592956e-03,  3.00000000e-03
   10635, -1.25050002e-03, -2.16592956e-03,  4.50000000e-03
   10636, -6.47306439e-04, -2.41578050e-03,  4.50000000e-03
   10637, -2.22133423e-19, -2.50100000e-03,  4.50000000e-03
   10638,  6.47306439e-04, -2.41578050e-03,  4.50000000e-03
   10639,  1.25050002e-03, -2.16592956e-03,  4.50000000e-03
   10640, -1.25050002e-03, -2.16592956e-03,  6.00000000e-03
   10641, -6.47306439e-04, -2.41578050e-03,  6.00000000e-03
   10642, -2.22133423e-19, -2.50100000e-03,  6.00000000e-03
   10643,  6.47306439e-04, -2.41578050e-03,  6.00000000e-03
   10644,  1.25050002e-03, -2.16592956e-03,  6.00000000e-03
   10645, -1.25050002e-03, -2.16592956e-03,  7.50000000e-03
   10646, -6.47306439e-04, -2.41578050e-03,  7.50000000e-03
   10647, -2.22133423e-19, -2.50100000e-03,  7.50000000e-03
   10648,  6.47306439e-04, -2.41578050e-03,  7.50000000e-03
   10649,  1.25050002e-03, -2.16592956e-03,  7.50000000e-03
   10650, -1.25050002e-03, -2.16592956e-03,  9.00000000e-03
   10651, -6.47306439e-04, -2.41578050e-03,  9.00000000e-03
   10652, -2.22133423e-19, -2.50100000e-03,  9.00000000e-03
   10653,  6.47306439e-04, -2.41578050e-03,  9.00000000e-03
   10654,  1.25050002e-03, -2.16592956e-03,  9.00000000e-03
   10655, -1.25050002e-03, -2.16592956e-03,  1.05000000e-02
   10656, -6.47306439e-04, -2.41578050e-03,  1.05000000e-02
   10657, -2.22133423e-19, -2.50100000e-03,  1.05000000e-02
   10658,  6.47306439e-04, -2.41578050e-03,  1.05000000e-02
   10659,  1.25050002e-03, -2.16592956e-03,  1.05000000e-02
   10660, -1.25050002e-03, -2.16592956e-03,  1.20000000e-02
   10661, -6.47306439e-04, -2.41578050e-03,  1.20000000e-02
   10662, -2.22133423e-19, -2.50100000e-03,  1.20000000e-02
   10663,  6.47306439e-04, -2.41578050e-03,  1.20000000e-02
   10664,  1.25050002e-03, -2.16592956e-03,  1.20000000e-02
   10665, -1.25050002e-03, -2.16592956e-03,  1.35000000e-02
   10666, -6.47306439e-04, -2.41578050e-03,  1.35000000e-02
   10667, -2.22133423e-19, -2.50100000e-03,  1.35000000e-02
   10668,  6.47306439e-04, -2.41578050e-03,  1.35000000e-02
   10669,  1.25050002e-03, -2.16592956e-03,  1.35000000e-02
   10670, -1.25050002e-03, -2.16592956e-03,  1.50000000e-02
   10671, -6.47306439e-04, -2.41578050e-03,  1.50000000e-02
   10672, -2.22133423e-19, -2.50100000e-03,  1.50000000e-02
   10673,  6.47306439e-04, -2.41578050e-03,  1.50000000e-02
   10674,  1.25050002e-03, -2.16592956e-03,  1.50000000e-02
   10675, -1.25050002e-03, -2.16592956e-03,  1.65000000e-02
   10676, -6.47306439e-04, -2.41578050e-03,  1.65000000e-02
   10677, -2.22133423e-19, -2.50100000e-03,  1.65000000e-02
   10678,  6.47306439e-04, -2.41578050e-03,  1.65000000e-02
   10679,  1.25050002e-03, -2.16592956e-03,  1.65000000e-02
   10680, -1.25050002e-03, -2.16592956e-03,  1.80000000e-02
   10681, -6.47306439e-04, -2.41578050e-03,  1.80000000e-02
   10682, -2.22133423e-19, -2.50100000e-03,  1.80000000e-02
   10683,  6.47306439e-04, -2.41578050e-03,  1.80000000e-02
   10684,  1.25050002e-03, -2.16592956e-03,  1.80000000e-02
   10685, -1.25050002e-03, -2.16592956e-03,  1.95000000e-02
   10686, -6.47306439e-04, -2.41578050e-03,  1.95000000e-02
   10687, -2.22133423e-19, -2.50100000e-03,  1.95000000e-02
   10688,  6.47306439e-04, -2.41578050e-03,  1.95000000e-02
   10689,  1.25050002e-03, -2.16592956e-03,  1.95000000e-02
   10690, -1.25050002e-03, -2.16592956e-03,  2.10000000e-02
   10691, -6.47306439e-04, -2.41578050e-03,  2.10000000e-02
   10692, -2.22133423e-19, -2.50100000e-03,  2.10000000e-02
   10693,  6.47306439e-04, -2.41578050e-03,  2.10000000e-02
   10694,  1.25050002e-03, -2.16592956e-03,  2.10000000e-02
   10695, -1.25050002e-03, -2.16592956e-03,  2.25000000e-02
   10696, -6.47306439e-04, -2.41578050e-03,  2.25000000e-02
   10697, -2.22133423e-19, -2.50100000e-03,  2.25000000e-02
   10698,  6.47306439e-04, -2.41578050e-03,  2.25000000e-02
   10699,  1.25050002e-03, -2.16592956e-03,  2.25000000e-02
   10700, -1.25050002e-03, -2.16592956e-03,  2.40000000e-02
   10701, -6.47306439e-04, -2.41578050e-03,  2.40000000e-02
   10702, -2.22133423e-19, -2.50100000e-03,  2.40000000e-02
   10703,  6.47306439e-04, -2.41578050e-03,  2.40000000e-02
   10704,  1.25050002e-03, -2.16592956e-03,  2.40000000e-02
   10705, -1.25050002e-03, -2.16592956e-03,  2.55000000e-02
   10706, -6.47306439e-04, -2.41578050e-03,  2.55000000e-02
   10707, -2.22133423e-19, -2.50100000e-03,  2.55000000e-02
   10708,  6.47306439e-04, -2.41578050e-03,  2.55000000e-02
   10709,  1.25050002e-03, -2.16592956e-03,  2.55000000e-02
   10710, -1.25050002e-03, -2.16592956e-03,  2.70000000e-02
   10711, -6.47306439e-04, -2.41578050e-03,  2.70000000e-02
   10712, -2.22133423e-19, -2.50100000e-03,  2.70000000e-02
   10713,  6.47306439e-04, -2.41578050e-03,  2.70000000e-02
   10714,  1.25050002e-03, -2.16592956e-03,  2.70000000e-02
   10715, -1.25050002e-03, -2.16592956e-03,  2.85000000e-02
   10716, -6.47306439e-04, -2.41578050e-03,  2.85000000e-02
   10717, -2.22133423e-19, -2.50100000e-03,  2.85000000e-02
   10718,  6.47306439e-04, -2.41578050e-03,  2.85000000e-02
   10719,  1.25050002e-03, -2.16592956e-03,  2.85000000e-02
   10720, -1.25050002e-03, -2.16592956e-03,  3.00000000e-02
   10721, -6.47306439e-04, -2.41578050e-03,  3.00000000e-02
   10722, -2.22133423e-19, -2.50100000e-03,  3.00000000e-02
   10723,  6.47306439e-04, -2.41578050e-03,  3.00000000e-02
   10724,  1.25050002e-03, -2.16592956e-03,  3.00000000e-02
*ELEMENT, TYPE=SPRINGA, ELSET=WK_0
    9505,     7583,    10226
*SPRING, ELSET=WK_0

9.789465e-01
*ELEMENT, TYPE=SPRINGA, ELSET=WK_1
    9506,     7585,    10227
*SPRING, ELSET=WK_1

9.789465e-01
*ELEMENT, TYPE=SPRINGA, ELSET=WK_2
    9507,     7587,    10228
*SPRING, ELSET=WK_2

9.789465e-01
*ELEMENT, TYPE=SPRINGA, ELSET=WK_3
    9508,     7589,    10229
*SPRING, ELSET=WK_3

9.789465e-01
*ELEMENT, TYPE=SPRINGA, ELSET=WK_4
    9509,     7591,    10230
*SPRING, ELSET=WK_4

9.789465e-01
*ELEMENT, TYPE=SPRINGA, ELSET=WK_5
    9510,     7593,    10231
*SPRING, ELSET=WK_5

9.789465e-01
*ELEMENT, TYPE=SPRINGA, ELSET=WK_6
    9511,     7595,    10232
*SPRING, ELSET=WK_6

9.789465e-01
*ELEMENT, TYPE=SPRINGA, ELSET=WK_7
    9512,     7597,    10233
*SPRING, ELSET=WK_7

1.957893e+00
*ELEMENT, TYPE=SPRINGA, ELSET=WK_8
    9513,     7599,    10234
*SPRING, ELSET=WK_8

1.957893e+00
*ELEMENT, TYPE=SPRINGA, ELSET=WK_9
    9514,     7601,    10235
*SPRING, ELSET=WK_9

1.957893e+00
*ELEMENT, TYPE=SPRINGA, ELSET=WK_10
    9515,     7603,    10236
*SPRING, ELSET=WK_10

1.957893e+00
*ELEMENT, TYPE=SPRINGA, ELSET=WK_11
    9516,     7605,    10237
*SPRING, ELSET=WK_11

1.957893e+00
*ELEMENT, TYPE=SPRINGA, ELSET=WK_12
    9517,     7607,    10238
*SPRING, ELSET=WK_12

1.957893e+00
*ELEMENT, TYPE=SPRINGA, ELSET=WK_13
    9518,     7609,    10239
*SPRING, ELSET=WK_13

1.957893e+00
*ELEMENT, TYPE=SPRINGA, ELSET=WK_14
    9519,     7611,    10240
*SPRING, ELSET=WK_14

1.957893e+00
*ELEMENT, TYPE=SPRINGA, ELSET=WK_15
    9520,     7613,    10241
*SPRING, ELSET=WK_15

1.957893e+00
*ELEMENT, TYPE=SPRINGA, ELSET=WK_16
    9521,     7615,    10242
*SPRING, ELSET=WK_16

1.957893e+00
*ELEMENT, TYPE=SPRINGA, ELSET=WK_17
    9522,     7617,    10243
*SPRING, ELSET=WK_17

1.957893e+00
*ELEMENT, TYPE=SPRINGA, ELSET=WK_18
    9523,     7619,    10244
*SPRING, ELSET=WK_18

1.957893e+00
*ELEMENT, TYPE=SPRINGA, ELSET=WK_19
    9524,     7621,    10245
*SPRING, ELSET=WK_19

1.957893e+00
*ELEMENT, TYPE=SPRINGA, ELSET=WK_20
    9525,     7623,    10246
*SPRING, ELSET=WK_20

1.957893e+00
*ELEMENT, TYPE=SPRINGA, ELSET=WK_21
    9526,     7625,    10247
*SPRING, ELSET=WK_21

1.957893e+00
*ELEMENT, TYPE=SPRINGA, ELSET=WK_22
    9527,     7627,    10248
*SPRING, ELSET=WK_22

1.957893e+00
*ELEMENT, TYPE=SPRINGA, ELSET=WK_23
    9528,     7629,    10249
*SPRING, ELSET=WK_23

1.957893e+00
*ELEMENT, TYPE=SPRINGA, ELSET=WK_24
    9529,     7631,    10250
*SPRING, ELSET=WK_24

1.957893e+00
*ELEMENT, TYPE=SPRINGA, ELSET=WK_25
    9530,     7633,    10251
*SPRING, ELSET=WK_25

1.957893e+00
*ELEMENT, TYPE=SPRINGA, ELSET=WK_26
    9531,     7635,    10252
*SPRING, ELSET=WK_26

1.957893e+00
*ELEMENT, TYPE=SPRINGA, ELSET=WK_27
    9532,     7637,    10253
*SPRING, ELSET=WK_27

1.957893e+00
*ELEMENT, TYPE=SPRINGA, ELSET=WK_28
    9533,     7639,    10254
*SPRING, ELSET=WK_28

1.957893e+00
*ELEMENT, TYPE=SPRINGA, ELSET=WK_29
    9534,     7641,    10255
*SPRING, ELSET=WK_29

1.957893e+00
*ELEMENT, TYPE=SPRINGA, ELSET=WK_30
    9535,     7643,    10256
*SPRING, ELSET=WK_30

1.957893e+00
*ELEMENT, TYPE=SPRINGA, ELSET=WK_31
    9536,     7645,    10257
*SPRING, ELSET=WK_31

1.957893e+00
*ELEMENT, TYPE=SPRINGA, ELSET=WK_32
    9537,     7647,    10258
*SPRING, ELSET=WK_32

1.957893e+00
*ELEMENT, TYPE=SPRINGA, ELSET=WK_33
    9538,     7649,    10259
*SPRING, ELSET=WK_33

1.957893e+00
*ELEMENT, TYPE=SPRINGA, ELSET=WK_34
    9539,     7651,    10260
*SPRING, ELSET=WK_34

1.957893e+00
*ELEMENT, TYPE=SPRINGA, ELSET=WK_35
    9540,     7653,    10261
*SPRING, ELSET=WK_35

1.957893e+00
*ELEMENT, TYPE=SPRINGA, ELSET=WK_36
    9541,     7655,    10262
*SPRING, ELSET=WK_36

1.957893e+00
*ELEMENT, TYPE=SPRINGA, ELSET=WK_37
    9542,     7657,    10263
*SPRING, ELSET=WK_37

1.957893e+00
*ELEMENT, TYPE=SPRINGA, ELSET=WK_38
    9543,     7659,    10264
*SPRING, ELSET=WK_38

1.957893e+00
*ELEMENT, TYPE=SPRINGA, ELSET=WK_39
    9544,     7661,    10265
*SPRING, ELSET=WK_39

1.957893e+00
*ELEMENT, TYPE=SPRINGA, ELSET=WK_40
    9545,     7663,    10266
*SPRING, ELSET=WK_40

1.957893e+00
*ELEMENT, TYPE=SPRINGA, ELSET=WK_41
    9546,     7665,    10267
*SPRING, ELSET=WK_41

1.957893e+00
*ELEMENT, TYPE=SPRINGA, ELSET=WK_42
    9547,     7667,    10268
*SPRING, ELSET=WK_42

1.957893e+00
*ELEMENT, TYPE=SPRINGA, ELSET=WK_43
    9548,     7669,    10269
*SPRING, ELSET=WK_43

1.957893e+00
*ELEMENT, TYPE=SPRINGA, ELSET=WK_44
    9549,     7671,    10270
*SPRING, ELSET=WK_44

1.957893e+00
*ELEMENT, TYPE=SPRINGA, ELSET=WK_45
    9550,     7673,    10271
*SPRING, ELSET=WK_45

1.957893e+00
*ELEMENT, TYPE=SPRINGA, ELSET=WK_46
    9551,     7675,    10272
*SPRING, ELSET=WK_46

1.957893e+00
*ELEMENT, TYPE=SPRINGA, ELSET=WK_47
    9552,     7677,    10273
*SPRING, ELSET=WK_47

1.957893e+00
*ELEMENT, TYPE=SPRINGA, ELSET=WK_48
    9553,     7679,    10274
*SPRING, ELSET=WK_48

1.957893e+00
*ELEMENT, TYPE=SPRINGA, ELSET=WK_49
    9554,     7681,    10275
*SPRING, ELSET=WK_49

1.957893e+00
*ELEMENT, TYPE=SPRINGA, ELSET=WK_50
    9555,     7683,    10276
*SPRING, ELSET=WK_50

1.957893e+00
*ELEMENT, TYPE=SPRINGA, ELSET=WK_51
    9556,     7685,    10277
*SPRING, ELSET=WK_51

1.957893e+00
*ELEMENT, TYPE=SPRINGA, ELSET=WK_52
    9557,     7687,    10278
*SPRING, ELSET=WK_52

1.957893e+00
*ELEMENT, TYPE=SPRINGA, ELSET=WK_53
    9558,     7689,    10279
*SPRING, ELSET=WK_53

1.957893e+00
*ELEMENT, TYPE=SPRINGA, ELSET=WK_54
    9559,     7691,    10280
*SPRING, ELSET=WK_54

1.957893e+00
*ELEMENT, TYPE=SPRINGA, ELSET=WK_55
    9560,     7693,    10281
*SPRING, ELSET=WK_55

1.957893e+00
*ELEMENT, TYPE=SPRINGA, ELSET=WK_56
    9561,     7695,    10282
*SPRING, ELSET=WK_56

1.957893e+00
*ELEMENT, TYPE=SPRINGA, ELSET=WK_57
    9562,     7697,    10283
*SPRING, ELSET=WK_57

1.957893e+00
*ELEMENT, TYPE=SPRINGA, ELSET=WK_58
    9563,     7699,    10284
*SPRING, ELSET=WK_58

1.957893e+00
*ELEMENT, TYPE=SPRINGA, ELSET=WK_59
    9564,     7701,    10285
*SPRING, ELSET=WK_59

1.957893e+00
*ELEMENT, TYPE=SPRINGA, ELSET=WK_60
    9565,     7703,    10286
*SPRING, ELSET=WK_60

1.957893e+00
*ELEMENT, TYPE=SPRINGA, ELSET=WK_61
    9566,     7705,    10287
*SPRING, ELSET=WK_61

1.957893e+00
*ELEMENT, TYPE=SPRINGA, ELSET=WK_62
    9567,     7707,    10288
*SPRING, ELSET=WK_62

1.957893e+00
*ELEMENT, TYPE=SPRINGA, ELSET=WK_63
    9568,     7709,    10289
*SPRING, ELSET=WK_63

1.957893e+00
*ELEMENT, TYPE=SPRINGA, ELSET=WK_64
    9569,     7711,    10290
*SPRING, ELSET=WK_64

1.957893e+00
*ELEMENT, TYPE=SPRINGA, ELSET=WK_65
    9570,     7713,    10291
*SPRING, ELSET=WK_65

1.957893e+00
*ELEMENT, TYPE=SPRINGA, ELSET=WK_66
    9571,     7715,    10292
*SPRING, ELSET=WK_66

1.957893e+00
*ELEMENT, TYPE=SPRINGA, ELSET=WK_67
    9572,     7717,    10293
*SPRING, ELSET=WK_67

1.957893e+00
*ELEMENT, TYPE=SPRINGA, ELSET=WK_68
    9573,     7719,    10294
*SPRING, ELSET=WK_68

1.957893e+00
*ELEMENT, TYPE=SPRINGA, ELSET=WK_69
    9574,     7721,    10295
*SPRING, ELSET=WK_69

1.957893e+00
*ELEMENT, TYPE=SPRINGA, ELSET=WK_70
    9575,     7723,    10296
*SPRING, ELSET=WK_70

1.957893e+00
*ELEMENT, TYPE=SPRINGA, ELSET=WK_71
    9576,     7725,    10297
*SPRING, ELSET=WK_71

1.957893e+00
*ELEMENT, TYPE=SPRINGA, ELSET=WK_72
    9577,     7727,    10298
*SPRING, ELSET=WK_72

1.957893e+00
*ELEMENT, TYPE=SPRINGA, ELSET=WK_73
    9578,     7729,    10299
*SPRING, ELSET=WK_73

1.957893e+00
*ELEMENT, TYPE=SPRINGA, ELSET=WK_74
    9579,     7731,    10300
*SPRING, ELSET=WK_74

1.957893e+00
*ELEMENT, TYPE=SPRINGA, ELSET=WK_75
    9580,     7733,    10301
*SPRING, ELSET=WK_75

1.957893e+00
*ELEMENT, TYPE=SPRINGA, ELSET=WK_76
    9581,     7735,    10302
*SPRING, ELSET=WK_76

1.957893e+00
*ELEMENT, TYPE=SPRINGA, ELSET=WK_77
    9582,     7737,    10303
*SPRING, ELSET=WK_77

1.957893e+00
*ELEMENT, TYPE=SPRINGA, ELSET=WK_78
    9583,     7739,    10304
*SPRING, ELSET=WK_78

1.957893e+00
*ELEMENT, TYPE=SPRINGA, ELSET=WK_79
    9584,     7741,    10305
*SPRING, ELSET=WK_79

1.957893e+00
*ELEMENT, TYPE=SPRINGA, ELSET=WK_80
    9585,     7743,    10306
*SPRING, ELSET=WK_80

1.957893e+00
*ELEMENT, TYPE=SPRINGA, ELSET=WK_81
    9586,     7745,    10307
*SPRING, ELSET=WK_81

1.957893e+00
*ELEMENT, TYPE=SPRINGA, ELSET=WK_82
    9587,     7747,    10308
*SPRING, ELSET=WK_82

1.957893e+00
*ELEMENT, TYPE=SPRINGA, ELSET=WK_83
    9588,     7749,    10309
*SPRING, ELSET=WK_83

1.957893e+00
*ELEMENT, TYPE=SPRINGA, ELSET=WK_84
    9589,     7751,    10310
*SPRING, ELSET=WK_84

1.957893e+00
*ELEMENT, TYPE=SPRINGA, ELSET=WK_85
    9590,     7753,    10311
*SPRING, ELSET=WK_85

1.957893e+00
*ELEMENT, TYPE=SPRINGA, ELSET=WK_86
    9591,     7755,    10312
*SPRING, ELSET=WK_86

1.468420e+00
*ELEMENT, TYPE=SPRINGA, ELSET=WK_87
    9592,     7757,    10313
*SPRING, ELSET=WK_87

9.789465e-01
*ELEMENT, TYPE=SPRINGA, ELSET=WK_88
    9593,     7759,    10314
*SPRING, ELSET=WK_88

1.468420e+00
*ELEMENT, TYPE=SPRINGA, ELSET=WK_89
    9594,     7761,    10315
*SPRING, ELSET=WK_89

1.957893e+00
*ELEMENT, TYPE=SPRINGA, ELSET=WK_90
    9595,     7763,    10316
*SPRING, ELSET=WK_90

1.957893e+00
*ELEMENT, TYPE=SPRINGA, ELSET=WK_91
    9596,     7765,    10317
*SPRING, ELSET=WK_91

1.957893e+00
*ELEMENT, TYPE=SPRINGA, ELSET=WK_92
    9597,     7767,    10318
*SPRING, ELSET=WK_92

1.957893e+00
*ELEMENT, TYPE=SPRINGA, ELSET=WK_93
    9598,     7769,    10319
*SPRING, ELSET=WK_93

9.789465e-01
*ELEMENT, TYPE=SPRINGA, ELSET=WK_94
    9599,     7773,    10320
*SPRING, ELSET=WK_94

9.789465e-01
*ELEMENT, TYPE=SPRINGA, ELSET=WK_95
    9600,     7775,    10321
*SPRING, ELSET=WK_95

1.957893e+00
*ELEMENT, TYPE=SPRINGA, ELSET=WK_96
    9601,     7777,    10322
*SPRING, ELSET=WK_96

1.957893e+00
*ELEMENT, TYPE=SPRINGA, ELSET=WK_97
    9602,     7779,    10323
*SPRING, ELSET=WK_97

1.957893e+00
*ELEMENT, TYPE=SPRINGA, ELSET=WK_98
    9603,     7781,    10324
*SPRING, ELSET=WK_98

1.957893e+00
*ELEMENT, TYPE=SPRINGA, ELSET=WK_99
    9604,     7783,    10325
*SPRING, ELSET=WK_99

9.789465e-01
*ELEMENT, TYPE=SPRINGA, ELSET=WK_100
    9605,     7787,    10326
*SPRING, ELSET=WK_100

9.789465e-01
*ELEMENT, TYPE=SPRINGA, ELSET=WK_101
    9606,     7789,    10327
*SPRING, ELSET=WK_101

1.957893e+00
*ELEMENT, TYPE=SPRINGA, ELSET=WK_102
    9607,     7791,    10328
*SPRING, ELSET=WK_102

1.957893e+00
*ELEMENT, TYPE=SPRINGA, ELSET=WK_103
    9608,     7793,    10329
*SPRING, ELSET=WK_103

1.957893e+00
*ELEMENT, TYPE=SPRINGA, ELSET=WK_104
    9609,     7795,    10330
*SPRING, ELSET=WK_104

1.957893e+00
*ELEMENT, TYPE=SPRINGA, ELSET=WK_105
    9610,     7797,    10331
*SPRING, ELSET=WK_105

9.789465e-01
*ELEMENT, TYPE=SPRINGA, ELSET=WK_106
    9611,     7801,    10332
*SPRING, ELSET=WK_106

9.789465e-01
*ELEMENT, TYPE=SPRINGA, ELSET=WK_107
    9612,     7803,    10333
*SPRING, ELSET=WK_107

1.957893e+00
*ELEMENT, TYPE=SPRINGA, ELSET=WK_108
    9613,     7805,    10334
*SPRING, ELSET=WK_108

1.957893e+00
*ELEMENT, TYPE=SPRINGA, ELSET=WK_109
    9614,     7807,    10335
*SPRING, ELSET=WK_109

1.957893e+00
*ELEMENT, TYPE=SPRINGA, ELSET=WK_110
    9615,     7809,    10336
*SPRING, ELSET=WK_110

1.957893e+00
*ELEMENT, TYPE=SPRINGA, ELSET=WK_111
    9616,     7811,    10337
*SPRING, ELSET=WK_111

9.789465e-01
*ELEMENT, TYPE=SPRINGA, ELSET=WK_112
    9617,     7815,    10338
*SPRING, ELSET=WK_112

9.789465e-01
*ELEMENT, TYPE=SPRINGA, ELSET=WK_113
    9618,     7817,    10339
*SPRING, ELSET=WK_113

1.957893e+00
*ELEMENT, TYPE=SPRINGA, ELSET=WK_114
    9619,     7819,    10340
*SPRING, ELSET=WK_114

1.957893e+00
*ELEMENT, TYPE=SPRINGA, ELSET=WK_115
    9620,     7821,    10341
*SPRING, ELSET=WK_115

1.957893e+00
*ELEMENT, TYPE=SPRINGA, ELSET=WK_116
    9621,     7823,    10342
*SPRING, ELSET=WK_116

1.957893e+00
*ELEMENT, TYPE=SPRINGA, ELSET=WK_117
    9622,     7825,    10343
*SPRING, ELSET=WK_117

9.789465e-01
*ELEMENT, TYPE=SPRINGA, ELSET=WK_118
    9623,     7829,    10344
*SPRING, ELSET=WK_118

9.789465e-01
*ELEMENT, TYPE=SPRINGA, ELSET=WK_119
    9624,     7831,    10345
*SPRING, ELSET=WK_119

1.957893e+00
*ELEMENT, TYPE=SPRINGA, ELSET=WK_120
    9625,     7833,    10346
*SPRING, ELSET=WK_120

1.957893e+00
*ELEMENT, TYPE=SPRINGA, ELSET=WK_121
    9626,     7835,    10347
*SPRING, ELSET=WK_121

1.957893e+00
*ELEMENT, TYPE=SPRINGA, ELSET=WK_122
    9627,     7837,    10348
*SPRING, ELSET=WK_122

1.957893e+00
*ELEMENT, TYPE=SPRINGA, ELSET=WK_123
    9628,     7839,    10349
*SPRING, ELSET=WK_123

1.468420e+00
*ELEMENT, TYPE=SPRINGA, ELSET=WK_124
    9629,     7841,    10350
*SPRING, ELSET=WK_124

9.789465e-01
*ELEMENT, TYPE=SPRINGA, ELSET=WK_125
    9630,     7843,    10351
*SPRING, ELSET=WK_125

1.468420e+00
*ELEMENT, TYPE=SPRINGA, ELSET=WK_126
    9631,     7845,    10352
*SPRING, ELSET=WK_126

1.957893e+00
*ELEMENT, TYPE=SPRINGA, ELSET=WK_127
    9632,     7847,    10353
*SPRING, ELSET=WK_127

1.957893e+00
*ELEMENT, TYPE=SPRINGA, ELSET=WK_128
    9633,     7849,    10354
*SPRING, ELSET=WK_128

1.957893e+00
*ELEMENT, TYPE=SPRINGA, ELSET=WK_129
    9634,     7851,    10355
*SPRING, ELSET=WK_129

1.957893e+00
*ELEMENT, TYPE=SPRINGA, ELSET=WK_130
    9635,     7853,    10356
*SPRING, ELSET=WK_130

1.957893e+00
*ELEMENT, TYPE=SPRINGA, ELSET=WK_131
    9636,     7855,    10357
*SPRING, ELSET=WK_131

1.957893e+00
*ELEMENT, TYPE=SPRINGA, ELSET=WK_132
    9637,     7857,    10358
*SPRING, ELSET=WK_132

1.957893e+00
*ELEMENT, TYPE=SPRINGA, ELSET=WK_133
    9638,     7859,    10359
*SPRING, ELSET=WK_133

1.957893e+00
*ELEMENT, TYPE=SPRINGA, ELSET=WK_134
    9639,     7861,    10360
*SPRING, ELSET=WK_134

1.957893e+00
*ELEMENT, TYPE=SPRINGA, ELSET=WK_135
    9640,     7863,    10361
*SPRING, ELSET=WK_135

9.789465e-01
*ELEMENT, TYPE=SPRINGA, ELSET=WK_136
    9641,     7865,    10362
*SPRING, ELSET=WK_136

9.789465e-01
*ELEMENT, TYPE=SPRINGA, ELSET=WK_137
    9642,     7867,    10363
*SPRING, ELSET=WK_137

9.789465e-01
*ELEMENT, TYPE=SPRINGA, ELSET=WK_138
    9643,     7869,    10364
*SPRING, ELSET=WK_138

9.789465e-01
*ELEMENT, TYPE=SPRINGA, ELSET=WK_139
    9644,     7871,    10365
*SPRING, ELSET=WK_139

9.789465e-01
*ELEMENT, TYPE=SPRINGA, ELSET=WK_140
    9645,     7873,    10366
*SPRING, ELSET=WK_140

9.789465e-01
*ELEMENT, TYPE=SPRINGA, ELSET=WK_141
    9646,     7875,    10367
*SPRING, ELSET=WK_141

9.789465e-01
*ELEMENT, TYPE=SPRINGA, ELSET=WK_142
    9647,     7877,    10368
*SPRING, ELSET=WK_142

9.789465e-01
*ELEMENT, TYPE=SPRINGA, ELSET=WK_143
    9648,     7879,    10369
*SPRING, ELSET=WK_143

9.789465e-01
*ELEMENT, TYPE=SPRINGA, ELSET=WK_144
    9649,     7881,    10370
*SPRING, ELSET=WK_144

9.789465e-01
*ELEMENT, TYPE=SPRINGA, ELSET=WK_145
    9650,     7883,    10371
*SPRING, ELSET=WK_145

9.789465e-01
*ELEMENT, TYPE=SPRINGA, ELSET=WK_146
    9651,     7885,    10372
*SPRING, ELSET=WK_146

9.789465e-01
*ELEMENT, TYPE=SPRINGA, ELSET=WK_147
    9652,     7887,    10373
*SPRING, ELSET=WK_147

9.789465e-01
*ELEMENT, TYPE=SPRINGA, ELSET=WK_148
    9653,     7889,    10374
*SPRING, ELSET=WK_148

1.957893e+00
*ELEMENT, TYPE=SPRINGA, ELSET=WK_149
    9654,     7891,    10375
*SPRING, ELSET=WK_149

1.957893e+00
*ELEMENT, TYPE=SPRINGA, ELSET=WK_150
    9655,     7893,    10376
*SPRING, ELSET=WK_150

1.957893e+00
*ELEMENT, TYPE=SPRINGA, ELSET=WK_151
    9656,     7895,    10377
*SPRING, ELSET=WK_151

1.957893e+00
*ELEMENT, TYPE=SPRINGA, ELSET=WK_152
    9657,     7897,    10378
*SPRING, ELSET=WK_152

1.957893e+00
*ELEMENT, TYPE=SPRINGA, ELSET=WK_153
    9658,     7899,    10379
*SPRING, ELSET=WK_153

1.957893e+00
*ELEMENT, TYPE=SPRINGA, ELSET=WK_154
    9659,     7901,    10380
*SPRING, ELSET=WK_154

1.957893e+00
*ELEMENT, TYPE=SPRINGA, ELSET=WK_155
    9660,     7903,    10381
*SPRING, ELSET=WK_155

1.957893e+00
*ELEMENT, TYPE=SPRINGA, ELSET=WK_156
    9661,     7905,    10382
*SPRING, ELSET=WK_156

1.957893e+00
*ELEMENT, TYPE=SPRINGA, ELSET=WK_157
    9662,     7907,    10383
*SPRING, ELSET=WK_157

1.957893e+00
*ELEMENT, TYPE=SPRINGA, ELSET=WK_158
    9663,     7909,    10384
*SPRING, ELSET=WK_158

1.957893e+00
*ELEMENT, TYPE=SPRINGA, ELSET=WK_159
    9664,     7911,    10385
*SPRING, ELSET=WK_159

1.957893e+00
*ELEMENT, TYPE=SPRINGA, ELSET=WK_160
    9665,     7913,    10386
*SPRING, ELSET=WK_160

1.957893e+00
*ELEMENT, TYPE=SPRINGA, ELSET=WK_161
    9666,     7915,    10387
*SPRING, ELSET=WK_161

1.957893e+00
*ELEMENT, TYPE=SPRINGA, ELSET=WK_162
    9667,     7917,    10388
*SPRING, ELSET=WK_162

1.957893e+00
*ELEMENT, TYPE=SPRINGA, ELSET=WK_163
    9668,     7919,    10389
*SPRING, ELSET=WK_163

1.957893e+00
*ELEMENT, TYPE=SPRINGA, ELSET=WK_164
    9669,     7921,    10390
*SPRING, ELSET=WK_164

1.957893e+00
*ELEMENT, TYPE=SPRINGA, ELSET=WK_165
    9670,     7923,    10391
*SPRING, ELSET=WK_165

1.957893e+00
*ELEMENT, TYPE=SPRINGA, ELSET=WK_166
    9671,     7925,    10392
*SPRING, ELSET=WK_166

1.957893e+00
*ELEMENT, TYPE=SPRINGA, ELSET=WK_167
    9672,     7927,    10393
*SPRING, ELSET=WK_167

1.957893e+00
*ELEMENT, TYPE=SPRINGA, ELSET=WK_168
    9673,     7929,    10394
*SPRING, ELSET=WK_168

1.957893e+00
*ELEMENT, TYPE=SPRINGA, ELSET=WK_169
    9674,     7931,    10395
*SPRING, ELSET=WK_169

1.957893e+00
*ELEMENT, TYPE=SPRINGA, ELSET=WK_170
    9675,     7933,    10396
*SPRING, ELSET=WK_170

1.957893e+00
*ELEMENT, TYPE=SPRINGA, ELSET=WK_171
    9676,     7935,    10397
*SPRING, ELSET=WK_171

1.957893e+00
*ELEMENT, TYPE=SPRINGA, ELSET=WK_172
    9677,     7937,    10398
*SPRING, ELSET=WK_172

1.957893e+00
*ELEMENT, TYPE=SPRINGA, ELSET=WK_173
    9678,     7939,    10399
*SPRING, ELSET=WK_173

1.957893e+00
*ELEMENT, TYPE=SPRINGA, ELSET=WK_174
    9679,     7941,    10400
*SPRING, ELSET=WK_174

1.957893e+00
*ELEMENT, TYPE=SPRINGA, ELSET=WK_175
    9680,     7943,    10401
*SPRING, ELSET=WK_175

1.957893e+00
*ELEMENT, TYPE=SPRINGA, ELSET=WK_176
    9681,     7945,    10402
*SPRING, ELSET=WK_176

1.957893e+00
*ELEMENT, TYPE=SPRINGA, ELSET=WK_177
    9682,     7947,    10403
*SPRING, ELSET=WK_177

1.957893e+00
*ELEMENT, TYPE=SPRINGA, ELSET=WK_178
    9683,     7949,    10404
*SPRING, ELSET=WK_178

1.957893e+00
*ELEMENT, TYPE=SPRINGA, ELSET=WK_179
    9684,     7951,    10405
*SPRING, ELSET=WK_179

1.957893e+00
*ELEMENT, TYPE=SPRINGA, ELSET=WK_180
    9685,     7953,    10406
*SPRING, ELSET=WK_180

1.957893e+00
*ELEMENT, TYPE=SPRINGA, ELSET=WK_181
    9686,     7955,    10407
*SPRING, ELSET=WK_181

1.957893e+00
*ELEMENT, TYPE=SPRINGA, ELSET=WK_182
    9687,     7957,    10408
*SPRING, ELSET=WK_182

1.957893e+00
*ELEMENT, TYPE=SPRINGA, ELSET=WK_183
    9688,     7959,    10409
*SPRING, ELSET=WK_183

1.957893e+00
*ELEMENT, TYPE=SPRINGA, ELSET=WK_184
    9689,     7961,    10410
*SPRING, ELSET=WK_184

1.957893e+00
*ELEMENT, TYPE=SPRINGA, ELSET=WK_185
    9690,     7963,    10411
*SPRING, ELSET=WK_185

1.957893e+00
*ELEMENT, TYPE=SPRINGA, ELSET=WK_186
    9691,     7965,    10412
*SPRING, ELSET=WK_186

1.957893e+00
*ELEMENT, TYPE=SPRINGA, ELSET=WK_187
    9692,     7967,    10413
*SPRING, ELSET=WK_187

1.957893e+00
*ELEMENT, TYPE=SPRINGA, ELSET=WK_188
    9693,     7969,    10414
*SPRING, ELSET=WK_188

1.957893e+00
*ELEMENT, TYPE=SPRINGA, ELSET=WK_189
    9694,     7971,    10415
*SPRING, ELSET=WK_189

1.957893e+00
*ELEMENT, TYPE=SPRINGA, ELSET=WK_190
    9695,     7973,    10416
*SPRING, ELSET=WK_190

1.957893e+00
*ELEMENT, TYPE=SPRINGA, ELSET=WK_191
    9696,     7975,    10417
*SPRING, ELSET=WK_191

1.957893e+00
*ELEMENT, TYPE=SPRINGA, ELSET=WK_192
    9697,     7977,    10418
*SPRING, ELSET=WK_192

1.957893e+00
*ELEMENT, TYPE=SPRINGA, ELSET=WK_193
    9698,     7979,    10419
*SPRING, ELSET=WK_193

1.957893e+00
*ELEMENT, TYPE=SPRINGA, ELSET=WK_194
    9699,     7981,    10420
*SPRING, ELSET=WK_194

1.957893e+00
*ELEMENT, TYPE=SPRINGA, ELSET=WK_195
    9700,     7983,    10421
*SPRING, ELSET=WK_195

1.957893e+00
*ELEMENT, TYPE=SPRINGA, ELSET=WK_196
    9701,     7985,    10422
*SPRING, ELSET=WK_196

1.957893e+00
*ELEMENT, TYPE=SPRINGA, ELSET=WK_197
    9702,     7987,    10423
*SPRING, ELSET=WK_197

1.957893e+00
*ELEMENT, TYPE=SPRINGA, ELSET=WK_198
    9703,     7989,    10424
*SPRING, ELSET=WK_198

1.957893e+00
*ELEMENT, TYPE=SPRINGA, ELSET=WK_199
    9704,     7991,    10425
*SPRING, ELSET=WK_199

1.957893e+00
*ELEMENT, TYPE=SPRINGA, ELSET=WK_200
    9705,     7993,    10426
*SPRING, ELSET=WK_200

1.957893e+00
*ELEMENT, TYPE=SPRINGA, ELSET=WK_201
    9706,     7995,    10427
*SPRING, ELSET=WK_201

1.957893e+00
*ELEMENT, TYPE=SPRINGA, ELSET=WK_202
    9707,     7997,    10428
*SPRING, ELSET=WK_202

1.957893e+00
*ELEMENT, TYPE=SPRINGA, ELSET=WK_203
    9708,     7999,    10429
*SPRING, ELSET=WK_203

1.957893e+00
*ELEMENT, TYPE=SPRINGA, ELSET=WK_204
    9709,     8001,    10430
*SPRING, ELSET=WK_204

1.957893e+00
*ELEMENT, TYPE=SPRINGA, ELSET=WK_205
    9710,     8003,    10431
*SPRING, ELSET=WK_205

1.957893e+00
*ELEMENT, TYPE=SPRINGA, ELSET=WK_206
    9711,     8005,    10432
*SPRING, ELSET=WK_206

1.957893e+00
*ELEMENT, TYPE=SPRINGA, ELSET=WK_207
    9712,     8007,    10433
*SPRING, ELSET=WK_207

1.957893e+00
*ELEMENT, TYPE=SPRINGA, ELSET=WK_208
    9713,     8009,    10434
*SPRING, ELSET=WK_208

1.957893e+00
*ELEMENT, TYPE=SPRINGA, ELSET=WK_209
    9714,     8011,    10435
*SPRING, ELSET=WK_209

1.957893e+00
*ELEMENT, TYPE=SPRINGA, ELSET=WK_210
    9715,     8013,    10436
*SPRING, ELSET=WK_210

1.957893e+00
*ELEMENT, TYPE=SPRINGA, ELSET=WK_211
    9716,     8015,    10437
*SPRING, ELSET=WK_211

1.957893e+00
*ELEMENT, TYPE=SPRINGA, ELSET=WK_212
    9717,     8017,    10438
*SPRING, ELSET=WK_212

1.957893e+00
*ELEMENT, TYPE=SPRINGA, ELSET=WK_213
    9718,     8019,    10439
*SPRING, ELSET=WK_213

1.957893e+00
*ELEMENT, TYPE=SPRINGA, ELSET=WK_214
    9719,     8021,    10440
*SPRING, ELSET=WK_214

1.957893e+00
*ELEMENT, TYPE=SPRINGA, ELSET=WK_215
    9720,     8023,    10441
*SPRING, ELSET=WK_215

1.957893e+00
*ELEMENT, TYPE=SPRINGA, ELSET=WK_216
    9721,     8025,    10442
*SPRING, ELSET=WK_216

1.957893e+00
*ELEMENT, TYPE=SPRINGA, ELSET=WK_217
    9722,     8027,    10443
*SPRING, ELSET=WK_217

1.957893e+00
*ELEMENT, TYPE=SPRINGA, ELSET=WK_218
    9723,     8029,    10444
*SPRING, ELSET=WK_218

1.957893e+00
*ELEMENT, TYPE=SPRINGA, ELSET=WK_219
    9724,     8031,    10445
*SPRING, ELSET=WK_219

1.957893e+00
*ELEMENT, TYPE=SPRINGA, ELSET=WK_220
    9725,     8033,    10446
*SPRING, ELSET=WK_220

1.957893e+00
*ELEMENT, TYPE=SPRINGA, ELSET=WK_221
    9726,     8035,    10447
*SPRING, ELSET=WK_221

1.957893e+00
*ELEMENT, TYPE=SPRINGA, ELSET=WK_222
    9727,     8037,    10448
*SPRING, ELSET=WK_222

1.957893e+00
*ELEMENT, TYPE=SPRINGA, ELSET=WK_223
    9728,     8039,    10449
*SPRING, ELSET=WK_223

1.957893e+00
*ELEMENT, TYPE=SPRINGA, ELSET=WK_224
    9729,     8041,    10450
*SPRING, ELSET=WK_224

1.957893e+00
*ELEMENT, TYPE=SPRINGA, ELSET=WK_225
    9730,     8043,    10451
*SPRING, ELSET=WK_225

1.957893e+00
*ELEMENT, TYPE=SPRINGA, ELSET=WK_226
    9731,     8045,    10452
*SPRING, ELSET=WK_226

1.957893e+00
*ELEMENT, TYPE=SPRINGA, ELSET=WK_227
    9732,     8047,    10453
*SPRING, ELSET=WK_227

1.957893e+00
*ELEMENT, TYPE=SPRINGA, ELSET=WK_228
    9733,     8049,    10454
*SPRING, ELSET=WK_228

1.957893e+00
*ELEMENT, TYPE=SPRINGA, ELSET=WK_229
    9734,     8051,    10455
*SPRING, ELSET=WK_229

1.957893e+00
*ELEMENT, TYPE=SPRINGA, ELSET=WK_230
    9735,     8053,    10456
*SPRING, ELSET=WK_230

1.957893e+00
*ELEMENT, TYPE=SPRINGA, ELSET=WK_231
    9736,     8055,    10457
*SPRING, ELSET=WK_231

1.957893e+00
*ELEMENT, TYPE=SPRINGA, ELSET=WK_232
    9737,     8057,    10458
*SPRING, ELSET=WK_232

1.957893e+00
*ELEMENT, TYPE=SPRINGA, ELSET=WK_233
    9738,     8059,    10459
*SPRING, ELSET=WK_233

1.957893e+00
*ELEMENT, TYPE=SPRINGA, ELSET=WK_234
    9739,     8061,    10460
*SPRING, ELSET=WK_234

1.957893e+00
*ELEMENT, TYPE=SPRINGA, ELSET=WK_235
    9740,     8063,    10461
*SPRING, ELSET=WK_235

1.957893e+00
*ELEMENT, TYPE=SPRINGA, ELSET=WK_236
    9741,     8065,    10462
*SPRING, ELSET=WK_236

1.957893e+00
*ELEMENT, TYPE=SPRINGA, ELSET=WK_237
    9742,     8067,    10463
*SPRING, ELSET=WK_237

1.957893e+00
*ELEMENT, TYPE=SPRINGA, ELSET=WK_238
    9743,     8069,    10464
*SPRING, ELSET=WK_238

1.957893e+00
*ELEMENT, TYPE=SPRINGA, ELSET=WK_239
    9744,     8071,    10465
*SPRING, ELSET=WK_239

1.957893e+00
*ELEMENT, TYPE=SPRINGA, ELSET=WK_240
    9745,     8073,    10466
*SPRING, ELSET=WK_240

1.957893e+00
*ELEMENT, TYPE=SPRINGA, ELSET=WK_241
    9746,     8075,    10467
*SPRING, ELSET=WK_241

1.957893e+00
*ELEMENT, TYPE=SPRINGA, ELSET=WK_242
    9747,     8077,    10468
*SPRING, ELSET=WK_242

1.957893e+00
*ELEMENT, TYPE=SPRINGA, ELSET=WK_243
    9748,     8079,    10469
*SPRING, ELSET=WK_243

1.957893e+00
*ELEMENT, TYPE=SPRINGA, ELSET=WK_244
    9749,     8081,    10470
*SPRING, ELSET=WK_244

1.957893e+00
*ELEMENT, TYPE=SPRINGA, ELSET=WK_245
    9750,     8083,    10471
*SPRING, ELSET=WK_245

1.957893e+00
*ELEMENT, TYPE=SPRINGA, ELSET=WK_246
    9751,     8085,    10472
*SPRING, ELSET=WK_246

1.957893e+00
*ELEMENT, TYPE=SPRINGA, ELSET=WK_247
    9752,     8087,    10473
*SPRING, ELSET=WK_247

1.957893e+00
*ELEMENT, TYPE=SPRINGA, ELSET=WK_248
    9753,     8089,    10474
*SPRING, ELSET=WK_248

1.957893e+00
*ELEMENT, TYPE=SPRINGA, ELSET=WK_249
    9754,     8091,    10475
*SPRING, ELSET=WK_249

1.957893e+00
*ELEMENT, TYPE=SPRINGA, ELSET=WK_250
    9755,     8093,    10476
*SPRING, ELSET=WK_250

1.957893e+00
*ELEMENT, TYPE=SPRINGA, ELSET=WK_251
    9756,     8095,    10477
*SPRING, ELSET=WK_251

1.957893e+00
*ELEMENT, TYPE=SPRINGA, ELSET=WK_252
    9757,     8097,    10478
*SPRING, ELSET=WK_252

1.957893e+00
*ELEMENT, TYPE=SPRINGA, ELSET=WK_253
    9758,     8099,    10479
*SPRING, ELSET=WK_253

1.957893e+00
*ELEMENT, TYPE=SPRINGA, ELSET=WK_254
    9759,     8101,    10480
*SPRING, ELSET=WK_254

1.957893e+00
*ELEMENT, TYPE=SPRINGA, ELSET=WK_255
    9760,     8103,    10481
*SPRING, ELSET=WK_255

1.957893e+00
*ELEMENT, TYPE=SPRINGA, ELSET=WK_256
    9761,     8105,    10482
*SPRING, ELSET=WK_256

1.957893e+00
*ELEMENT, TYPE=SPRINGA, ELSET=WK_257
    9762,     8107,    10483
*SPRING, ELSET=WK_257

1.957893e+00
*ELEMENT, TYPE=SPRINGA, ELSET=WK_258
    9763,     8109,    10484
*SPRING, ELSET=WK_258

1.957893e+00
*ELEMENT, TYPE=SPRINGA, ELSET=WK_259
    9764,     8111,    10485
*SPRING, ELSET=WK_259

1.957893e+00
*ELEMENT, TYPE=SPRINGA, ELSET=WK_260
    9765,     8113,    10486
*SPRING, ELSET=WK_260

1.957893e+00
*ELEMENT, TYPE=SPRINGA, ELSET=WK_261
    9766,     8115,    10487
*SPRING, ELSET=WK_261

1.957893e+00
*ELEMENT, TYPE=SPRINGA, ELSET=WK_262
    9767,     8117,    10488
*SPRING, ELSET=WK_262

9.789465e-01
*ELEMENT, TYPE=SPRINGA, ELSET=WK_263
    9768,     8119,    10489
*SPRING, ELSET=WK_263

9.789465e-01
*ELEMENT, TYPE=SPRINGA, ELSET=WK_264
    9769,     8121,    10490
*SPRING, ELSET=WK_264

9.789465e-01
*ELEMENT, TYPE=SPRINGA, ELSET=WK_265
    9770,     8123,    10491
*SPRING, ELSET=WK_265

9.789465e-01
*ELEMENT, TYPE=SPRINGA, ELSET=WK_266
    9771,     8125,    10492
*SPRING, ELSET=WK_266

9.789465e-01
*ELEMENT, TYPE=SPRINGA, ELSET=WK_267
    9772,     8127,    10493
*SPRING, ELSET=WK_267

9.789465e-01
*ELEMENT, TYPE=SPRINGA, ELSET=WK_268
    9773,     8129,    10494
*SPRING, ELSET=WK_268

9.789465e-01
*ELEMENT, TYPE=SPRINGA, ELSET=WK_269
    9774,     8131,    10495
*SPRING, ELSET=WK_269

9.789465e-01
*ELEMENT, TYPE=SPRINGA, ELSET=WK_270
    9775,     8133,    10496
*SPRING, ELSET=WK_270

9.789465e-01
*ELEMENT, TYPE=SPRINGA, ELSET=WK_271
    9776,     8135,    10497
*SPRING, ELSET=WK_271

9.789465e-01
*ELEMENT, TYPE=SPRINGA, ELSET=WK_272
    9777,     8137,    10498
*SPRING, ELSET=WK_272

9.789465e-01
*ELEMENT, TYPE=SPRINGA, ELSET=WK_273
    9778,     8139,    10499
*SPRING, ELSET=WK_273

9.789465e-01
*ELEMENT, TYPE=SPRINGA, ELSET=WK_274
    9779,     8141,    10500
*SPRING, ELSET=WK_274

1.957893e+00
*ELEMENT, TYPE=SPRINGA, ELSET=WK_275
    9780,     8143,    10501
*SPRING, ELSET=WK_275

1.957893e+00
*ELEMENT, TYPE=SPRINGA, ELSET=WK_276
    9781,     8145,    10502
*SPRING, ELSET=WK_276

1.957893e+00
*ELEMENT, TYPE=SPRINGA, ELSET=WK_277
    9782,     8147,    10503
*SPRING, ELSET=WK_277

1.957893e+00
*ELEMENT, TYPE=SPRINGA, ELSET=WK_278
    9783,     8149,    10504
*SPRING, ELSET=WK_278

1.957893e+00
*ELEMENT, TYPE=SPRINGA, ELSET=WK_279
    9784,     8151,    10505
*SPRING, ELSET=WK_279

1.957893e+00
*ELEMENT, TYPE=SPRINGA, ELSET=WK_280
    9785,     8153,    10506
*SPRING, ELSET=WK_280

1.957893e+00
*ELEMENT, TYPE=SPRINGA, ELSET=WK_281
    9786,     8155,    10507
*SPRING, ELSET=WK_281

1.957893e+00
*ELEMENT, TYPE=SPRINGA, ELSET=WK_282
    9787,     8157,    10508
*SPRING, ELSET=WK_282

1.957893e+00
*ELEMENT, TYPE=SPRINGA, ELSET=WK_283
    9788,     8159,    10509
*SPRING, ELSET=WK_283

1.957893e+00
*ELEMENT, TYPE=SPRINGA, ELSET=WK_284
    9789,     8161,    10510
*SPRING, ELSET=WK_284

1.957893e+00
*ELEMENT, TYPE=SPRINGA, ELSET=WK_285
    9790,     8163,    10511
*SPRING, ELSET=WK_285

1.957893e+00
*ELEMENT, TYPE=SPRINGA, ELSET=WK_286
    9791,     8165,    10512
*SPRING, ELSET=WK_286

1.957893e+00
*ELEMENT, TYPE=SPRINGA, ELSET=WK_287
    9792,     8167,    10513
*SPRING, ELSET=WK_287

1.957893e+00
*ELEMENT, TYPE=SPRINGA, ELSET=WK_288
    9793,     8169,    10514
*SPRING, ELSET=WK_288

1.957893e+00
*ELEMENT, TYPE=SPRINGA, ELSET=WK_289
    9794,     8171,    10515
*SPRING, ELSET=WK_289

1.957893e+00
*ELEMENT, TYPE=SPRINGA, ELSET=WK_290
    9795,     8173,    10516
*SPRING, ELSET=WK_290

1.957893e+00
*ELEMENT, TYPE=SPRINGA, ELSET=WK_291
    9796,     8175,    10517
*SPRING, ELSET=WK_291

1.957893e+00
*ELEMENT, TYPE=SPRINGA, ELSET=WK_292
    9797,     8177,    10518
*SPRING, ELSET=WK_292

1.957893e+00
*ELEMENT, TYPE=SPRINGA, ELSET=WK_293
    9798,     8179,    10519
*SPRING, ELSET=WK_293

1.957893e+00
*ELEMENT, TYPE=SPRINGA, ELSET=WK_294
    9799,     8181,    10520
*SPRING, ELSET=WK_294

1.957893e+00
*ELEMENT, TYPE=SPRINGA, ELSET=WK_295
    9800,     8183,    10521
*SPRING, ELSET=WK_295

1.957893e+00
*ELEMENT, TYPE=SPRINGA, ELSET=WK_296
    9801,     8185,    10522
*SPRING, ELSET=WK_296

1.957893e+00
*ELEMENT, TYPE=SPRINGA, ELSET=WK_297
    9802,     8187,    10523
*SPRING, ELSET=WK_297

1.957893e+00
*ELEMENT, TYPE=SPRINGA, ELSET=WK_298
    9803,     8189,    10524
*SPRING, ELSET=WK_298

1.957893e+00
*ELEMENT, TYPE=SPRINGA, ELSET=WK_299
    9804,     8191,    10525
*SPRING, ELSET=WK_299

1.957893e+00
*ELEMENT, TYPE=SPRINGA, ELSET=WK_300
    9805,     8193,    10526
*SPRING, ELSET=WK_300

1.957893e+00
*ELEMENT, TYPE=SPRINGA, ELSET=WK_301
    9806,     8195,    10527
*SPRING, ELSET=WK_301

1.957893e+00
*ELEMENT, TYPE=SPRINGA, ELSET=WK_302
    9807,     8197,    10528
*SPRING, ELSET=WK_302

1.957893e+00
*ELEMENT, TYPE=SPRINGA, ELSET=WK_303
    9808,     8199,    10529
*SPRING, ELSET=WK_303

1.957893e+00
*ELEMENT, TYPE=SPRINGA, ELSET=WK_304
    9809,     8201,    10530
*SPRING, ELSET=WK_304

1.957893e+00
*ELEMENT, TYPE=SPRINGA, ELSET=WK_305
    9810,     8203,    10531
*SPRING, ELSET=WK_305

1.957893e+00
*ELEMENT, TYPE=SPRINGA, ELSET=WK_306
    9811,     8205,    10532
*SPRING, ELSET=WK_306

1.957893e+00
*ELEMENT, TYPE=SPRINGA, ELSET=WK_307
    9812,     8207,    10533
*SPRING, ELSET=WK_307

1.957893e+00
*ELEMENT, TYPE=SPRINGA, ELSET=WK_308
    9813,     8209,    10534
*SPRING, ELSET=WK_308

1.957893e+00
*ELEMENT, TYPE=SPRINGA, ELSET=WK_309
    9814,     8211,    10535
*SPRING, ELSET=WK_309

1.957893e+00
*ELEMENT, TYPE=SPRINGA, ELSET=WK_310
    9815,     8213,    10536
*SPRING, ELSET=WK_310

1.957893e+00
*ELEMENT, TYPE=SPRINGA, ELSET=WK_311
    9816,     8215,    10537
*SPRING, ELSET=WK_311

1.957893e+00
*ELEMENT, TYPE=SPRINGA, ELSET=WK_312
    9817,     8217,    10538
*SPRING, ELSET=WK_312

1.957893e+00
*ELEMENT, TYPE=SPRINGA, ELSET=WK_313
    9818,     8219,    10539
*SPRING, ELSET=WK_313

1.957893e+00
*ELEMENT, TYPE=SPRINGA, ELSET=WK_314
    9819,     8221,    10540
*SPRING, ELSET=WK_314

1.957893e+00
*ELEMENT, TYPE=SPRINGA, ELSET=WK_315
    9820,     8223,    10541
*SPRING, ELSET=WK_315

1.957893e+00
*ELEMENT, TYPE=SPRINGA, ELSET=WK_316
    9821,     8225,    10542
*SPRING, ELSET=WK_316

1.957893e+00
*ELEMENT, TYPE=SPRINGA, ELSET=WK_317
    9822,     8227,    10543
*SPRING, ELSET=WK_317

1.957893e+00
*ELEMENT, TYPE=SPRINGA, ELSET=WK_318
    9823,     8229,    10544
*SPRING, ELSET=WK_318

1.957893e+00
*ELEMENT, TYPE=SPRINGA, ELSET=WK_319
    9824,     8231,    10545
*SPRING, ELSET=WK_319

1.957893e+00
*ELEMENT, TYPE=SPRINGA, ELSET=WK_320
    9825,     8233,    10546
*SPRING, ELSET=WK_320

1.957893e+00
*ELEMENT, TYPE=SPRINGA, ELSET=WK_321
    9826,     8235,    10547
*SPRING, ELSET=WK_321

1.957893e+00
*ELEMENT, TYPE=SPRINGA, ELSET=WK_322
    9827,     8237,    10548
*SPRING, ELSET=WK_322

1.957893e+00
*ELEMENT, TYPE=SPRINGA, ELSET=WK_323
    9828,     8239,    10549
*SPRING, ELSET=WK_323

1.957893e+00
*ELEMENT, TYPE=SPRINGA, ELSET=WK_324
    9829,     8241,    10550
*SPRING, ELSET=WK_324

1.957893e+00
*ELEMENT, TYPE=SPRINGA, ELSET=WK_325
    9830,     8243,    10551
*SPRING, ELSET=WK_325

1.957893e+00
*ELEMENT, TYPE=SPRINGA, ELSET=WK_326
    9831,     8245,    10552
*SPRING, ELSET=WK_326

1.957893e+00
*ELEMENT, TYPE=SPRINGA, ELSET=WK_327
    9832,     8247,    10553
*SPRING, ELSET=WK_327

1.957893e+00
*ELEMENT, TYPE=SPRINGA, ELSET=WK_328
    9833,     8249,    10554
*SPRING, ELSET=WK_328

1.957893e+00
*ELEMENT, TYPE=SPRINGA, ELSET=WK_329
    9834,     8251,    10555
*SPRING, ELSET=WK_329

1.957893e+00
*ELEMENT, TYPE=SPRINGA, ELSET=WK_330
    9835,     8253,    10556
*SPRING, ELSET=WK_330

1.957893e+00
*ELEMENT, TYPE=SPRINGA, ELSET=WK_331
    9836,     8255,    10557
*SPRING, ELSET=WK_331

1.957893e+00
*ELEMENT, TYPE=SPRINGA, ELSET=WK_332
    9837,     8257,    10558
*SPRING, ELSET=WK_332

1.957893e+00
*ELEMENT, TYPE=SPRINGA, ELSET=WK_333
    9838,     8259,    10559
*SPRING, ELSET=WK_333

1.957893e+00
*ELEMENT, TYPE=SPRINGA, ELSET=WK_334
    9839,     8261,    10560
*SPRING, ELSET=WK_334

1.957893e+00
*ELEMENT, TYPE=SPRINGA, ELSET=WK_335
    9840,     8263,    10561
*SPRING, ELSET=WK_335

1.957893e+00
*ELEMENT, TYPE=SPRINGA, ELSET=WK_336
    9841,     8265,    10562
*SPRING, ELSET=WK_336

1.957893e+00
*ELEMENT, TYPE=SPRINGA, ELSET=WK_337
    9842,     8267,    10563
*SPRING, ELSET=WK_337

1.957893e+00
*ELEMENT, TYPE=SPRINGA, ELSET=WK_338
    9843,     8269,    10564
*SPRING, ELSET=WK_338

1.957893e+00
*ELEMENT, TYPE=SPRINGA, ELSET=WK_339
    9844,     8271,    10565
*SPRING, ELSET=WK_339

1.957893e+00
*ELEMENT, TYPE=SPRINGA, ELSET=WK_340
    9845,     8273,    10566
*SPRING, ELSET=WK_340

1.957893e+00
*ELEMENT, TYPE=SPRINGA, ELSET=WK_341
    9846,     8275,    10567
*SPRING, ELSET=WK_341

1.957893e+00
*ELEMENT, TYPE=SPRINGA, ELSET=WK_342
    9847,     8277,    10568
*SPRING, ELSET=WK_342

1.957893e+00
*ELEMENT, TYPE=SPRINGA, ELSET=WK_343
    9848,     8279,    10569
*SPRING, ELSET=WK_343

1.957893e+00
*ELEMENT, TYPE=SPRINGA, ELSET=WK_344
    9849,     8281,    10570
*SPRING, ELSET=WK_344

1.957893e+00
*ELEMENT, TYPE=SPRINGA, ELSET=WK_345
    9850,     8283,    10571
*SPRING, ELSET=WK_345

1.957893e+00
*ELEMENT, TYPE=SPRINGA, ELSET=WK_346
    9851,     8285,    10572
*SPRING, ELSET=WK_346

1.957893e+00
*ELEMENT, TYPE=SPRINGA, ELSET=WK_347
    9852,     8287,    10573
*SPRING, ELSET=WK_347

1.957893e+00
*ELEMENT, TYPE=SPRINGA, ELSET=WK_348
    9853,     8289,    10574
*SPRING, ELSET=WK_348

1.957893e+00
*ELEMENT, TYPE=SPRINGA, ELSET=WK_349
    9854,     8291,    10575
*SPRING, ELSET=WK_349

1.957893e+00
*ELEMENT, TYPE=SPRINGA, ELSET=WK_350
    9855,     8293,    10576
*SPRING, ELSET=WK_350

1.957893e+00
*ELEMENT, TYPE=SPRINGA, ELSET=WK_351
    9856,     8295,    10577
*SPRING, ELSET=WK_351

1.957893e+00
*ELEMENT, TYPE=SPRINGA, ELSET=WK_352
    9857,     8297,    10578
*SPRING, ELSET=WK_352

1.957893e+00
*ELEMENT, TYPE=SPRINGA, ELSET=WK_353
    9858,     8299,    10579
*SPRING, ELSET=WK_353

1.957893e+00
*ELEMENT, TYPE=SPRINGA, ELSET=WK_354
    9859,     8301,    10580
*SPRING, ELSET=WK_354

1.957893e+00
*ELEMENT, TYPE=SPRINGA, ELSET=WK_355
    9860,     8303,    10581
*SPRING, ELSET=WK_355

1.957893e+00
*ELEMENT, TYPE=SPRINGA, ELSET=WK_356
    9861,     8305,    10582
*SPRING, ELSET=WK_356

1.957893e+00
*ELEMENT, TYPE=SPRINGA, ELSET=WK_357
    9862,     8307,    10583
*SPRING, ELSET=WK_357

1.957893e+00
*ELEMENT, TYPE=SPRINGA, ELSET=WK_358
    9863,     8309,    10584
*SPRING, ELSET=WK_358

1.957893e+00
*ELEMENT, TYPE=SPRINGA, ELSET=WK_359
    9864,     8311,    10585
*SPRING, ELSET=WK_359

1.957893e+00
*ELEMENT, TYPE=SPRINGA, ELSET=WK_360
    9865,     8313,    10586
*SPRING, ELSET=WK_360

1.957893e+00
*ELEMENT, TYPE=SPRINGA, ELSET=WK_361
    9866,     8315,    10587
*SPRING, ELSET=WK_361

1.957893e+00
*ELEMENT, TYPE=SPRINGA, ELSET=WK_362
    9867,     8317,    10588
*SPRING, ELSET=WK_362

1.957893e+00
*ELEMENT, TYPE=SPRINGA, ELSET=WK_363
    9868,     8319,    10589
*SPRING, ELSET=WK_363

1.957893e+00
*ELEMENT, TYPE=SPRINGA, ELSET=WK_364
    9869,     8321,    10590
*SPRING, ELSET=WK_364

1.957893e+00
*ELEMENT, TYPE=SPRINGA, ELSET=WK_365
    9870,     8323,    10591
*SPRING, ELSET=WK_365

1.957893e+00
*ELEMENT, TYPE=SPRINGA, ELSET=WK_366
    9871,     8325,    10592
*SPRING, ELSET=WK_366

1.957893e+00
*ELEMENT, TYPE=SPRINGA, ELSET=WK_367
    9872,     8327,    10593
*SPRING, ELSET=WK_367

1.957893e+00
*ELEMENT, TYPE=SPRINGA, ELSET=WK_368
    9873,     8329,    10594
*SPRING, ELSET=WK_368

1.957893e+00
*ELEMENT, TYPE=SPRINGA, ELSET=WK_369
    9874,     8331,    10595
*SPRING, ELSET=WK_369

1.957893e+00
*ELEMENT, TYPE=SPRINGA, ELSET=WK_370
    9875,     8333,    10596
*SPRING, ELSET=WK_370

1.957893e+00
*ELEMENT, TYPE=SPRINGA, ELSET=WK_371
    9876,     8335,    10597
*SPRING, ELSET=WK_371

1.957893e+00
*ELEMENT, TYPE=SPRINGA, ELSET=WK_372
    9877,     8337,    10598
*SPRING, ELSET=WK_372

1.957893e+00
*ELEMENT, TYPE=SPRINGA, ELSET=WK_373
    9878,     8339,    10599
*SPRING, ELSET=WK_373

1.957893e+00
*ELEMENT, TYPE=SPRINGA, ELSET=WK_374
    9879,     8341,    10600
*SPRING, ELSET=WK_374

1.957893e+00
*ELEMENT, TYPE=SPRINGA, ELSET=WK_375
    9880,     8343,    10601
*SPRING, ELSET=WK_375

1.957893e+00
*ELEMENT, TYPE=SPRINGA, ELSET=WK_376
    9881,     8345,    10602
*SPRING, ELSET=WK_376

1.957893e+00
*ELEMENT, TYPE=SPRINGA, ELSET=WK_377
    9882,     8347,    10603
*SPRING, ELSET=WK_377

1.957893e+00
*ELEMENT, TYPE=SPRINGA, ELSET=WK_378
    9883,     8349,    10604
*SPRING, ELSET=WK_378

1.957893e+00
*ELEMENT, TYPE=SPRINGA, ELSET=WK_379
    9884,     8351,    10605
*SPRING, ELSET=WK_379

1.957893e+00
*ELEMENT, TYPE=SPRINGA, ELSET=WK_380
    9885,     8353,    10606
*SPRING, ELSET=WK_380

1.957893e+00
*ELEMENT, TYPE=SPRINGA, ELSET=WK_381
    9886,     8355,    10607
*SPRING, ELSET=WK_381

1.957893e+00
*ELEMENT, TYPE=SPRINGA, ELSET=WK_382
    9887,     8357,    10608
*SPRING, ELSET=WK_382

1.957893e+00
*ELEMENT, TYPE=SPRINGA, ELSET=WK_383
    9888,     8359,    10609
*SPRING, ELSET=WK_383

1.957893e+00
*ELEMENT, TYPE=SPRINGA, ELSET=WK_384
    9889,     8361,    10610
*SPRING, ELSET=WK_384

1.957893e+00
*ELEMENT, TYPE=SPRINGA, ELSET=WK_385
    9890,     8363,    10611
*SPRING, ELSET=WK_385

1.957893e+00
*ELEMENT, TYPE=SPRINGA, ELSET=WK_386
    9891,     8365,    10612
*SPRING, ELSET=WK_386

1.957893e+00
*ELEMENT, TYPE=SPRINGA, ELSET=WK_387
    9892,     8367,    10613
*SPRING, ELSET=WK_387

1.957893e+00
*ELEMENT, TYPE=SPRINGA, ELSET=WK_388
    9893,     8369,    10614
*SPRING, ELSET=WK_388

9.789465e-01
*ELEMENT, TYPE=SPRINGA, ELSET=WK_389
    9894,     8371,    10615
*SPRING, ELSET=WK_389

9.789465e-01
*ELEMENT, TYPE=SPRINGA, ELSET=WK_390
    9895,     8373,    10616
*SPRING, ELSET=WK_390

9.789465e-01
*ELEMENT, TYPE=SPRINGA, ELSET=WK_391
    9896,     8375,    10617
*SPRING, ELSET=WK_391

9.789465e-01
*ELEMENT, TYPE=SPRINGA, ELSET=WK_392
    9897,     8377,    10618
*SPRING, ELSET=WK_392

9.789465e-01
*ELEMENT, TYPE=SPRINGA, ELSET=WK_393
    9898,     8379,    10619
*SPRING, ELSET=WK_393

9.789465e-01
*ELEMENT, TYPE=SPRINGA, ELSET=WK_394
    9899,     8381,    10620
*SPRING, ELSET=WK_394

9.789465e-01
*ELEMENT, TYPE=SPRINGA, ELSET=WK_395
    9900,     8383,    10621
*SPRING, ELSET=WK_395

9.789465e-01
*ELEMENT, TYPE=SPRINGA, ELSET=WK_396
    9901,     8385,    10622
*SPRING, ELSET=WK_396

9.789465e-01
*ELEMENT, TYPE=SPRINGA, ELSET=WK_397
    9902,     8387,    10623
*SPRING, ELSET=WK_397

9.789465e-01
*ELEMENT, TYPE=SPRINGA, ELSET=WK_398
    9903,     8389,    10624
*SPRING, ELSET=WK_398

9.789465e-01
*ELEMENT, TYPE=SPRINGA, ELSET=WK_399
    9904,     8391,    10625
*SPRING, ELSET=WK_399

1.957893e+00
*ELEMENT, TYPE=SPRINGA, ELSET=WK_400
    9905,     8393,    10626
*SPRING, ELSET=WK_400

1.957893e+00
*ELEMENT, TYPE=SPRINGA, ELSET=WK_401
    9906,     8395,    10627
*SPRING, ELSET=WK_401

1.957893e+00
*ELEMENT, TYPE=SPRINGA, ELSET=WK_402
    9907,     8397,    10628
*SPRING, ELSET=WK_402

1.957893e+00
*ELEMENT, TYPE=SPRINGA, ELSET=WK_403
    9908,     8399,    10629
*SPRING, ELSET=WK_403

1.957893e+00
*ELEMENT, TYPE=SPRINGA, ELSET=WK_404
    9909,     8401,    10630
*SPRING, ELSET=WK_404

1.957893e+00
*ELEMENT, TYPE=SPRINGA, ELSET=WK_405
    9910,     8403,    10631
*SPRING, ELSET=WK_405

1.957893e+00
*ELEMENT, TYPE=SPRINGA, ELSET=WK_406
    9911,     8405,    10632
*SPRING, ELSET=WK_406

1.957893e+00
*ELEMENT, TYPE=SPRINGA, ELSET=WK_407
    9912,     8407,    10633
*SPRING, ELSET=WK_407

1.957893e+00
*ELEMENT, TYPE=SPRINGA, ELSET=WK_408
    9913,     8409,    10634
*SPRING, ELSET=WK_408

1.957893e+00
*ELEMENT, TYPE=SPRINGA, ELSET=WK_409
    9914,     8411,    10635
*SPRING, ELSET=WK_409

1.957893e+00
*ELEMENT, TYPE=SPRINGA, ELSET=WK_410
    9915,     8413,    10636
*SPRING, ELSET=WK_410

1.957893e+00
*ELEMENT, TYPE=SPRINGA, ELSET=WK_411
    9916,     8415,    10637
*SPRING, ELSET=WK_411

1.957893e+00
*ELEMENT, TYPE=SPRINGA, ELSET=WK_412
    9917,     8417,    10638
*SPRING, ELSET=WK_412

1.957893e+00
*ELEMENT, TYPE=SPRINGA, ELSET=WK_413
    9918,     8419,    10639
*SPRING, ELSET=WK_413

1.957893e+00
*ELEMENT, TYPE=SPRINGA, ELSET=WK_414
    9919,     8421,    10640
*SPRING, ELSET=WK_414

1.957893e+00
*ELEMENT, TYPE=SPRINGA, ELSET=WK_415
    9920,     8423,    10641
*SPRING, ELSET=WK_415

1.957893e+00
*ELEMENT, TYPE=SPRINGA, ELSET=WK_416
    9921,     8425,    10642
*SPRING, ELSET=WK_416

1.957893e+00
*ELEMENT, TYPE=SPRINGA, ELSET=WK_417
    9922,     8427,    10643
*SPRING, ELSET=WK_417

1.957893e+00
*ELEMENT, TYPE=SPRINGA, ELSET=WK_418
    9923,     8429,    10644
*SPRING, ELSET=WK_418

1.957893e+00
*ELEMENT, TYPE=SPRINGA, ELSET=WK_419
    9924,     8431,    10645
*SPRING, ELSET=WK_419

1.957893e+00
*ELEMENT, TYPE=SPRINGA, ELSET=WK_420
    9925,     8433,    10646
*SPRING, ELSET=WK_420

1.957893e+00
*ELEMENT, TYPE=SPRINGA, ELSET=WK_421
    9926,     8435,    10647
*SPRING, ELSET=WK_421

1.957893e+00
*ELEMENT, TYPE=SPRINGA, ELSET=WK_422
    9927,     8437,    10648
*SPRING, ELSET=WK_422

1.957893e+00
*ELEMENT, TYPE=SPRINGA, ELSET=WK_423
    9928,     8439,    10649
*SPRING, ELSET=WK_423

1.957893e+00
*ELEMENT, TYPE=SPRINGA, ELSET=WK_424
    9929,     8441,    10650
*SPRING, ELSET=WK_424

1.957893e+00
*ELEMENT, TYPE=SPRINGA, ELSET=WK_425
    9930,     8443,    10651
*SPRING, ELSET=WK_425

1.957893e+00
*ELEMENT, TYPE=SPRINGA, ELSET=WK_426
    9931,     8445,    10652
*SPRING, ELSET=WK_426

1.957893e+00
*ELEMENT, TYPE=SPRINGA, ELSET=WK_427
    9932,     8447,    10653
*SPRING, ELSET=WK_427

1.957893e+00
*ELEMENT, TYPE=SPRINGA, ELSET=WK_428
    9933,     8449,    10654
*SPRING, ELSET=WK_428

1.957893e+00
*ELEMENT, TYPE=SPRINGA, ELSET=WK_429
    9934,     8451,    10655
*SPRING, ELSET=WK_429

1.957893e+00
*ELEMENT, TYPE=SPRINGA, ELSET=WK_430
    9935,     8453,    10656
*SPRING, ELSET=WK_430

1.957893e+00
*ELEMENT, TYPE=SPRINGA, ELSET=WK_431
    9936,     8455,    10657
*SPRING, ELSET=WK_431

1.957893e+00
*ELEMENT, TYPE=SPRINGA, ELSET=WK_432
    9937,     8457,    10658
*SPRING, ELSET=WK_432

1.957893e+00
*ELEMENT, TYPE=SPRINGA, ELSET=WK_433
    9938,     8459,    10659
*SPRING, ELSET=WK_433

1.957893e+00
*ELEMENT, TYPE=SPRINGA, ELSET=WK_434
    9939,     8461,    10660
*SPRING, ELSET=WK_434

1.957893e+00
*ELEMENT, TYPE=SPRINGA, ELSET=WK_435
    9940,     8463,    10661
*SPRING, ELSET=WK_435

1.957893e+00
*ELEMENT, TYPE=SPRINGA, ELSET=WK_436
    9941,     8465,    10662
*SPRING, ELSET=WK_436

1.957893e+00
*ELEMENT, TYPE=SPRINGA, ELSET=WK_437
    9942,     8467,    10663
*SPRING, ELSET=WK_437

1.957893e+00
*ELEMENT, TYPE=SPRINGA, ELSET=WK_438
    9943,     8469,    10664
*SPRING, ELSET=WK_438

1.957893e+00
*ELEMENT, TYPE=SPRINGA, ELSET=WK_439
    9944,     8471,    10665
*SPRING, ELSET=WK_439

1.957893e+00
*ELEMENT, TYPE=SPRINGA, ELSET=WK_440
    9945,     8473,    10666
*SPRING, ELSET=WK_440

1.957893e+00
*ELEMENT, TYPE=SPRINGA, ELSET=WK_441
    9946,     8475,    10667
*SPRING, ELSET=WK_441

1.957893e+00
*ELEMENT, TYPE=SPRINGA, ELSET=WK_442
    9947,     8477,    10668
*SPRING, ELSET=WK_442

1.957893e+00
*ELEMENT, TYPE=SPRINGA, ELSET=WK_443
    9948,     8479,    10669
*SPRING, ELSET=WK_443

1.957893e+00
*ELEMENT, TYPE=SPRINGA, ELSET=WK_444
    9949,     8481,    10670
*SPRING, ELSET=WK_444

1.957893e+00
*ELEMENT, TYPE=SPRINGA, ELSET=WK_445
    9950,     8483,    10671
*SPRING, ELSET=WK_445

1.957893e+00
*ELEMENT, TYPE=SPRINGA, ELSET=WK_446
    9951,     8485,    10672
*SPRING, ELSET=WK_446

1.957893e+00
*ELEMENT, TYPE=SPRINGA, ELSET=WK_447
    9952,     8487,    10673
*SPRING, ELSET=WK_447

1.957893e+00
*ELEMENT, TYPE=SPRINGA, ELSET=WK_448
    9953,     8489,    10674
*SPRING, ELSET=WK_448

1.957893e+00
*ELEMENT, TYPE=SPRINGA, ELSET=WK_449
    9954,     8491,    10675
*SPRING, ELSET=WK_449

1.957893e+00
*ELEMENT, TYPE=SPRINGA, ELSET=WK_450
    9955,     8493,    10676
*SPRING, ELSET=WK_450

1.957893e+00
*ELEMENT, TYPE=SPRINGA, ELSET=WK_451
    9956,     8495,    10677
*SPRING, ELSET=WK_451

1.957893e+00
*ELEMENT, TYPE=SPRINGA, ELSET=WK_452
    9957,     8497,    10678
*SPRING, ELSET=WK_452

1.957893e+00
*ELEMENT, TYPE=SPRINGA, ELSET=WK_453
    9958,     8499,    10679
*SPRING, ELSET=WK_453

1.957893e+00
*ELEMENT, TYPE=SPRINGA, ELSET=WK_454
    9959,     8501,    10680
*SPRING, ELSET=WK_454

1.957893e+00
*ELEMENT, TYPE=SPRINGA, ELSET=WK_455
    9960,     8503,    10681
*SPRING, ELSET=WK_455

1.957893e+00
*ELEMENT, TYPE=SPRINGA, ELSET=WK_456
    9961,     8505,    10682
*SPRING, ELSET=WK_456

1.957893e+00
*ELEMENT, TYPE=SPRINGA, ELSET=WK_457
    9962,     8507,    10683
*SPRING, ELSET=WK_457

1.957893e+00
*ELEMENT, TYPE=SPRINGA, ELSET=WK_458
    9963,     8509,    10684
*SPRING, ELSET=WK_458

1.957893e+00
*ELEMENT, TYPE=SPRINGA, ELSET=WK_459
    9964,     8511,    10685
*SPRING, ELSET=WK_459

1.957893e+00
*ELEMENT, TYPE=SPRINGA, ELSET=WK_460
    9965,     8513,    10686
*SPRING, ELSET=WK_460

1.957893e+00
*ELEMENT, TYPE=SPRINGA, ELSET=WK_461
    9966,     8515,    10687
*SPRING, ELSET=WK_461

1.957893e+00
*ELEMENT, TYPE=SPRINGA, ELSET=WK_462
    9967,     8517,    10688
*SPRING, ELSET=WK_462

1.957893e+00
*ELEMENT, TYPE=SPRINGA, ELSET=WK_463
    9968,     8519,    10689
*SPRING, ELSET=WK_463

1.957893e+00
*ELEMENT, TYPE=SPRINGA, ELSET=WK_464
    9969,     8521,    10690
*SPRING, ELSET=WK_464

1.957893e+00
*ELEMENT, TYPE=SPRINGA, ELSET=WK_465
    9970,     8523,    10691
*SPRING, ELSET=WK_465

1.957893e+00
*ELEMENT, TYPE=SPRINGA, ELSET=WK_466
    9971,     8525,    10692
*SPRING, ELSET=WK_466

1.957893e+00
*ELEMENT, TYPE=SPRINGA, ELSET=WK_467
    9972,     8527,    10693
*SPRING, ELSET=WK_467

1.957893e+00
*ELEMENT, TYPE=SPRINGA, ELSET=WK_468
    9973,     8529,    10694
*SPRING, ELSET=WK_468

1.957893e+00
*ELEMENT, TYPE=SPRINGA, ELSET=WK_469
    9974,     8531,    10695
*SPRING, ELSET=WK_469

1.957893e+00
*ELEMENT, TYPE=SPRINGA, ELSET=WK_470
    9975,     8533,    10696
*SPRING, ELSET=WK_470

1.957893e+00
*ELEMENT, TYPE=SPRINGA, ELSET=WK_471
    9976,     8535,    10697
*SPRING, ELSET=WK_471

1.957893e+00
*ELEMENT, TYPE=SPRINGA, ELSET=WK_472
    9977,     8537,    10698
*SPRING, ELSET=WK_472

1.957893e+00
*ELEMENT, TYPE=SPRINGA, ELSET=WK_473
    9978,     8539,    10699
*SPRING, ELSET=WK_473

1.957893e+00
*ELEMENT, TYPE=SPRINGA, ELSET=WK_474
    9979,     8541,    10700
*SPRING, ELSET=WK_474

1.957893e+00
*ELEMENT, TYPE=SPRINGA, ELSET=WK_475
    9980,     8543,    10701
*SPRING, ELSET=WK_475

1.957893e+00
*ELEMENT, TYPE=SPRINGA, ELSET=WK_476
    9981,     8545,    10702
*SPRING, ELSET=WK_476

1.957893e+00
*ELEMENT, TYPE=SPRINGA, ELSET=WK_477
    9982,     8547,    10703
*SPRING, ELSET=WK_477

1.957893e+00
*ELEMENT, TYPE=SPRINGA, ELSET=WK_478
    9983,     8549,    10704
*SPRING, ELSET=WK_478

1.957893e+00
*ELEMENT, TYPE=SPRINGA, ELSET=WK_479
    9984,     8551,    10705
*SPRING, ELSET=WK_479

1.957893e+00
*ELEMENT, TYPE=SPRINGA, ELSET=WK_480
    9985,     8553,    10706
*SPRING, ELSET=WK_480

1.957893e+00
*ELEMENT, TYPE=SPRINGA, ELSET=WK_481
    9986,     8555,    10707
*SPRING, ELSET=WK_481

1.957893e+00
*ELEMENT, TYPE=SPRINGA, ELSET=WK_482
    9987,     8557,    10708
*SPRING, ELSET=WK_482

1.957893e+00
*ELEMENT, TYPE=SPRINGA, ELSET=WK_483
    9988,     8559,    10709
*SPRING, ELSET=WK_483

1.957893e+00
*ELEMENT, TYPE=SPRINGA, ELSET=WK_484
    9989,     8561,    10710
*SPRING, ELSET=WK_484

1.957893e+00
*ELEMENT, TYPE=SPRINGA, ELSET=WK_485
    9990,     8563,    10711
*SPRING, ELSET=WK_485

1.957893e+00
*ELEMENT, TYPE=SPRINGA, ELSET=WK_486
    9991,     8565,    10712
*SPRING, ELSET=WK_486

1.957893e+00
*ELEMENT, TYPE=SPRINGA, ELSET=WK_487
    9992,     8567,    10713
*SPRING, ELSET=WK_487

1.957893e+00
*ELEMENT, TYPE=SPRINGA, ELSET=WK_488
    9993,     8569,    10714
*SPRING, ELSET=WK_488

1.957893e+00
*ELEMENT, TYPE=SPRINGA, ELSET=WK_489
    9994,     8571,    10715
*SPRING, ELSET=WK_489

1.957893e+00
*ELEMENT, TYPE=SPRINGA, ELSET=WK_490
    9995,     8573,    10716
*SPRING, ELSET=WK_490

1.957893e+00
*ELEMENT, TYPE=SPRINGA, ELSET=WK_491
    9996,     8575,    10717
*SPRING, ELSET=WK_491

1.957893e+00
*ELEMENT, TYPE=SPRINGA, ELSET=WK_492
    9997,     8577,    10718
*SPRING, ELSET=WK_492

1.957893e+00
*ELEMENT, TYPE=SPRINGA, ELSET=WK_493
    9998,     8579,    10719
*SPRING, ELSET=WK_493

1.957893e+00
*ELEMENT, TYPE=SPRINGA, ELSET=WK_494
    9999,     8581,    10720
*SPRING, ELSET=WK_494

9.789465e-01
*ELEMENT, TYPE=SPRINGA, ELSET=WK_495
   10000,     8583,    10721
*SPRING, ELSET=WK_495

9.789465e-01
*ELEMENT, TYPE=SPRINGA, ELSET=WK_496
   10001,     8585,    10722
*SPRING, ELSET=WK_496

9.789465e-01
*ELEMENT, TYPE=SPRINGA, ELSET=WK_497
   10002,     8587,    10723
*SPRING, ELSET=WK_497

9.789465e-01
*ELEMENT, TYPE=SPRINGA, ELSET=WK_498
   10003,     8589,    10724
*SPRING, ELSET=WK_498

9.789465e-01
*BOUNDARY
GHOST_WINKLER, 1, 3, 0
