*HEADING
on-caso-2F (CCX 2.20) - VARIANTE: achatamento do globo CLINICAMENTE REALISTA
**
** ============================================================================
** on-caso-2F = "Flattening realista". Identico ao on-caso-2 (V14b) em mesh,
** materiais, BCs e perturbacao -- a UNICA mudanca e' a MAGNITUDE do achatamento
** axial prescrito no globo anterior:
**
**     on-caso-2  (V14b):  Dz = -1.50 mm   (forca a flambagem; caso extremo)
**     on-caso-2F (este) :  Dz = -0.60 mm   (limite superior clinico realista)
**
** Justificativa (critica Reilly et al. 2023 + clinica de astronautas):
**   - Reilly et al. (2023): inchaco da gordura orbital na SANS preve mudanca de
**     comprimento axial (achatamento) da ordem de apenas -7.29 a -32.12 micrometros.
**   - Astronautas: shift hipermetropico de +0.50 a +1.75 dioptrias.
**   - ~3 D ~ 1 mm de encurtamento axial  ->  deformacao clinica real ~ 0.2-0.6 mm.
**   - Logo Dz=-1.5 mm e' uma SUPERESTIMATIVA biomecanica (extremo, ou soma de
**     achatamento + retrocesso/translacao do globo inteiro). Aqui usamos o LIMITE
**     SUPERIOR clinico (-0.6 mm) para perguntar: "o nervo+pia ainda flamba (modo S)
**     dentro do tubo dural a deslocamentos fisiologicos?"
**
** Para responder de forma honesta, o ARCMAX do Riks foi reduzido de 2.5 -> 1.0,
** de modo que o load factor lambda NAO escale o BC alem do valor clinico. Assim
** Dz_max(real) = -0.6 mm exatamente (e nao -1.5 mm como no caso 2 original).
**
** Demais ingredientes (inalterados em relacao ao on-caso-2 V14b):
**   - 8 zonas, 2736 C3D8I, NeoHooke nu=0.49 quase-incompressivel
**   - SAS solido fluid-like (E=3 kPa, nu=0.05)
**   - Dura ortotropica (E_circ = 3x E_axial), ORIENTATION cilindrica
**   - Winkler 200 kPa/m em dura_outer (gordura orbital)
**   - Perturbacao antissimetrica +-3 mN na pia outer (gatilho do modo S)
**   - EOM CLOAD -1e-4 N/no (tracao residual dos musculos extraoculares)
** ============================================================================
**
*INCLUDE, INPUT=on-caso-2F_mesh.inp
*INCLUDE, INPUT=on-caso-2F_winkler.inp
**
** ============================================================================
** MATERIAIS (NEO HOOKE compressivel, nu=0.49 quase-incompressivel)
** Unidades SI: Pa (=N/m^2). Multiplicar por 1e-6 p/ ler em MPa.
** ============================================================================
*MATERIAL, NAME=ON_MAT
**                       C10 (Pa),  D1 (1/Pa)   [E=30 kPa, MAT_NERVO]
*HYPERELASTIC, NEO HOOKE
5.0335e+03, 4.0000e-06
*DENSITY
1000
**
*MATERIAL, NAME=SAS_MAT
** SAS solido "fluido-like": macio + ALTAMENTE compressivel (nu=0.05).
**   E  = 3 kPa  ; nu = 0.05 ; C10 = 714.3 Pa ; D1 = 1.8e-3 1/Pa ; K = 1.11 kPa
*HYPERELASTIC, NEO HOOKE
7.1430e+02, 1.8000e-03
*DENSITY
1000
**
*MATERIAL, NAME=PIA_MAT
**                       C10 (Pa),  D1 (1/Pa)   [E=3 MPa, MAT_RIGIDO]
*HYPERELASTIC, NEO HOOKE
5.0335e+05, 4.0000e-08
*DENSITY
1100
**
*MATERIAL, NAME=DURA_MAT
** Ortotropico (cilindrico): E_circ = 3x E_rad/axial. Mantem o tubo reto.
*ELASTIC, TYPE=ENGINEERING CONSTANTS
** E_r,    E_theta, E_z,     nu_rt, nu_rz, nu_tz, G_rt,    G_rz
3.000e+6, 9.000e+6, 3.000e+6, 0.30,  0.30,  0.30,  1.150e+6, 1.150e+6
** G_tz, T
1.150e+6, 0.0
*DENSITY
1100
**
*MATERIAL, NAME=LC_MAT
**                       C10 (Pa),  D1 (1/Pa)   [E=300 kPa, MAT_LC]
*HYPERELASTIC, NEO HOOKE
5.0335e+04, 4.0000e-07
*DENSITY
1100
**
*MATERIAL, NAME=SCLERA_PERI_MAT
**                       C10 (Pa),  D1 (1/Pa)   [E=3 MPa, MAT_RIGIDO]
*HYPERELASTIC, NEO HOOKE
5.0335e+05, 4.0000e-08
*DENSITY
1400
**
*MATERIAL, NAME=SCLERA_RING_MAT
**                       C10 (Pa),  D1 (1/Pa)   [E=3 MPa, MAT_RIGIDO]
*HYPERELASTIC, NEO HOOKE
5.0335e+05, 4.0000e-08
*DENSITY
1400
**
*MATERIAL, NAME=GLOBO_MAT
**                       C10 (Pa),  D1 (1/Pa)   [E=3 MPa, MAT_RIGIDO]
*HYPERELASTIC, NEO HOOKE
5.0335e+05, 4.0000e-08
*DENSITY
1400
**
*SOLID SECTION, ELSET=ON,          MATERIAL=ON_MAT
*SOLID SECTION, ELSET=PIA,         MATERIAL=PIA_MAT
*SOLID SECTION, ELSET=SAS,         MATERIAL=SAS_MAT
*ORIENTATION, NAME=ORI_CYL, SYSTEM=CYLINDRICAL
0.0, 0.0, 0.0, 0.0, 0.0, 1.0
*SOLID SECTION, ELSET=DURA,        MATERIAL=DURA_MAT, ORIENTATION=ORI_CYL
*SOLID SECTION, ELSET=LC,          MATERIAL=LC_MAT
*SOLID SECTION, ELSET=SCLERA_PERI, MATERIAL=SCLERA_PERI_MAT
*SOLID SECTION, ELSET=SCLERA_RING, MATERIAL=SCLERA_RING_MAT
*SOLID SECTION, ELSET=GLOBO,       MATERIAL=GLOBO_MAT
**
** ============================================================================
** AMPLITUDE -- rampa linear do Dz axial
** ============================================================================
*AMPLITUDE, NAME=DZRAMP
0.0, 0.0, 1.0, 1.0
**
** ============================================================================
** STEP UNICO -- Riks arc-length, mas com ARCMAX=1.0 (NAO escala alem do
** valor clinico). Dz_max = -0.6 mm.
** ============================================================================
*STEP, NLGEOM=YES, INC=500
*STATIC, RIKS
0.02, 1.0, 1e-5, 0.05, 1.0
**       dl_init=0.02 ; l_total=1.0 ; dl_min=1e-5 ; dl_max=0.05 ; ARCMAX=1.0
**
** ====================================================================
** Engastes
** ====================================================================
*BOUNDARY
POSTERIOR_ON,   1, 3, 0.0
POSTERIOR_PIA,  1, 3, 0.0
POSTERIOR_SAS,  1, 3, 0.0
POSTERIOR_DURA, 1, 3, 0.0
**
** Globo: face anterior LATERAL fixa (orbita confina XY) com Dz prescrito
** CLINICAMENTE REALISTA = -0.6 mm (limite superior).
*BOUNDARY
ANTERIOR_GLOBO, 1, 2, 0.0
**
*BOUNDARY, AMPLITUDE=DZRAMP
ANTERIOR_GLOBO, 3, 3, -0.60e-3
**
** ====================================================================
** EOM - tracao residual dos musculos extraoculares (~16 mN)
** ====================================================================
*CLOAD, AMPLITUDE=DZRAMP
ANTERIOR_GLOBO, 3, -1.0e-4
**
** ====================================================================
** PERTURBACAO LATERAL: REMOVIDA NESTA VARIANTE
** ====================================================================
** Antes havia *NSET PERT_NODES_A/B + *CLOAD +/-3 mN em X (gatilho
** antissimetrico de modo S). Removida: so o driving axial do globo
** (Dz + EOM) + a PIC interna na dura. Flambagem, se houver, sera
** espontanea, nao induzida por perturbacao artificial.
** ====================================================================
**
** ====================================================================
** PIC (pressao intracraniana ~10 mmHg) na PAREDE INTERNA da dura
** ====================================================================
** P=1333 Pa positiva em DURA_INNER_SURF (interface dura<->sas, gerada pelo
** conversor, apontando para os elementos da DURA). A normal externa do
** elemento DURA naquela face aponta p/ o eixo; pressao positiva age no
** sentido OPOSTO -> empurra a dura radialmente p/ FORA -> tracao
** circunferencial -> mantem o tubo dural reto e tenso (mata a "sanfona").
** Rota A validada no on-caso-2sP. Rampada com DZRAMP (cresce com a compressao).
*DSLOAD, AMPLITUDE=DZRAMP
DURA_INNER_SURF, P, 1333.0
**
** Outputs por incremento (.dat)
*NODE PRINT, FREQUENCY=1, NSET=POSTERIOR_DURA, TOTALS=ONLY
RF, U
*NODE PRINT, FREQUENCY=1, NSET=POSTERIOR_PIA, TOTALS=ONLY
RF, U
*NODE PRINT, FREQUENCY=1, NSET=POSTERIOR_ON, TOTALS=ONLY
RF, U
*NODE PRINT, FREQUENCY=1, NSET=ANTERIOR_GLOBO, TOTALS=ONLY
RF, U
**
** Outputs de campo no .frd (ParaView via ccx2paraview)
*NODE FILE, FREQUENCY=5
U, RF
*EL FILE, FREQUENCY=5
S, E
**
*END STEP
