** Winkler foundation springs cobrindo TODA a parede externa da dura
** (dura_outer + perturbation_strip, se existir) -> fundacao UNIFORME
** Gerado automaticamente por foam_polymesh_to_ccx_inp.py
** k_winkler = 5.000e+06 Pa/m, 264 springs
*NODE, NSET=GHOST_WINKLER
    5318, -1.43470367e-02, -2.51571253e-02,  1.76847411e-03
    5319, -1.40362522e-02, -2.55715046e-02,  2.16592956e-03
    5320, -1.36743361e-02, -2.60540594e-02,  2.41578050e-03
    5321, -1.32859522e-02, -2.65719046e-02,  2.50100000e-03
    5322, -1.28975683e-02, -2.70897497e-02,  2.41578050e-03
    5323, -1.25356522e-02, -2.75723046e-02,  2.16592956e-03
    5324, -1.22248677e-02, -2.79866839e-02,  1.76847411e-03
    5325, -1.21548175e-02, -2.33527349e-02,  1.76847411e-03
    5326, -1.18079236e-02, -2.37373929e-02,  2.16592956e-03
    5327, -1.14039571e-02, -2.41853366e-02,  2.41578050e-03
    5328, -1.09704476e-02, -2.46660394e-02,  2.50100000e-03
    5329, -1.05369382e-02, -2.51467422e-02,  2.41578050e-03
    5330, -1.01329717e-02, -2.55946859e-02,  2.16592956e-03
    5331, -9.78607776e-03, -2.59793439e-02,  1.76847411e-03
    5332, -1.01342870e-02, -2.13579654e-02,  1.76847411e-03
    5333, -9.75411161e-03, -2.17097662e-02,  2.16592956e-03
    5334, -9.31138802e-03, -2.21194470e-02,  2.41578050e-03
    5335, -8.83628709e-03, -2.25590886e-02,  2.50100000e-03
    5336, -8.36118616e-03, -2.29987302e-02,  2.41578050e-03
    5337, -7.91846257e-03, -2.34084109e-02,  2.16592956e-03
    5338, -7.53828719e-03, -2.37602118e-02,  1.76847411e-03
    5339, -8.30191712e-03, -1.91890785e-02,  1.76847411e-03
    5340, -7.89155959e-03, -1.95051543e-02,  2.16592956e-03
    5341, -7.41368815e-03, -1.98732322e-02,  2.41578050e-03
    5342, -6.90086893e-03, -2.02682285e-02,  2.50100000e-03
    5343, -6.38804970e-03, -2.06632248e-02,  2.41578050e-03
    5344, -5.91017826e-03, -2.10313027e-02,  2.16592956e-03
    5345, -5.49982073e-03, -2.13473785e-02,  1.76847411e-03
    5346, -6.67264600e-03, -1.68637560e-02,  1.76847411e-03
    5347, -6.23545169e-03, -1.71415298e-02,  2.16592956e-03
    5348, -5.72632816e-03, -1.74650043e-02,  2.41578050e-03
    5349, -5.17997132e-03, -1.78121351e-02,  2.50100000e-03
    5350, -4.63361448e-03, -1.81592660e-02,  2.41578050e-03
    5351, -4.12449094e-03, -1.84827404e-02,  2.16592956e-03
    5352, -3.68729664e-03, -1.87605143e-02,  1.76847411e-03
    5353, -5.25975599e-03, -1.44009545e-02,  1.76847411e-03
    5354, -4.79928906e-03, -1.46381619e-02,  2.16592956e-03
    5355, -4.26306398e-03, -1.49143958e-02,  2.41578050e-03
    5356, -3.68762360e-03, -1.52108313e-02,  2.50100000e-03
    5357, -3.11218321e-03, -1.55072668e-02,  2.41578050e-03
    5358, -2.57595814e-03, -1.57835007e-02,  2.16592956e-03
    5359, -2.11549121e-03, -1.60207081e-02,  1.76847411e-03
    5360, -4.07476543e-03, -1.18207517e-02,  1.76847411e-03
    5361, -3.59477975e-03, -1.20154589e-02,  2.16592956e-03
    5362, -3.03582461e-03, -1.22422003e-02,  2.41578050e-03
    5363, -2.43599187e-03, -1.24855238e-02,  2.50100000e-03
    5364, -1.83615913e-03, -1.27288472e-02,  2.41578050e-03
    5365, -1.27720400e-03, -1.29555886e-02,  2.16592956e-03
    5366, -7.97218321e-04, -1.31502958e-02,  1.76847411e-03
    5367, -3.12733476e-03, -9.14418214e-03,  1.76847411e-03
    5368, -2.63174334e-03, -9.29480187e-03,  2.16592956e-03
    5369, -2.05461493e-03, -9.47020226e-03,  2.41578050e-03
    5370, -1.43527987e-03, -9.65843006e-03,  2.50100000e-03
    5371, -8.15944803e-04, -9.84665786e-03,  2.41578050e-03
    5372, -2.38816394e-04, -1.00220583e-02,  2.16592956e-03
    5373,  2.56775024e-04, -1.01726780e-02,  1.76847411e-03
    5374, -2.42518775e-03, -6.39306620e-03,  1.76847411e-03
    5375, -1.91803081e-03, -6.49837053e-03,  2.16592956e-03
    5376, -1.32743407e-03, -6.62100001e-03,  2.41578050e-03
    5377, -6.93645711e-04, -6.75259765e-03,  2.50100000e-03
    5378, -5.98573498e-05, -6.88419529e-03,  2.41578050e-03
    5379,  5.30739388e-04, -7.00682477e-03,  2.16592956e-03
    5380,  1.03789632e-03, -7.11212909e-03,  1.76847411e-03
    5381, -1.97404853e-03, -3.58983187e-03,  1.76847411e-03
    5382, -1.45946059e-03, -3.64896231e-03,  2.16592956e-03
    5383, -8.60210262e-04, -3.71782116e-03,  2.41578050e-03
    5384, -2.17135456e-04, -3.79171581e-03,  2.50100000e-03
    5385,  4.25939350e-04, -3.86561046e-03,  2.41578050e-03
    5386,  1.02518968e-03, -3.93446932e-03,  2.16592956e-03
    5387,  1.53977762e-03, -3.99359976e-03,  1.76847411e-03
    5388, -1.77759495e-03, -7.57332029e-04,  1.76847411e-03
    5389, -1.25977109e-03, -7.69806535e-04,  2.16592956e-03
    5390, -6.56752462e-04, -7.84333403e-04,  2.41578050e-03
    5391, -9.63377023e-06, -7.99922653e-04,  2.50100000e-03
    5392,  6.37484922e-04, -8.15511904e-04,  2.41578050e-03
    5393,  1.24050355e-03, -8.30038772e-04,  2.16592956e-03
    5394,  1.75832740e-03, -8.42513277e-04,  1.76847411e-03
    5395, -1.19863944e-02, -2.83046482e-02,  1.25050002e-03
    5396, -1.18364839e-02, -2.85045290e-02,  6.47306439e-04
    5397, -1.17853522e-02, -2.85727046e-02,  2.22133423e-19
    5398, -1.18364839e-02, -2.85045290e-02, -6.47306439e-04
    5399, -1.19863944e-02, -2.83046482e-02, -1.25050002e-03
    5400, -1.22248677e-02, -2.79866839e-02, -1.76847411e-03
    5401, -9.51989673e-03, -2.62745023e-02,  1.25050002e-03
    5402, -9.35256834e-03, -2.64600467e-02,  6.47306439e-04
    5403, -9.29549575e-03, -2.65233324e-02,  2.22133423e-19
    5404, -9.35256834e-03, -2.64600467e-02, -6.47306439e-04
    5405, -9.51989673e-03, -2.62745023e-02, -1.25050002e-03
    5406, -9.78607776e-03, -2.59793439e-02, -1.76847411e-03
    5407, -7.24656840e-03, -2.40301580e-02,  1.25050002e-03
    5408, -7.06318630e-03, -2.41998533e-02,  6.47306439e-04
    5409, -7.00063808e-03, -2.42577332e-02,  2.22133423e-19
    5410, -7.06318630e-03, -2.41998533e-02, -6.47306439e-04
    5411, -7.24656840e-03, -2.40301580e-02, -1.25050002e-03
    5412, -7.53828719e-03, -2.37602118e-02, -1.76847411e-03
    5413, -5.18494236e-03, -2.15899119e-02,  1.25050002e-03
    5414, -4.98700155e-03, -2.17423747e-02,  6.47306439e-04
    5415, -4.91948762e-03, -2.17943770e-02,  2.22133423e-19
    5416, -4.98700155e-03, -2.17423747e-02, -6.47306439e-04
    5417, -5.18494236e-03, -2.15899119e-02, -1.25050002e-03
    5418, -5.49982073e-03, -2.13473785e-02, -1.76847411e-03
    5419, -3.35182569e-03, -1.89736576e-02,  1.25050002e-03
    5420, -3.14093984e-03, -1.91076451e-02,  6.47306439e-04
    5421, -3.06901060e-03, -1.91533457e-02,  2.22133423e-19
    5422, -3.14093984e-03, -1.91076451e-02, -6.47306439e-04
    5423, -3.35182569e-03, -1.89736576e-02, -1.25050002e-03
    5424, -3.68729664e-03, -1.87605143e-02, -1.76847411e-03
    5425, -1.76216255e-03, -1.62027237e-02,  1.25050002e-03
    5426, -1.54005087e-03, -1.63171436e-02,  6.47306439e-04
    5427, -1.46429271e-03, -1.63561700e-02,  2.22133423e-19
    5428, -1.54005087e-03, -1.63171436e-02, -6.47306439e-04
    5429, -1.76216255e-03, -1.62027237e-02, -1.25050002e-03
    5430, -2.11549121e-03, -1.60207081e-02, -1.76847411e-03
    5431, -4.28912403e-04, -1.32996999e-02,  1.25050002e-03
    5432, -1.97385626e-04, -1.33936193e-02,  6.47306439e-04
    5433, -1.18416156e-04, -1.34256534e-02,  2.22133423e-19
    5434, -1.97385626e-04, -1.33936193e-02, -6.47306439e-04
    5435, -4.28912403e-04, -1.32996999e-02, -1.25050002e-03
    5436, -7.97218321e-04, -1.31502958e-02, -1.76847411e-03
    5437,  6.37055648e-04, -1.02882526e-02,  1.25050002e-03
    5438,  8.76110040e-04, -1.03609058e-02,  6.47306439e-04
    5439,  9.57647039e-04, -1.03856864e-02,  2.22133423e-19
    5440,  8.76110040e-04, -1.03609058e-02, -6.47306439e-04
    5441,  6.37055648e-04, -1.02882526e-02, -1.25050002e-03
    5442,  2.56775024e-04, -1.01726780e-02, -1.76847411e-03
    5443,  1.42705148e-03, -7.19293193e-03,  1.25050002e-03
    5444,  1.67168464e-03, -7.24372672e-03,  6.47306439e-04
    5445,  1.75512445e-03, -7.26105188e-03,  2.22133423e-19
    5446,  1.67168464e-03, -7.24372672e-03, -6.47306439e-04
    5447,  1.42705148e-03, -7.19293193e-03, -1.25050002e-03
    5448,  1.03789632e-03, -7.11212909e-03, -1.76847411e-03
    5449,  1.93463478e-03, -4.03897214e-03,  1.25050002e-03
    5450,  2.18285238e-03, -4.06749441e-03,  6.47306439e-04
    5451,  2.26751477e-03, -4.07722282e-03,  2.22133423e-19
    5452,  2.18285238e-03, -4.06749441e-03, -6.47306439e-04
    5453,  1.93463478e-03, -4.03897214e-03, -1.25050002e-03
    5454,  1.53977762e-03, -3.99359976e-03, -1.76847411e-03
    5455,  2.15566758e-03, -8.52085301e-04,  1.25050002e-03
    5456,  2.40544605e-03, -8.58102526e-04,  6.47306439e-04
    5457,  2.49064083e-03, -8.60154890e-04,  2.22133423e-19
    5458,  2.40544605e-03, -8.58102526e-04, -6.47306439e-04
    5459,  2.15566758e-03, -8.52085301e-04, -1.25050002e-03
    5460,  1.75832740e-03, -8.42513277e-04, -1.76847411e-03
    5461, -1.25356522e-02, -2.75723046e-02, -2.16592956e-03
    5462, -1.28975683e-02, -2.70897497e-02, -2.41578050e-03
    5463, -1.32859522e-02, -2.65719046e-02, -2.50100000e-03
    5464, -1.36743361e-02, -2.60540594e-02, -2.41578050e-03
    5465, -1.40362522e-02, -2.55715046e-02, -2.16592956e-03
    5466, -1.43470367e-02, -2.51571253e-02, -1.76847411e-03
    5467, -1.01329717e-02, -2.55946859e-02, -2.16592956e-03
    5468, -1.05369382e-02, -2.51467422e-02, -2.41578050e-03
    5469, -1.09704476e-02, -2.46660394e-02, -2.50100000e-03
    5470, -1.14039571e-02, -2.41853366e-02, -2.41578050e-03
    5471, -1.18079236e-02, -2.37373929e-02, -2.16592956e-03
    5472, -1.21548175e-02, -2.33527349e-02, -1.76847411e-03
    5473, -7.91846257e-03, -2.34084109e-02, -2.16592956e-03
    5474, -8.36118616e-03, -2.29987302e-02, -2.41578050e-03
    5475, -8.83628709e-03, -2.25590886e-02, -2.50100000e-03
    5476, -9.31138802e-03, -2.21194470e-02, -2.41578050e-03
    5477, -9.75411161e-03, -2.17097662e-02, -2.16592956e-03
    5478, -1.01342870e-02, -2.13579654e-02, -1.76847411e-03
    5479, -5.91017826e-03, -2.10313027e-02, -2.16592956e-03
    5480, -6.38804970e-03, -2.06632248e-02, -2.41578050e-03
    5481, -6.90086893e-03, -2.02682285e-02, -2.50100000e-03
    5482, -7.41368815e-03, -1.98732322e-02, -2.41578050e-03
    5483, -7.89155959e-03, -1.95051543e-02, -2.16592956e-03
    5484, -8.30191712e-03, -1.91890785e-02, -1.76847411e-03
    5485, -4.12449094e-03, -1.84827404e-02, -2.16592956e-03
    5486, -4.63361448e-03, -1.81592660e-02, -2.41578050e-03
    5487, -5.17997132e-03, -1.78121351e-02, -2.50100000e-03
    5488, -5.72632816e-03, -1.74650043e-02, -2.41578050e-03
    5489, -6.23545169e-03, -1.71415298e-02, -2.16592956e-03
    5490, -6.67264600e-03, -1.68637560e-02, -1.76847411e-03
    5491, -2.57595814e-03, -1.57835007e-02, -2.16592956e-03
    5492, -3.11218321e-03, -1.55072668e-02, -2.41578050e-03
    5493, -3.68762360e-03, -1.52108313e-02, -2.50100000e-03
    5494, -4.26306398e-03, -1.49143958e-02, -2.41578050e-03
    5495, -4.79928906e-03, -1.46381619e-02, -2.16592956e-03
    5496, -5.25975599e-03, -1.44009545e-02, -1.76847411e-03
    5497, -1.27720400e-03, -1.29555886e-02, -2.16592956e-03
    5498, -1.83615913e-03, -1.27288472e-02, -2.41578050e-03
    5499, -2.43599187e-03, -1.24855238e-02, -2.50100000e-03
    5500, -3.03582461e-03, -1.22422003e-02, -2.41578050e-03
    5501, -3.59477975e-03, -1.20154589e-02, -2.16592956e-03
    5502, -4.07476543e-03, -1.18207517e-02, -1.76847411e-03
    5503, -2.38816394e-04, -1.00220583e-02, -2.16592956e-03
    5504, -8.15944803e-04, -9.84665786e-03, -2.41578050e-03
    5505, -1.43527987e-03, -9.65843006e-03, -2.50100000e-03
    5506, -2.05461493e-03, -9.47020226e-03, -2.41578050e-03
    5507, -2.63174334e-03, -9.29480187e-03, -2.16592956e-03
    5508, -3.12733476e-03, -9.14418214e-03, -1.76847411e-03
    5509,  5.30739388e-04, -7.00682477e-03, -2.16592956e-03
    5510, -5.98573498e-05, -6.88419529e-03, -2.41578050e-03
    5511, -6.93645711e-04, -6.75259765e-03, -2.50100000e-03
    5512, -1.32743407e-03, -6.62100001e-03, -2.41578050e-03
    5513, -1.91803081e-03, -6.49837053e-03, -2.16592956e-03
    5514, -2.42518775e-03, -6.39306620e-03, -1.76847411e-03
    5515,  1.02518968e-03, -3.93446932e-03, -2.16592956e-03
    5516,  4.25939350e-04, -3.86561046e-03, -2.41578050e-03
    5517, -2.17135456e-04, -3.79171581e-03, -2.50100000e-03
    5518, -8.60210262e-04, -3.71782116e-03, -2.41578050e-03
    5519, -1.45946059e-03, -3.64896231e-03, -2.16592956e-03
    5520, -1.97404853e-03, -3.58983187e-03, -1.76847411e-03
    5521,  1.24050355e-03, -8.30038772e-04, -2.16592956e-03
    5522,  6.37484922e-04, -8.15511904e-04, -2.41578050e-03
    5523, -9.63377023e-06, -7.99922653e-04, -2.50100000e-03
    5524, -6.56752462e-04, -7.84333403e-04, -2.41578050e-03
    5525, -1.25977109e-03, -7.69806535e-04, -2.16592956e-03
    5526, -1.77759495e-03, -7.57332029e-04, -1.76847411e-03
    5527, -1.45855099e-02, -2.48391609e-02, -1.25050002e-03
    5528, -1.47354205e-02, -2.46392802e-02, -6.47306439e-04
    5529, -1.47865522e-02, -2.45711046e-02, -2.22133423e-19
    5530, -1.47354205e-02, -2.46392802e-02,  6.47306439e-04
    5531, -1.45855099e-02, -2.48391609e-02,  1.25050002e-03
    5532, -1.24209985e-02, -2.30575765e-02, -1.25050002e-03
    5533, -1.25883269e-02, -2.28720322e-02, -6.47306439e-04
    5534, -1.26453995e-02, -2.28087465e-02, -2.22133423e-19
    5535, -1.25883269e-02, -2.28720322e-02,  6.47306439e-04
    5536, -1.24209985e-02, -2.30575765e-02,  1.25050002e-03
    5537, -1.04260058e-02, -2.10880191e-02, -1.25050002e-03
    5538, -1.06093879e-02, -2.09183238e-02, -6.47306439e-04
    5539, -1.06719361e-02, -2.08604439e-02, -2.22133423e-19
    5540, -1.06093879e-02, -2.09183238e-02,  6.47306439e-04
    5541, -1.04260058e-02, -2.10880191e-02,  1.25050002e-03
    5542, -8.61679549e-03, -1.89465451e-02, -1.25050002e-03
    5543, -8.81473630e-03, -1.87940823e-02, -6.47306439e-04
    5544, -8.88225023e-03, -1.87420800e-02, -2.22133423e-19
    5545, -8.81473630e-03, -1.87940823e-02,  6.47306439e-04
    5546, -8.61679549e-03, -1.89465451e-02,  1.25050002e-03
    5547, -7.00811695e-03, -1.66506127e-02, -1.25050002e-03
    5548, -7.21900280e-03, -1.65166252e-02, -6.47306439e-04
    5549, -7.29093204e-03, -1.64709245e-02, -2.22133423e-19
    5550, -7.21900280e-03, -1.65166252e-02,  6.47306439e-04
    5551, -7.00811695e-03, -1.66506127e-02,  1.25050002e-03
    5552, -5.61308465e-03, -1.42189389e-02, -1.25050002e-03
    5553, -5.83519633e-03, -1.41045191e-02, -6.47306439e-04
    5554, -5.91095448e-03, -1.40654926e-02, -2.22133423e-19
    5555, -5.83519633e-03, -1.41045191e-02,  6.47306439e-04
    5556, -5.61308465e-03, -1.42189389e-02,  1.25050002e-03
    5557, -4.44307134e-03, -1.16713476e-02, -1.25050002e-03
    5558, -4.67459812e-03, -1.15774282e-02, -6.47306439e-04
    5559, -4.75356759e-03, -1.15453941e-02, -2.22133423e-19
    5560, -4.67459812e-03, -1.15774282e-02,  6.47306439e-04
    5561, -4.44307134e-03, -1.16713476e-02,  1.25050002e-03
    5562, -3.50761538e-03, -9.02860757e-03, -1.25050002e-03
    5563, -3.74666977e-03, -8.95595435e-03, -6.47306439e-04
    5564, -3.82820677e-03, -8.93117370e-03, -2.22133423e-19
    5565, -3.74666977e-03, -8.95595435e-03,  6.47306439e-04
    5566, -3.50761538e-03, -9.02860757e-03,  1.25050002e-03
    5567, -2.81434290e-03, -6.31226336e-03, -1.25050002e-03
    5568, -3.05897606e-03, -6.26146857e-03, -6.47306439e-04
    5569, -3.14241587e-03, -6.24414342e-03, -2.22133423e-19
    5570, -3.05897606e-03, -6.26146857e-03,  6.47306439e-04
    5571, -2.81434290e-03, -6.31226336e-03,  1.25050002e-03
    5572, -2.36890570e-03, -3.54445949e-03, -1.25050002e-03
    5573, -2.61712329e-03, -3.51593722e-03, -6.47306439e-04
    5574, -2.70178568e-03, -3.50620880e-03, -2.22133423e-19
    5575, -2.61712329e-03, -3.51593722e-03,  6.47306439e-04
    5576, -2.36890570e-03, -3.54445949e-03,  1.25050002e-03
    5577, -2.17493512e-03, -7.47760006e-04, -1.25050002e-03
    5578, -2.42471359e-03, -7.41742781e-04, -6.47306439e-04
    5579, -2.50990837e-03, -7.39690417e-04, -2.22133423e-19
    5580, -2.42471359e-03, -7.41742781e-04,  6.47306439e-04
    5581, -2.17493512e-03, -7.47760006e-04,  1.25050002e-03
*ELEMENT, TYPE=SPRINGA, ELSET=WK_0
    4753,     3973,     5318
*SPRING, ELSET=WK_0

4.894732e+00
*ELEMENT, TYPE=SPRINGA, ELSET=WK_1
    4754,     3975,     5319
*SPRING, ELSET=WK_1

4.894732e+00
*ELEMENT, TYPE=SPRINGA, ELSET=WK_2
    4755,     3977,     5320
*SPRING, ELSET=WK_2

4.894732e+00
*ELEMENT, TYPE=SPRINGA, ELSET=WK_3
    4756,     3979,     5321
*SPRING, ELSET=WK_3

4.894732e+00
*ELEMENT, TYPE=SPRINGA, ELSET=WK_4
    4757,     3981,     5322
*SPRING, ELSET=WK_4

4.894732e+00
*ELEMENT, TYPE=SPRINGA, ELSET=WK_5
    4758,     3983,     5323
*SPRING, ELSET=WK_5

4.894732e+00
*ELEMENT, TYPE=SPRINGA, ELSET=WK_6
    4759,     3985,     5324
*SPRING, ELSET=WK_6

4.894732e+00
*ELEMENT, TYPE=SPRINGA, ELSET=WK_7
    4760,     3987,     5325
*SPRING, ELSET=WK_7

9.789465e+00
*ELEMENT, TYPE=SPRINGA, ELSET=WK_8
    4761,     3989,     5326
*SPRING, ELSET=WK_8

9.789465e+00
*ELEMENT, TYPE=SPRINGA, ELSET=WK_9
    4762,     3991,     5327
*SPRING, ELSET=WK_9

9.789465e+00
*ELEMENT, TYPE=SPRINGA, ELSET=WK_10
    4763,     3993,     5328
*SPRING, ELSET=WK_10

9.789465e+00
*ELEMENT, TYPE=SPRINGA, ELSET=WK_11
    4764,     3995,     5329
*SPRING, ELSET=WK_11

9.789465e+00
*ELEMENT, TYPE=SPRINGA, ELSET=WK_12
    4765,     3997,     5330
*SPRING, ELSET=WK_12

9.789465e+00
*ELEMENT, TYPE=SPRINGA, ELSET=WK_13
    4766,     3999,     5331
*SPRING, ELSET=WK_13

9.789465e+00
*ELEMENT, TYPE=SPRINGA, ELSET=WK_14
    4767,     4001,     5332
*SPRING, ELSET=WK_14

9.789465e+00
*ELEMENT, TYPE=SPRINGA, ELSET=WK_15
    4768,     4003,     5333
*SPRING, ELSET=WK_15

9.789465e+00
*ELEMENT, TYPE=SPRINGA, ELSET=WK_16
    4769,     4005,     5334
*SPRING, ELSET=WK_16

9.789465e+00
*ELEMENT, TYPE=SPRINGA, ELSET=WK_17
    4770,     4007,     5335
*SPRING, ELSET=WK_17

9.789465e+00
*ELEMENT, TYPE=SPRINGA, ELSET=WK_18
    4771,     4009,     5336
*SPRING, ELSET=WK_18

9.789465e+00
*ELEMENT, TYPE=SPRINGA, ELSET=WK_19
    4772,     4011,     5337
*SPRING, ELSET=WK_19

9.789465e+00
*ELEMENT, TYPE=SPRINGA, ELSET=WK_20
    4773,     4013,     5338
*SPRING, ELSET=WK_20

9.789465e+00
*ELEMENT, TYPE=SPRINGA, ELSET=WK_21
    4774,     4015,     5339
*SPRING, ELSET=WK_21

9.789465e+00
*ELEMENT, TYPE=SPRINGA, ELSET=WK_22
    4775,     4017,     5340
*SPRING, ELSET=WK_22

9.789465e+00
*ELEMENT, TYPE=SPRINGA, ELSET=WK_23
    4776,     4019,     5341
*SPRING, ELSET=WK_23

9.789465e+00
*ELEMENT, TYPE=SPRINGA, ELSET=WK_24
    4777,     4021,     5342
*SPRING, ELSET=WK_24

9.789465e+00
*ELEMENT, TYPE=SPRINGA, ELSET=WK_25
    4778,     4023,     5343
*SPRING, ELSET=WK_25

9.789465e+00
*ELEMENT, TYPE=SPRINGA, ELSET=WK_26
    4779,     4025,     5344
*SPRING, ELSET=WK_26

9.789465e+00
*ELEMENT, TYPE=SPRINGA, ELSET=WK_27
    4780,     4027,     5345
*SPRING, ELSET=WK_27

9.789465e+00
*ELEMENT, TYPE=SPRINGA, ELSET=WK_28
    4781,     4029,     5346
*SPRING, ELSET=WK_28

9.789465e+00
*ELEMENT, TYPE=SPRINGA, ELSET=WK_29
    4782,     4031,     5347
*SPRING, ELSET=WK_29

9.789465e+00
*ELEMENT, TYPE=SPRINGA, ELSET=WK_30
    4783,     4033,     5348
*SPRING, ELSET=WK_30

9.789465e+00
*ELEMENT, TYPE=SPRINGA, ELSET=WK_31
    4784,     4035,     5349
*SPRING, ELSET=WK_31

9.789465e+00
*ELEMENT, TYPE=SPRINGA, ELSET=WK_32
    4785,     4037,     5350
*SPRING, ELSET=WK_32

9.789465e+00
*ELEMENT, TYPE=SPRINGA, ELSET=WK_33
    4786,     4039,     5351
*SPRING, ELSET=WK_33

9.789465e+00
*ELEMENT, TYPE=SPRINGA, ELSET=WK_34
    4787,     4041,     5352
*SPRING, ELSET=WK_34

9.789465e+00
*ELEMENT, TYPE=SPRINGA, ELSET=WK_35
    4788,     4043,     5353
*SPRING, ELSET=WK_35

9.789465e+00
*ELEMENT, TYPE=SPRINGA, ELSET=WK_36
    4789,     4045,     5354
*SPRING, ELSET=WK_36

9.789465e+00
*ELEMENT, TYPE=SPRINGA, ELSET=WK_37
    4790,     4047,     5355
*SPRING, ELSET=WK_37

9.789465e+00
*ELEMENT, TYPE=SPRINGA, ELSET=WK_38
    4791,     4049,     5356
*SPRING, ELSET=WK_38

9.789465e+00
*ELEMENT, TYPE=SPRINGA, ELSET=WK_39
    4792,     4051,     5357
*SPRING, ELSET=WK_39

9.789465e+00
*ELEMENT, TYPE=SPRINGA, ELSET=WK_40
    4793,     4053,     5358
*SPRING, ELSET=WK_40

9.789465e+00
*ELEMENT, TYPE=SPRINGA, ELSET=WK_41
    4794,     4055,     5359
*SPRING, ELSET=WK_41

9.789465e+00
*ELEMENT, TYPE=SPRINGA, ELSET=WK_42
    4795,     4057,     5360
*SPRING, ELSET=WK_42

9.789465e+00
*ELEMENT, TYPE=SPRINGA, ELSET=WK_43
    4796,     4059,     5361
*SPRING, ELSET=WK_43

9.789465e+00
*ELEMENT, TYPE=SPRINGA, ELSET=WK_44
    4797,     4061,     5362
*SPRING, ELSET=WK_44

9.789465e+00
*ELEMENT, TYPE=SPRINGA, ELSET=WK_45
    4798,     4063,     5363
*SPRING, ELSET=WK_45

9.789465e+00
*ELEMENT, TYPE=SPRINGA, ELSET=WK_46
    4799,     4065,     5364
*SPRING, ELSET=WK_46

9.789465e+00
*ELEMENT, TYPE=SPRINGA, ELSET=WK_47
    4800,     4067,     5365
*SPRING, ELSET=WK_47

9.789465e+00
*ELEMENT, TYPE=SPRINGA, ELSET=WK_48
    4801,     4069,     5366
*SPRING, ELSET=WK_48

9.789465e+00
*ELEMENT, TYPE=SPRINGA, ELSET=WK_49
    4802,     4071,     5367
*SPRING, ELSET=WK_49

9.789465e+00
*ELEMENT, TYPE=SPRINGA, ELSET=WK_50
    4803,     4073,     5368
*SPRING, ELSET=WK_50

9.789465e+00
*ELEMENT, TYPE=SPRINGA, ELSET=WK_51
    4804,     4075,     5369
*SPRING, ELSET=WK_51

9.789465e+00
*ELEMENT, TYPE=SPRINGA, ELSET=WK_52
    4805,     4077,     5370
*SPRING, ELSET=WK_52

9.789465e+00
*ELEMENT, TYPE=SPRINGA, ELSET=WK_53
    4806,     4079,     5371
*SPRING, ELSET=WK_53

9.789465e+00
*ELEMENT, TYPE=SPRINGA, ELSET=WK_54
    4807,     4081,     5372
*SPRING, ELSET=WK_54

9.789465e+00
*ELEMENT, TYPE=SPRINGA, ELSET=WK_55
    4808,     4083,     5373
*SPRING, ELSET=WK_55

9.789465e+00
*ELEMENT, TYPE=SPRINGA, ELSET=WK_56
    4809,     4085,     5374
*SPRING, ELSET=WK_56

9.789465e+00
*ELEMENT, TYPE=SPRINGA, ELSET=WK_57
    4810,     4087,     5375
*SPRING, ELSET=WK_57

9.789465e+00
*ELEMENT, TYPE=SPRINGA, ELSET=WK_58
    4811,     4089,     5376
*SPRING, ELSET=WK_58

9.789465e+00
*ELEMENT, TYPE=SPRINGA, ELSET=WK_59
    4812,     4091,     5377
*SPRING, ELSET=WK_59

9.789465e+00
*ELEMENT, TYPE=SPRINGA, ELSET=WK_60
    4813,     4093,     5378
*SPRING, ELSET=WK_60

9.789465e+00
*ELEMENT, TYPE=SPRINGA, ELSET=WK_61
    4814,     4095,     5379
*SPRING, ELSET=WK_61

9.789465e+00
*ELEMENT, TYPE=SPRINGA, ELSET=WK_62
    4815,     4097,     5380
*SPRING, ELSET=WK_62

9.789465e+00
*ELEMENT, TYPE=SPRINGA, ELSET=WK_63
    4816,     4099,     5381
*SPRING, ELSET=WK_63

9.789465e+00
*ELEMENT, TYPE=SPRINGA, ELSET=WK_64
    4817,     4101,     5382
*SPRING, ELSET=WK_64

9.789465e+00
*ELEMENT, TYPE=SPRINGA, ELSET=WK_65
    4818,     4103,     5383
*SPRING, ELSET=WK_65

9.789465e+00
*ELEMENT, TYPE=SPRINGA, ELSET=WK_66
    4819,     4105,     5384
*SPRING, ELSET=WK_66

9.789465e+00
*ELEMENT, TYPE=SPRINGA, ELSET=WK_67
    4820,     4107,     5385
*SPRING, ELSET=WK_67

9.789465e+00
*ELEMENT, TYPE=SPRINGA, ELSET=WK_68
    4821,     4109,     5386
*SPRING, ELSET=WK_68

9.789465e+00
*ELEMENT, TYPE=SPRINGA, ELSET=WK_69
    4822,     4111,     5387
*SPRING, ELSET=WK_69

9.789465e+00
*ELEMENT, TYPE=SPRINGA, ELSET=WK_70
    4823,     4113,     5388
*SPRING, ELSET=WK_70

4.894732e+00
*ELEMENT, TYPE=SPRINGA, ELSET=WK_71
    4824,     4115,     5389
*SPRING, ELSET=WK_71

4.894732e+00
*ELEMENT, TYPE=SPRINGA, ELSET=WK_72
    4825,     4117,     5390
*SPRING, ELSET=WK_72

4.894732e+00
*ELEMENT, TYPE=SPRINGA, ELSET=WK_73
    4826,     4119,     5391
*SPRING, ELSET=WK_73

4.894732e+00
*ELEMENT, TYPE=SPRINGA, ELSET=WK_74
    4827,     4121,     5392
*SPRING, ELSET=WK_74

4.894732e+00
*ELEMENT, TYPE=SPRINGA, ELSET=WK_75
    4828,     4123,     5393
*SPRING, ELSET=WK_75

4.894732e+00
*ELEMENT, TYPE=SPRINGA, ELSET=WK_76
    4829,     4125,     5394
*SPRING, ELSET=WK_76

4.894732e+00
*ELEMENT, TYPE=SPRINGA, ELSET=WK_77
    4830,     4127,     5395
*SPRING, ELSET=WK_77

4.894732e+00
*ELEMENT, TYPE=SPRINGA, ELSET=WK_78
    4831,     4129,     5396
*SPRING, ELSET=WK_78

4.894732e+00
*ELEMENT, TYPE=SPRINGA, ELSET=WK_79
    4832,     4131,     5397
*SPRING, ELSET=WK_79

4.894732e+00
*ELEMENT, TYPE=SPRINGA, ELSET=WK_80
    4833,     4133,     5398
*SPRING, ELSET=WK_80

4.894732e+00
*ELEMENT, TYPE=SPRINGA, ELSET=WK_81
    4834,     4135,     5399
*SPRING, ELSET=WK_81

4.894732e+00
*ELEMENT, TYPE=SPRINGA, ELSET=WK_82
    4835,     4137,     5400
*SPRING, ELSET=WK_82

4.894732e+00
*ELEMENT, TYPE=SPRINGA, ELSET=WK_83
    4836,     4139,     5401
*SPRING, ELSET=WK_83

9.789465e+00
*ELEMENT, TYPE=SPRINGA, ELSET=WK_84
    4837,     4141,     5402
*SPRING, ELSET=WK_84

9.789465e+00
*ELEMENT, TYPE=SPRINGA, ELSET=WK_85
    4838,     4143,     5403
*SPRING, ELSET=WK_85

9.789465e+00
*ELEMENT, TYPE=SPRINGA, ELSET=WK_86
    4839,     4145,     5404
*SPRING, ELSET=WK_86

9.789465e+00
*ELEMENT, TYPE=SPRINGA, ELSET=WK_87
    4840,     4147,     5405
*SPRING, ELSET=WK_87

9.789465e+00
*ELEMENT, TYPE=SPRINGA, ELSET=WK_88
    4841,     4149,     5406
*SPRING, ELSET=WK_88

9.789465e+00
*ELEMENT, TYPE=SPRINGA, ELSET=WK_89
    4842,     4151,     5407
*SPRING, ELSET=WK_89

9.789465e+00
*ELEMENT, TYPE=SPRINGA, ELSET=WK_90
    4843,     4153,     5408
*SPRING, ELSET=WK_90

9.789465e+00
*ELEMENT, TYPE=SPRINGA, ELSET=WK_91
    4844,     4155,     5409
*SPRING, ELSET=WK_91

9.789465e+00
*ELEMENT, TYPE=SPRINGA, ELSET=WK_92
    4845,     4157,     5410
*SPRING, ELSET=WK_92

9.789465e+00
*ELEMENT, TYPE=SPRINGA, ELSET=WK_93
    4846,     4159,     5411
*SPRING, ELSET=WK_93

9.789465e+00
*ELEMENT, TYPE=SPRINGA, ELSET=WK_94
    4847,     4161,     5412
*SPRING, ELSET=WK_94

9.789465e+00
*ELEMENT, TYPE=SPRINGA, ELSET=WK_95
    4848,     4163,     5413
*SPRING, ELSET=WK_95

9.789465e+00
*ELEMENT, TYPE=SPRINGA, ELSET=WK_96
    4849,     4165,     5414
*SPRING, ELSET=WK_96

9.789465e+00
*ELEMENT, TYPE=SPRINGA, ELSET=WK_97
    4850,     4167,     5415
*SPRING, ELSET=WK_97

9.789465e+00
*ELEMENT, TYPE=SPRINGA, ELSET=WK_98
    4851,     4169,     5416
*SPRING, ELSET=WK_98

9.789465e+00
*ELEMENT, TYPE=SPRINGA, ELSET=WK_99
    4852,     4171,     5417
*SPRING, ELSET=WK_99

9.789465e+00
*ELEMENT, TYPE=SPRINGA, ELSET=WK_100
    4853,     4173,     5418
*SPRING, ELSET=WK_100

9.789465e+00
*ELEMENT, TYPE=SPRINGA, ELSET=WK_101
    4854,     4175,     5419
*SPRING, ELSET=WK_101

9.789465e+00
*ELEMENT, TYPE=SPRINGA, ELSET=WK_102
    4855,     4177,     5420
*SPRING, ELSET=WK_102

9.789465e+00
*ELEMENT, TYPE=SPRINGA, ELSET=WK_103
    4856,     4179,     5421
*SPRING, ELSET=WK_103

9.789465e+00
*ELEMENT, TYPE=SPRINGA, ELSET=WK_104
    4857,     4181,     5422
*SPRING, ELSET=WK_104

9.789465e+00
*ELEMENT, TYPE=SPRINGA, ELSET=WK_105
    4858,     4183,     5423
*SPRING, ELSET=WK_105

9.789465e+00
*ELEMENT, TYPE=SPRINGA, ELSET=WK_106
    4859,     4185,     5424
*SPRING, ELSET=WK_106

9.789465e+00
*ELEMENT, TYPE=SPRINGA, ELSET=WK_107
    4860,     4187,     5425
*SPRING, ELSET=WK_107

9.789465e+00
*ELEMENT, TYPE=SPRINGA, ELSET=WK_108
    4861,     4189,     5426
*SPRING, ELSET=WK_108

9.789465e+00
*ELEMENT, TYPE=SPRINGA, ELSET=WK_109
    4862,     4191,     5427
*SPRING, ELSET=WK_109

9.789465e+00
*ELEMENT, TYPE=SPRINGA, ELSET=WK_110
    4863,     4193,     5428
*SPRING, ELSET=WK_110

9.789465e+00
*ELEMENT, TYPE=SPRINGA, ELSET=WK_111
    4864,     4195,     5429
*SPRING, ELSET=WK_111

9.789465e+00
*ELEMENT, TYPE=SPRINGA, ELSET=WK_112
    4865,     4197,     5430
*SPRING, ELSET=WK_112

9.789465e+00
*ELEMENT, TYPE=SPRINGA, ELSET=WK_113
    4866,     4199,     5431
*SPRING, ELSET=WK_113

9.789465e+00
*ELEMENT, TYPE=SPRINGA, ELSET=WK_114
    4867,     4201,     5432
*SPRING, ELSET=WK_114

9.789465e+00
*ELEMENT, TYPE=SPRINGA, ELSET=WK_115
    4868,     4203,     5433
*SPRING, ELSET=WK_115

9.789465e+00
*ELEMENT, TYPE=SPRINGA, ELSET=WK_116
    4869,     4205,     5434
*SPRING, ELSET=WK_116

9.789465e+00
*ELEMENT, TYPE=SPRINGA, ELSET=WK_117
    4870,     4207,     5435
*SPRING, ELSET=WK_117

9.789465e+00
*ELEMENT, TYPE=SPRINGA, ELSET=WK_118
    4871,     4209,     5436
*SPRING, ELSET=WK_118

9.789465e+00
*ELEMENT, TYPE=SPRINGA, ELSET=WK_119
    4872,     4211,     5437
*SPRING, ELSET=WK_119

9.789465e+00
*ELEMENT, TYPE=SPRINGA, ELSET=WK_120
    4873,     4213,     5438
*SPRING, ELSET=WK_120

9.789465e+00
*ELEMENT, TYPE=SPRINGA, ELSET=WK_121
    4874,     4215,     5439
*SPRING, ELSET=WK_121

9.789465e+00
*ELEMENT, TYPE=SPRINGA, ELSET=WK_122
    4875,     4217,     5440
*SPRING, ELSET=WK_122

9.789465e+00
*ELEMENT, TYPE=SPRINGA, ELSET=WK_123
    4876,     4219,     5441
*SPRING, ELSET=WK_123

9.789465e+00
*ELEMENT, TYPE=SPRINGA, ELSET=WK_124
    4877,     4221,     5442
*SPRING, ELSET=WK_124

9.789465e+00
*ELEMENT, TYPE=SPRINGA, ELSET=WK_125
    4878,     4223,     5443
*SPRING, ELSET=WK_125

9.789465e+00
*ELEMENT, TYPE=SPRINGA, ELSET=WK_126
    4879,     4225,     5444
*SPRING, ELSET=WK_126

9.789465e+00
*ELEMENT, TYPE=SPRINGA, ELSET=WK_127
    4880,     4227,     5445
*SPRING, ELSET=WK_127

9.789465e+00
*ELEMENT, TYPE=SPRINGA, ELSET=WK_128
    4881,     4229,     5446
*SPRING, ELSET=WK_128

9.789465e+00
*ELEMENT, TYPE=SPRINGA, ELSET=WK_129
    4882,     4231,     5447
*SPRING, ELSET=WK_129

9.789465e+00
*ELEMENT, TYPE=SPRINGA, ELSET=WK_130
    4883,     4233,     5448
*SPRING, ELSET=WK_130

9.789465e+00
*ELEMENT, TYPE=SPRINGA, ELSET=WK_131
    4884,     4235,     5449
*SPRING, ELSET=WK_131

9.789465e+00
*ELEMENT, TYPE=SPRINGA, ELSET=WK_132
    4885,     4237,     5450
*SPRING, ELSET=WK_132

9.789465e+00
*ELEMENT, TYPE=SPRINGA, ELSET=WK_133
    4886,     4239,     5451
*SPRING, ELSET=WK_133

9.789465e+00
*ELEMENT, TYPE=SPRINGA, ELSET=WK_134
    4887,     4241,     5452
*SPRING, ELSET=WK_134

9.789465e+00
*ELEMENT, TYPE=SPRINGA, ELSET=WK_135
    4888,     4243,     5453
*SPRING, ELSET=WK_135

9.789465e+00
*ELEMENT, TYPE=SPRINGA, ELSET=WK_136
    4889,     4245,     5454
*SPRING, ELSET=WK_136

9.789465e+00
*ELEMENT, TYPE=SPRINGA, ELSET=WK_137
    4890,     4247,     5455
*SPRING, ELSET=WK_137

4.894732e+00
*ELEMENT, TYPE=SPRINGA, ELSET=WK_138
    4891,     4249,     5456
*SPRING, ELSET=WK_138

4.894732e+00
*ELEMENT, TYPE=SPRINGA, ELSET=WK_139
    4892,     4251,     5457
*SPRING, ELSET=WK_139

4.894732e+00
*ELEMENT, TYPE=SPRINGA, ELSET=WK_140
    4893,     4253,     5458
*SPRING, ELSET=WK_140

4.894732e+00
*ELEMENT, TYPE=SPRINGA, ELSET=WK_141
    4894,     4255,     5459
*SPRING, ELSET=WK_141

4.894732e+00
*ELEMENT, TYPE=SPRINGA, ELSET=WK_142
    4895,     4257,     5460
*SPRING, ELSET=WK_142

4.894732e+00
*ELEMENT, TYPE=SPRINGA, ELSET=WK_143
    4896,     4259,     5461
*SPRING, ELSET=WK_143

4.894732e+00
*ELEMENT, TYPE=SPRINGA, ELSET=WK_144
    4897,     4261,     5462
*SPRING, ELSET=WK_144

4.894732e+00
*ELEMENT, TYPE=SPRINGA, ELSET=WK_145
    4898,     4263,     5463
*SPRING, ELSET=WK_145

4.894732e+00
*ELEMENT, TYPE=SPRINGA, ELSET=WK_146
    4899,     4265,     5464
*SPRING, ELSET=WK_146

4.894732e+00
*ELEMENT, TYPE=SPRINGA, ELSET=WK_147
    4900,     4267,     5465
*SPRING, ELSET=WK_147

4.894732e+00
*ELEMENT, TYPE=SPRINGA, ELSET=WK_148
    4901,     4269,     5466
*SPRING, ELSET=WK_148

4.894732e+00
*ELEMENT, TYPE=SPRINGA, ELSET=WK_149
    4902,     4271,     5467
*SPRING, ELSET=WK_149

9.789465e+00
*ELEMENT, TYPE=SPRINGA, ELSET=WK_150
    4903,     4273,     5468
*SPRING, ELSET=WK_150

9.789465e+00
*ELEMENT, TYPE=SPRINGA, ELSET=WK_151
    4904,     4275,     5469
*SPRING, ELSET=WK_151

9.789465e+00
*ELEMENT, TYPE=SPRINGA, ELSET=WK_152
    4905,     4277,     5470
*SPRING, ELSET=WK_152

9.789465e+00
*ELEMENT, TYPE=SPRINGA, ELSET=WK_153
    4906,     4279,     5471
*SPRING, ELSET=WK_153

9.789465e+00
*ELEMENT, TYPE=SPRINGA, ELSET=WK_154
    4907,     4281,     5472
*SPRING, ELSET=WK_154

9.789465e+00
*ELEMENT, TYPE=SPRINGA, ELSET=WK_155
    4908,     4283,     5473
*SPRING, ELSET=WK_155

9.789465e+00
*ELEMENT, TYPE=SPRINGA, ELSET=WK_156
    4909,     4285,     5474
*SPRING, ELSET=WK_156

9.789465e+00
*ELEMENT, TYPE=SPRINGA, ELSET=WK_157
    4910,     4287,     5475
*SPRING, ELSET=WK_157

9.789465e+00
*ELEMENT, TYPE=SPRINGA, ELSET=WK_158
    4911,     4289,     5476
*SPRING, ELSET=WK_158

9.789465e+00
*ELEMENT, TYPE=SPRINGA, ELSET=WK_159
    4912,     4291,     5477
*SPRING, ELSET=WK_159

9.789465e+00
*ELEMENT, TYPE=SPRINGA, ELSET=WK_160
    4913,     4293,     5478
*SPRING, ELSET=WK_160

9.789465e+00
*ELEMENT, TYPE=SPRINGA, ELSET=WK_161
    4914,     4295,     5479
*SPRING, ELSET=WK_161

9.789465e+00
*ELEMENT, TYPE=SPRINGA, ELSET=WK_162
    4915,     4297,     5480
*SPRING, ELSET=WK_162

9.789465e+00
*ELEMENT, TYPE=SPRINGA, ELSET=WK_163
    4916,     4299,     5481
*SPRING, ELSET=WK_163

9.789465e+00
*ELEMENT, TYPE=SPRINGA, ELSET=WK_164
    4917,     4301,     5482
*SPRING, ELSET=WK_164

9.789465e+00
*ELEMENT, TYPE=SPRINGA, ELSET=WK_165
    4918,     4303,     5483
*SPRING, ELSET=WK_165

9.789465e+00
*ELEMENT, TYPE=SPRINGA, ELSET=WK_166
    4919,     4305,     5484
*SPRING, ELSET=WK_166

9.789465e+00
*ELEMENT, TYPE=SPRINGA, ELSET=WK_167
    4920,     4307,     5485
*SPRING, ELSET=WK_167

9.789465e+00
*ELEMENT, TYPE=SPRINGA, ELSET=WK_168
    4921,     4309,     5486
*SPRING, ELSET=WK_168

9.789465e+00
*ELEMENT, TYPE=SPRINGA, ELSET=WK_169
    4922,     4311,     5487
*SPRING, ELSET=WK_169

9.789465e+00
*ELEMENT, TYPE=SPRINGA, ELSET=WK_170
    4923,     4313,     5488
*SPRING, ELSET=WK_170

9.789465e+00
*ELEMENT, TYPE=SPRINGA, ELSET=WK_171
    4924,     4315,     5489
*SPRING, ELSET=WK_171

9.789465e+00
*ELEMENT, TYPE=SPRINGA, ELSET=WK_172
    4925,     4317,     5490
*SPRING, ELSET=WK_172

9.789465e+00
*ELEMENT, TYPE=SPRINGA, ELSET=WK_173
    4926,     4319,     5491
*SPRING, ELSET=WK_173

9.789465e+00
*ELEMENT, TYPE=SPRINGA, ELSET=WK_174
    4927,     4321,     5492
*SPRING, ELSET=WK_174

9.789465e+00
*ELEMENT, TYPE=SPRINGA, ELSET=WK_175
    4928,     4323,     5493
*SPRING, ELSET=WK_175

9.789465e+00
*ELEMENT, TYPE=SPRINGA, ELSET=WK_176
    4929,     4325,     5494
*SPRING, ELSET=WK_176

9.789465e+00
*ELEMENT, TYPE=SPRINGA, ELSET=WK_177
    4930,     4327,     5495
*SPRING, ELSET=WK_177

9.789465e+00
*ELEMENT, TYPE=SPRINGA, ELSET=WK_178
    4931,     4329,     5496
*SPRING, ELSET=WK_178

9.789465e+00
*ELEMENT, TYPE=SPRINGA, ELSET=WK_179
    4932,     4331,     5497
*SPRING, ELSET=WK_179

9.789465e+00
*ELEMENT, TYPE=SPRINGA, ELSET=WK_180
    4933,     4333,     5498
*SPRING, ELSET=WK_180

9.789465e+00
*ELEMENT, TYPE=SPRINGA, ELSET=WK_181
    4934,     4335,     5499
*SPRING, ELSET=WK_181

9.789465e+00
*ELEMENT, TYPE=SPRINGA, ELSET=WK_182
    4935,     4337,     5500
*SPRING, ELSET=WK_182

9.789465e+00
*ELEMENT, TYPE=SPRINGA, ELSET=WK_183
    4936,     4339,     5501
*SPRING, ELSET=WK_183

9.789465e+00
*ELEMENT, TYPE=SPRINGA, ELSET=WK_184
    4937,     4341,     5502
*SPRING, ELSET=WK_184

9.789465e+00
*ELEMENT, TYPE=SPRINGA, ELSET=WK_185
    4938,     4343,     5503
*SPRING, ELSET=WK_185

9.789465e+00
*ELEMENT, TYPE=SPRINGA, ELSET=WK_186
    4939,     4345,     5504
*SPRING, ELSET=WK_186

9.789465e+00
*ELEMENT, TYPE=SPRINGA, ELSET=WK_187
    4940,     4347,     5505
*SPRING, ELSET=WK_187

9.789465e+00
*ELEMENT, TYPE=SPRINGA, ELSET=WK_188
    4941,     4349,     5506
*SPRING, ELSET=WK_188

9.789465e+00
*ELEMENT, TYPE=SPRINGA, ELSET=WK_189
    4942,     4351,     5507
*SPRING, ELSET=WK_189

9.789465e+00
*ELEMENT, TYPE=SPRINGA, ELSET=WK_190
    4943,     4353,     5508
*SPRING, ELSET=WK_190

9.789465e+00
*ELEMENT, TYPE=SPRINGA, ELSET=WK_191
    4944,     4355,     5509
*SPRING, ELSET=WK_191

9.789465e+00
*ELEMENT, TYPE=SPRINGA, ELSET=WK_192
    4945,     4357,     5510
*SPRING, ELSET=WK_192

9.789465e+00
*ELEMENT, TYPE=SPRINGA, ELSET=WK_193
    4946,     4359,     5511
*SPRING, ELSET=WK_193

9.789465e+00
*ELEMENT, TYPE=SPRINGA, ELSET=WK_194
    4947,     4361,     5512
*SPRING, ELSET=WK_194

9.789465e+00
*ELEMENT, TYPE=SPRINGA, ELSET=WK_195
    4948,     4363,     5513
*SPRING, ELSET=WK_195

9.789465e+00
*ELEMENT, TYPE=SPRINGA, ELSET=WK_196
    4949,     4365,     5514
*SPRING, ELSET=WK_196

9.789465e+00
*ELEMENT, TYPE=SPRINGA, ELSET=WK_197
    4950,     4367,     5515
*SPRING, ELSET=WK_197

9.789465e+00
*ELEMENT, TYPE=SPRINGA, ELSET=WK_198
    4951,     4369,     5516
*SPRING, ELSET=WK_198

9.789465e+00
*ELEMENT, TYPE=SPRINGA, ELSET=WK_199
    4952,     4371,     5517
*SPRING, ELSET=WK_199

9.789465e+00
*ELEMENT, TYPE=SPRINGA, ELSET=WK_200
    4953,     4373,     5518
*SPRING, ELSET=WK_200

9.789465e+00
*ELEMENT, TYPE=SPRINGA, ELSET=WK_201
    4954,     4375,     5519
*SPRING, ELSET=WK_201

9.789465e+00
*ELEMENT, TYPE=SPRINGA, ELSET=WK_202
    4955,     4377,     5520
*SPRING, ELSET=WK_202

9.789465e+00
*ELEMENT, TYPE=SPRINGA, ELSET=WK_203
    4956,     4379,     5521
*SPRING, ELSET=WK_203

4.894732e+00
*ELEMENT, TYPE=SPRINGA, ELSET=WK_204
    4957,     4381,     5522
*SPRING, ELSET=WK_204

4.894732e+00
*ELEMENT, TYPE=SPRINGA, ELSET=WK_205
    4958,     4383,     5523
*SPRING, ELSET=WK_205

4.894732e+00
*ELEMENT, TYPE=SPRINGA, ELSET=WK_206
    4959,     4385,     5524
*SPRING, ELSET=WK_206

4.894732e+00
*ELEMENT, TYPE=SPRINGA, ELSET=WK_207
    4960,     4387,     5525
*SPRING, ELSET=WK_207

4.894732e+00
*ELEMENT, TYPE=SPRINGA, ELSET=WK_208
    4961,     4389,     5526
*SPRING, ELSET=WK_208

4.894732e+00
*ELEMENT, TYPE=SPRINGA, ELSET=WK_209
    4962,     4391,     5527
*SPRING, ELSET=WK_209

4.894732e+00
*ELEMENT, TYPE=SPRINGA, ELSET=WK_210
    4963,     4393,     5528
*SPRING, ELSET=WK_210

4.894732e+00
*ELEMENT, TYPE=SPRINGA, ELSET=WK_211
    4964,     4395,     5529
*SPRING, ELSET=WK_211

4.894732e+00
*ELEMENT, TYPE=SPRINGA, ELSET=WK_212
    4965,     4397,     5530
*SPRING, ELSET=WK_212

4.894732e+00
*ELEMENT, TYPE=SPRINGA, ELSET=WK_213
    4966,     4399,     5531
*SPRING, ELSET=WK_213

4.894732e+00
*ELEMENT, TYPE=SPRINGA, ELSET=WK_214
    4967,     4401,     5532
*SPRING, ELSET=WK_214

9.789465e+00
*ELEMENT, TYPE=SPRINGA, ELSET=WK_215
    4968,     4403,     5533
*SPRING, ELSET=WK_215

9.789465e+00
*ELEMENT, TYPE=SPRINGA, ELSET=WK_216
    4969,     4405,     5534
*SPRING, ELSET=WK_216

9.789465e+00
*ELEMENT, TYPE=SPRINGA, ELSET=WK_217
    4970,     4407,     5535
*SPRING, ELSET=WK_217

9.789465e+00
*ELEMENT, TYPE=SPRINGA, ELSET=WK_218
    4971,     4409,     5536
*SPRING, ELSET=WK_218

9.789465e+00
*ELEMENT, TYPE=SPRINGA, ELSET=WK_219
    4972,     4411,     5537
*SPRING, ELSET=WK_219

9.789465e+00
*ELEMENT, TYPE=SPRINGA, ELSET=WK_220
    4973,     4413,     5538
*SPRING, ELSET=WK_220

9.789465e+00
*ELEMENT, TYPE=SPRINGA, ELSET=WK_221
    4974,     4415,     5539
*SPRING, ELSET=WK_221

9.789465e+00
*ELEMENT, TYPE=SPRINGA, ELSET=WK_222
    4975,     4417,     5540
*SPRING, ELSET=WK_222

9.789465e+00
*ELEMENT, TYPE=SPRINGA, ELSET=WK_223
    4976,     4419,     5541
*SPRING, ELSET=WK_223

9.789465e+00
*ELEMENT, TYPE=SPRINGA, ELSET=WK_224
    4977,     4421,     5542
*SPRING, ELSET=WK_224

9.789465e+00
*ELEMENT, TYPE=SPRINGA, ELSET=WK_225
    4978,     4423,     5543
*SPRING, ELSET=WK_225

9.789465e+00
*ELEMENT, TYPE=SPRINGA, ELSET=WK_226
    4979,     4425,     5544
*SPRING, ELSET=WK_226

9.789465e+00
*ELEMENT, TYPE=SPRINGA, ELSET=WK_227
    4980,     4427,     5545
*SPRING, ELSET=WK_227

9.789465e+00
*ELEMENT, TYPE=SPRINGA, ELSET=WK_228
    4981,     4429,     5546
*SPRING, ELSET=WK_228

9.789465e+00
*ELEMENT, TYPE=SPRINGA, ELSET=WK_229
    4982,     4431,     5547
*SPRING, ELSET=WK_229

9.789465e+00
*ELEMENT, TYPE=SPRINGA, ELSET=WK_230
    4983,     4433,     5548
*SPRING, ELSET=WK_230

9.789465e+00
*ELEMENT, TYPE=SPRINGA, ELSET=WK_231
    4984,     4435,     5549
*SPRING, ELSET=WK_231

9.789465e+00
*ELEMENT, TYPE=SPRINGA, ELSET=WK_232
    4985,     4437,     5550
*SPRING, ELSET=WK_232

9.789465e+00
*ELEMENT, TYPE=SPRINGA, ELSET=WK_233
    4986,     4439,     5551
*SPRING, ELSET=WK_233

9.789465e+00
*ELEMENT, TYPE=SPRINGA, ELSET=WK_234
    4987,     4441,     5552
*SPRING, ELSET=WK_234

9.789465e+00
*ELEMENT, TYPE=SPRINGA, ELSET=WK_235
    4988,     4443,     5553
*SPRING, ELSET=WK_235

9.789465e+00
*ELEMENT, TYPE=SPRINGA, ELSET=WK_236
    4989,     4445,     5554
*SPRING, ELSET=WK_236

9.789465e+00
*ELEMENT, TYPE=SPRINGA, ELSET=WK_237
    4990,     4447,     5555
*SPRING, ELSET=WK_237

9.789465e+00
*ELEMENT, TYPE=SPRINGA, ELSET=WK_238
    4991,     4449,     5556
*SPRING, ELSET=WK_238

9.789465e+00
*ELEMENT, TYPE=SPRINGA, ELSET=WK_239
    4992,     4451,     5557
*SPRING, ELSET=WK_239

9.789465e+00
*ELEMENT, TYPE=SPRINGA, ELSET=WK_240
    4993,     4453,     5558
*SPRING, ELSET=WK_240

9.789465e+00
*ELEMENT, TYPE=SPRINGA, ELSET=WK_241
    4994,     4455,     5559
*SPRING, ELSET=WK_241

9.789465e+00
*ELEMENT, TYPE=SPRINGA, ELSET=WK_242
    4995,     4457,     5560
*SPRING, ELSET=WK_242

9.789465e+00
*ELEMENT, TYPE=SPRINGA, ELSET=WK_243
    4996,     4459,     5561
*SPRING, ELSET=WK_243

9.789465e+00
*ELEMENT, TYPE=SPRINGA, ELSET=WK_244
    4997,     4461,     5562
*SPRING, ELSET=WK_244

9.789465e+00
*ELEMENT, TYPE=SPRINGA, ELSET=WK_245
    4998,     4463,     5563
*SPRING, ELSET=WK_245

9.789465e+00
*ELEMENT, TYPE=SPRINGA, ELSET=WK_246
    4999,     4465,     5564
*SPRING, ELSET=WK_246

9.789465e+00
*ELEMENT, TYPE=SPRINGA, ELSET=WK_247
    5000,     4467,     5565
*SPRING, ELSET=WK_247

9.789465e+00
*ELEMENT, TYPE=SPRINGA, ELSET=WK_248
    5001,     4469,     5566
*SPRING, ELSET=WK_248

9.789465e+00
*ELEMENT, TYPE=SPRINGA, ELSET=WK_249
    5002,     4471,     5567
*SPRING, ELSET=WK_249

9.789465e+00
*ELEMENT, TYPE=SPRINGA, ELSET=WK_250
    5003,     4473,     5568
*SPRING, ELSET=WK_250

9.789465e+00
*ELEMENT, TYPE=SPRINGA, ELSET=WK_251
    5004,     4475,     5569
*SPRING, ELSET=WK_251

9.789465e+00
*ELEMENT, TYPE=SPRINGA, ELSET=WK_252
    5005,     4477,     5570
*SPRING, ELSET=WK_252

9.789465e+00
*ELEMENT, TYPE=SPRINGA, ELSET=WK_253
    5006,     4479,     5571
*SPRING, ELSET=WK_253

9.789465e+00
*ELEMENT, TYPE=SPRINGA, ELSET=WK_254
    5007,     4481,     5572
*SPRING, ELSET=WK_254

9.789465e+00
*ELEMENT, TYPE=SPRINGA, ELSET=WK_255
    5008,     4483,     5573
*SPRING, ELSET=WK_255

9.789465e+00
*ELEMENT, TYPE=SPRINGA, ELSET=WK_256
    5009,     4485,     5574
*SPRING, ELSET=WK_256

9.789465e+00
*ELEMENT, TYPE=SPRINGA, ELSET=WK_257
    5010,     4487,     5575
*SPRING, ELSET=WK_257

9.789465e+00
*ELEMENT, TYPE=SPRINGA, ELSET=WK_258
    5011,     4489,     5576
*SPRING, ELSET=WK_258

9.789465e+00
*ELEMENT, TYPE=SPRINGA, ELSET=WK_259
    5012,     4491,     5577
*SPRING, ELSET=WK_259

4.894732e+00
*ELEMENT, TYPE=SPRINGA, ELSET=WK_260
    5013,     4493,     5578
*SPRING, ELSET=WK_260

4.894732e+00
*ELEMENT, TYPE=SPRINGA, ELSET=WK_261
    5014,     4495,     5579
*SPRING, ELSET=WK_261

4.894732e+00
*ELEMENT, TYPE=SPRINGA, ELSET=WK_262
    5015,     4497,     5580
*SPRING, ELSET=WK_262

4.894732e+00
*ELEMENT, TYPE=SPRINGA, ELSET=WK_263
    5016,     4499,     5581
*SPRING, ELSET=WK_263

4.894732e+00
*BOUNDARY
GHOST_WINKLER, 1, 3, 0
