** Malha C3D8I gerada por foam_polymesh_to_ccx_inp.py
** Origem: ../solid/constant/polyMesh
*NODE, NSET=NALL
       1,  7.50000000e-04,  7.50000000e-04,  0.00000000e+00
       2,  2.50000000e-04,  7.50000000e-04,  0.00000000e+00
       3, -2.50000000e-04,  7.50000000e-04,  0.00000000e+00
       4, -7.50000000e-04,  7.50000000e-04,  0.00000000e+00
       5,  7.50000000e-04,  2.50000000e-04,  0.00000000e+00
       6,  2.50000000e-04,  2.50000000e-04,  0.00000000e+00
       7, -2.50000000e-04,  2.50000000e-04,  0.00000000e+00
       8, -7.50000000e-04,  2.50000000e-04,  0.00000000e+00
       9,  7.50000000e-04, -2.50000000e-04,  0.00000000e+00
      10,  2.50000000e-04, -2.50000000e-04,  0.00000000e+00
      11, -2.50000000e-04, -2.50000000e-04,  0.00000000e+00
      12, -7.50000000e-04, -2.50000000e-04,  0.00000000e+00
      13,  7.50000000e-04, -7.50000000e-04,  0.00000000e+00
      14,  2.50000000e-04, -7.50000000e-04,  0.00000000e+00
      15, -2.50000000e-04, -7.50000000e-04,  0.00000000e+00
      16, -7.50000000e-04, -7.50000000e-04,  0.00000000e+00
      17,  7.50000000e-04,  7.50000000e-04,  6.00000000e-03
      18,  2.50000000e-04,  7.50000000e-04,  6.00000000e-03
      19, -2.50000000e-04,  7.50000000e-04,  6.00000000e-03
      20, -7.50000000e-04,  7.50000000e-04,  6.00000000e-03
      21,  7.50000000e-04,  2.50000000e-04,  6.00000000e-03
      22,  2.50000000e-04,  2.50000000e-04,  6.00000000e-03
      23, -2.50000000e-04,  2.50000000e-04,  6.00000000e-03
      24, -7.50000000e-04,  2.50000000e-04,  6.00000000e-03
      25,  7.50000000e-04, -2.50000000e-04,  6.00000000e-03
      26,  2.50000000e-04, -2.50000000e-04,  6.00000000e-03
      27, -2.50000000e-04, -2.50000000e-04,  6.00000000e-03
      28, -7.50000000e-04, -2.50000000e-04,  6.00000000e-03
      29,  7.50000000e-04, -7.50000000e-04,  6.00000000e-03
      30,  2.50000000e-04, -7.50000000e-04,  6.00000000e-03
      31, -2.50000000e-04, -7.50000000e-04,  6.00000000e-03
      32, -7.50000000e-04, -7.50000000e-04,  6.00000000e-03
      33,  7.50000000e-04,  7.50000000e-04,  1.20000000e-02
      34,  2.50000000e-04,  7.50000000e-04,  1.20000000e-02
      35, -2.50000000e-04,  7.50000000e-04,  1.20000000e-02
      36, -7.50000000e-04,  7.50000000e-04,  1.20000000e-02
      37,  7.50000000e-04,  2.50000000e-04,  1.20000000e-02
      38,  2.50000000e-04,  2.50000000e-04,  1.20000000e-02
      39, -2.50000000e-04,  2.50000000e-04,  1.20000000e-02
      40, -7.50000000e-04,  2.50000000e-04,  1.20000000e-02
      41,  7.50000000e-04, -2.50000000e-04,  1.20000000e-02
      42,  2.50000000e-04, -2.50000000e-04,  1.20000000e-02
      43, -2.50000000e-04, -2.50000000e-04,  1.20000000e-02
      44, -7.50000000e-04, -2.50000000e-04,  1.20000000e-02
      45,  7.50000000e-04, -7.50000000e-04,  1.20000000e-02
      46,  2.50000000e-04, -7.50000000e-04,  1.20000000e-02
      47, -2.50000000e-04, -7.50000000e-04,  1.20000000e-02
      48, -7.50000000e-04, -7.50000000e-04,  1.20000000e-02
      49,  7.50000000e-04,  7.50000000e-04,  1.80000000e-02
      50,  2.50000000e-04,  7.50000000e-04,  1.80000000e-02
      51, -2.50000000e-04,  7.50000000e-04,  1.80000000e-02
      52, -7.50000000e-04,  7.50000000e-04,  1.80000000e-02
      53,  7.50000000e-04,  2.50000000e-04,  1.80000000e-02
      54,  2.50000000e-04,  2.50000000e-04,  1.80000000e-02
      55, -2.50000000e-04,  2.50000000e-04,  1.80000000e-02
      56, -7.50000000e-04,  2.50000000e-04,  1.80000000e-02
      57,  7.50000000e-04, -2.50000000e-04,  1.80000000e-02
      58,  2.50000000e-04, -2.50000000e-04,  1.80000000e-02
      59, -2.50000000e-04, -2.50000000e-04,  1.80000000e-02
      60, -7.50000000e-04, -2.50000000e-04,  1.80000000e-02
      61,  7.50000000e-04, -7.50000000e-04,  1.80000000e-02
      62,  2.50000000e-04, -7.50000000e-04,  1.80000000e-02
      63, -2.50000000e-04, -7.50000000e-04,  1.80000000e-02
      64, -7.50000000e-04, -7.50000000e-04,  1.80000000e-02
      65,  7.50000000e-04,  7.50000000e-04,  2.40000000e-02
      66,  2.50000000e-04,  7.50000000e-04,  2.40000000e-02
      67, -2.50000000e-04,  7.50000000e-04,  2.40000000e-02
      68, -7.50000000e-04,  7.50000000e-04,  2.40000000e-02
      69,  7.50000000e-04,  2.50000000e-04,  2.40000000e-02
      70,  2.50000000e-04,  2.50000000e-04,  2.40000000e-02
      71, -2.50000000e-04,  2.50000000e-04,  2.40000000e-02
      72, -7.50000000e-04,  2.50000000e-04,  2.40000000e-02
      73,  7.50000000e-04, -2.50000000e-04,  2.40000000e-02
      74,  2.50000000e-04, -2.50000000e-04,  2.40000000e-02
      75, -2.50000000e-04, -2.50000000e-04,  2.40000000e-02
      76, -7.50000000e-04, -2.50000000e-04,  2.40000000e-02
      77,  7.50000000e-04, -7.50000000e-04,  2.40000000e-02
      78,  2.50000000e-04, -7.50000000e-04,  2.40000000e-02
      79, -2.50000000e-04, -7.50000000e-04,  2.40000000e-02
      80, -7.50000000e-04, -7.50000000e-04,  2.40000000e-02
      81,  7.50000000e-04,  7.50000000e-04,  3.00000000e-02
      82,  2.50000000e-04,  7.50000000e-04,  3.00000000e-02
      83, -2.50000000e-04,  7.50000000e-04,  3.00000000e-02
      84, -7.50000000e-04,  7.50000000e-04,  3.00000000e-02
      85,  7.50000000e-04,  2.50000000e-04,  3.00000000e-02
      86,  2.50000000e-04,  2.50000000e-04,  3.00000000e-02
      87, -2.50000000e-04,  2.50000000e-04,  3.00000000e-02
      88, -7.50000000e-04,  2.50000000e-04,  3.00000000e-02
      89,  7.50000000e-04, -2.50000000e-04,  3.00000000e-02
      90,  2.50000000e-04, -2.50000000e-04,  3.00000000e-02
      91, -2.50000000e-04, -2.50000000e-04,  3.00000000e-02
      92, -7.50000000e-04, -2.50000000e-04,  3.00000000e-02
      93,  7.50000000e-04, -7.50000000e-04,  3.00000000e-02
      94,  2.50000000e-04, -7.50000000e-04,  3.00000000e-02
      95, -2.50000000e-04, -7.50000000e-04,  3.00000000e-02
      96, -7.50000000e-04, -7.50000000e-04,  3.00000000e-02
      97,  8.53553333e-04, -8.53553333e-04,  0.00000000e+00
      98,  9.57106667e-04, -9.57106667e-04,  0.00000000e+00
      99,  1.06066000e-03, -1.06066000e-03,  0.00000000e+00
     100,  9.82962906e-04, -2.96076181e-04,  0.00000000e+00
     101,  1.21592581e-03, -3.42152361e-04,  0.00000000e+00
     102,  1.44888872e-03, -3.88228542e-04,  0.00000000e+00
     103,  9.82962906e-04,  2.96076181e-04,  0.00000000e+00
     104,  1.21592581e-03,  3.42152361e-04,  0.00000000e+00
     105,  1.44888872e-03,  3.88228542e-04,  0.00000000e+00
     106,  8.53553333e-04,  8.53553333e-04,  0.00000000e+00
     107,  9.57106667e-04,  9.57106667e-04,  0.00000000e+00
     108,  1.06066000e-03,  1.06066000e-03,  0.00000000e+00
     109,  8.53553333e-04, -8.53553333e-04,  6.00000000e-03
     110,  9.57106667e-04, -9.57106667e-04,  6.00000000e-03
     111,  1.06066000e-03, -1.06066000e-03,  6.00000000e-03
     112,  9.82962906e-04, -2.96076181e-04,  6.00000000e-03
     113,  1.21592581e-03, -3.42152361e-04,  6.00000000e-03
     114,  1.44888872e-03, -3.88228542e-04,  6.00000000e-03
     115,  9.82962906e-04,  2.96076181e-04,  6.00000000e-03
     116,  1.21592581e-03,  3.42152361e-04,  6.00000000e-03
     117,  1.44888872e-03,  3.88228542e-04,  6.00000000e-03
     118,  8.53553333e-04,  8.53553333e-04,  6.00000000e-03
     119,  9.57106667e-04,  9.57106667e-04,  6.00000000e-03
     120,  1.06066000e-03,  1.06066000e-03,  6.00000000e-03
     121,  8.53553333e-04, -8.53553333e-04,  1.20000000e-02
     122,  9.57106667e-04, -9.57106667e-04,  1.20000000e-02
     123,  1.06066000e-03, -1.06066000e-03,  1.20000000e-02
     124,  9.82962906e-04, -2.96076181e-04,  1.20000000e-02
     125,  1.21592581e-03, -3.42152361e-04,  1.20000000e-02
     126,  1.44888872e-03, -3.88228542e-04,  1.20000000e-02
     127,  9.82962906e-04,  2.96076181e-04,  1.20000000e-02
     128,  1.21592581e-03,  3.42152361e-04,  1.20000000e-02
     129,  1.44888872e-03,  3.88228542e-04,  1.20000000e-02
     130,  8.53553333e-04,  8.53553333e-04,  1.20000000e-02
     131,  9.57106667e-04,  9.57106667e-04,  1.20000000e-02
     132,  1.06066000e-03,  1.06066000e-03,  1.20000000e-02
     133,  8.53553333e-04, -8.53553333e-04,  1.80000000e-02
     134,  9.57106667e-04, -9.57106667e-04,  1.80000000e-02
     135,  1.06066000e-03, -1.06066000e-03,  1.80000000e-02
     136,  9.82962906e-04, -2.96076181e-04,  1.80000000e-02
     137,  1.21592581e-03, -3.42152361e-04,  1.80000000e-02
     138,  1.44888872e-03, -3.88228542e-04,  1.80000000e-02
     139,  9.82962906e-04,  2.96076181e-04,  1.80000000e-02
     140,  1.21592581e-03,  3.42152361e-04,  1.80000000e-02
     141,  1.44888872e-03,  3.88228542e-04,  1.80000000e-02
     142,  8.53553333e-04,  8.53553333e-04,  1.80000000e-02
     143,  9.57106667e-04,  9.57106667e-04,  1.80000000e-02
     144,  1.06066000e-03,  1.06066000e-03,  1.80000000e-02
     145,  8.53553333e-04, -8.53553333e-04,  2.40000000e-02
     146,  9.57106667e-04, -9.57106667e-04,  2.40000000e-02
     147,  1.06066000e-03, -1.06066000e-03,  2.40000000e-02
     148,  9.82962906e-04, -2.96076181e-04,  2.40000000e-02
     149,  1.21592581e-03, -3.42152361e-04,  2.40000000e-02
     150,  1.44888872e-03, -3.88228542e-04,  2.40000000e-02
     151,  9.82962906e-04,  2.96076181e-04,  2.40000000e-02
     152,  1.21592581e-03,  3.42152361e-04,  2.40000000e-02
     153,  1.44888872e-03,  3.88228542e-04,  2.40000000e-02
     154,  8.53553333e-04,  8.53553333e-04,  2.40000000e-02
     155,  9.57106667e-04,  9.57106667e-04,  2.40000000e-02
     156,  1.06066000e-03,  1.06066000e-03,  2.40000000e-02
     157,  8.53553333e-04, -8.53553333e-04,  3.00000000e-02
     158,  9.57106667e-04, -9.57106667e-04,  3.00000000e-02
     159,  1.06066000e-03, -1.06066000e-03,  3.00000000e-02
     160,  9.82962906e-04, -2.96076181e-04,  3.00000000e-02
     161,  1.21592581e-03, -3.42152361e-04,  3.00000000e-02
     162,  1.44888872e-03, -3.88228542e-04,  3.00000000e-02
     163,  9.82962906e-04,  2.96076181e-04,  3.00000000e-02
     164,  1.21592581e-03,  3.42152361e-04,  3.00000000e-02
     165,  1.44888872e-03,  3.88228542e-04,  3.00000000e-02
     166,  8.53553333e-04,  8.53553333e-04,  3.00000000e-02
     167,  9.57106667e-04,  9.57106667e-04,  3.00000000e-02
     168,  1.06066000e-03,  1.06066000e-03,  3.00000000e-02
     169,  2.96076181e-04,  9.82962906e-04,  0.00000000e+00
     170,  3.42152361e-04,  1.21592581e-03,  0.00000000e+00
     171,  3.88228542e-04,  1.44888872e-03,  0.00000000e+00
     172, -2.96076181e-04,  9.82962906e-04,  0.00000000e+00
     173, -3.42152361e-04,  1.21592581e-03,  0.00000000e+00
     174, -3.88228542e-04,  1.44888872e-03,  0.00000000e+00
     175, -8.53553333e-04,  8.53553333e-04,  0.00000000e+00
     176, -9.57106667e-04,  9.57106667e-04,  0.00000000e+00
     177, -1.06066000e-03,  1.06066000e-03,  0.00000000e+00
     178,  2.96076181e-04,  9.82962906e-04,  6.00000000e-03
     179,  3.42152361e-04,  1.21592581e-03,  6.00000000e-03
     180,  3.88228542e-04,  1.44888872e-03,  6.00000000e-03
     181, -2.96076181e-04,  9.82962906e-04,  6.00000000e-03
     182, -3.42152361e-04,  1.21592581e-03,  6.00000000e-03
     183, -3.88228542e-04,  1.44888872e-03,  6.00000000e-03
     184, -8.53553333e-04,  8.53553333e-04,  6.00000000e-03
     185, -9.57106667e-04,  9.57106667e-04,  6.00000000e-03
     186, -1.06066000e-03,  1.06066000e-03,  6.00000000e-03
     187,  2.96076181e-04,  9.82962906e-04,  1.20000000e-02
     188,  3.42152361e-04,  1.21592581e-03,  1.20000000e-02
     189,  3.88228542e-04,  1.44888872e-03,  1.20000000e-02
     190, -2.96076181e-04,  9.82962906e-04,  1.20000000e-02
     191, -3.42152361e-04,  1.21592581e-03,  1.20000000e-02
     192, -3.88228542e-04,  1.44888872e-03,  1.20000000e-02
     193, -8.53553333e-04,  8.53553333e-04,  1.20000000e-02
     194, -9.57106667e-04,  9.57106667e-04,  1.20000000e-02
     195, -1.06066000e-03,  1.06066000e-03,  1.20000000e-02
     196,  2.96076181e-04,  9.82962906e-04,  1.80000000e-02
     197,  3.42152361e-04,  1.21592581e-03,  1.80000000e-02
     198,  3.88228542e-04,  1.44888872e-03,  1.80000000e-02
     199, -2.96076181e-04,  9.82962906e-04,  1.80000000e-02
     200, -3.42152361e-04,  1.21592581e-03,  1.80000000e-02
     201, -3.88228542e-04,  1.44888872e-03,  1.80000000e-02
     202, -8.53553333e-04,  8.53553333e-04,  1.80000000e-02
     203, -9.57106667e-04,  9.57106667e-04,  1.80000000e-02
     204, -1.06066000e-03,  1.06066000e-03,  1.80000000e-02
     205,  2.96076181e-04,  9.82962906e-04,  2.40000000e-02
     206,  3.42152361e-04,  1.21592581e-03,  2.40000000e-02
     207,  3.88228542e-04,  1.44888872e-03,  2.40000000e-02
     208, -2.96076181e-04,  9.82962906e-04,  2.40000000e-02
     209, -3.42152361e-04,  1.21592581e-03,  2.40000000e-02
     210, -3.88228542e-04,  1.44888872e-03,  2.40000000e-02
     211, -8.53553333e-04,  8.53553333e-04,  2.40000000e-02
     212, -9.57106667e-04,  9.57106667e-04,  2.40000000e-02
     213, -1.06066000e-03,  1.06066000e-03,  2.40000000e-02
     214,  2.96076181e-04,  9.82962906e-04,  3.00000000e-02
     215,  3.42152361e-04,  1.21592581e-03,  3.00000000e-02
     216,  3.88228542e-04,  1.44888872e-03,  3.00000000e-02
     217, -2.96076181e-04,  9.82962906e-04,  3.00000000e-02
     218, -3.42152361e-04,  1.21592581e-03,  3.00000000e-02
     219, -3.88228542e-04,  1.44888872e-03,  3.00000000e-02
     220, -8.53553333e-04,  8.53553333e-04,  3.00000000e-02
     221, -9.57106667e-04,  9.57106667e-04,  3.00000000e-02
     222, -1.06066000e-03,  1.06066000e-03,  3.00000000e-02
     223, -9.82962906e-04,  2.96076181e-04,  0.00000000e+00
     224, -1.21592581e-03,  3.42152361e-04,  0.00000000e+00
     225, -1.44888872e-03,  3.88228542e-04,  0.00000000e+00
     226, -9.82962906e-04, -2.96076181e-04,  0.00000000e+00
     227, -1.21592581e-03, -3.42152361e-04,  0.00000000e+00
     228, -1.44888872e-03, -3.88228542e-04,  0.00000000e+00
     229, -8.53553333e-04, -8.53553333e-04,  0.00000000e+00
     230, -9.57106667e-04, -9.57106667e-04,  0.00000000e+00
     231, -1.06066000e-03, -1.06066000e-03,  0.00000000e+00
     232, -9.82962906e-04,  2.96076181e-04,  6.00000000e-03
     233, -1.21592581e-03,  3.42152361e-04,  6.00000000e-03
     234, -1.44888872e-03,  3.88228542e-04,  6.00000000e-03
     235, -9.82962906e-04, -2.96076181e-04,  6.00000000e-03
     236, -1.21592581e-03, -3.42152361e-04,  6.00000000e-03
     237, -1.44888872e-03, -3.88228542e-04,  6.00000000e-03
     238, -8.53553333e-04, -8.53553333e-04,  6.00000000e-03
     239, -9.57106667e-04, -9.57106667e-04,  6.00000000e-03
     240, -1.06066000e-03, -1.06066000e-03,  6.00000000e-03
     241, -9.82962906e-04,  2.96076181e-04,  1.20000000e-02
     242, -1.21592581e-03,  3.42152361e-04,  1.20000000e-02
     243, -1.44888872e-03,  3.88228542e-04,  1.20000000e-02
     244, -9.82962906e-04, -2.96076181e-04,  1.20000000e-02
     245, -1.21592581e-03, -3.42152361e-04,  1.20000000e-02
     246, -1.44888872e-03, -3.88228542e-04,  1.20000000e-02
     247, -8.53553333e-04, -8.53553333e-04,  1.20000000e-02
     248, -9.57106667e-04, -9.57106667e-04,  1.20000000e-02
     249, -1.06066000e-03, -1.06066000e-03,  1.20000000e-02
     250, -9.82962906e-04,  2.96076181e-04,  1.80000000e-02
     251, -1.21592581e-03,  3.42152361e-04,  1.80000000e-02
     252, -1.44888872e-03,  3.88228542e-04,  1.80000000e-02
     253, -9.82962906e-04, -2.96076181e-04,  1.80000000e-02
     254, -1.21592581e-03, -3.42152361e-04,  1.80000000e-02
     255, -1.44888872e-03, -3.88228542e-04,  1.80000000e-02
     256, -8.53553333e-04, -8.53553333e-04,  1.80000000e-02
     257, -9.57106667e-04, -9.57106667e-04,  1.80000000e-02
     258, -1.06066000e-03, -1.06066000e-03,  1.80000000e-02
     259, -9.82962906e-04,  2.96076181e-04,  2.40000000e-02
     260, -1.21592581e-03,  3.42152361e-04,  2.40000000e-02
     261, -1.44888872e-03,  3.88228542e-04,  2.40000000e-02
     262, -9.82962906e-04, -2.96076181e-04,  2.40000000e-02
     263, -1.21592581e-03, -3.42152361e-04,  2.40000000e-02
     264, -1.44888872e-03, -3.88228542e-04,  2.40000000e-02
     265, -8.53553333e-04, -8.53553333e-04,  2.40000000e-02
     266, -9.57106667e-04, -9.57106667e-04,  2.40000000e-02
     267, -1.06066000e-03, -1.06066000e-03,  2.40000000e-02
     268, -9.82962906e-04,  2.96076181e-04,  3.00000000e-02
     269, -1.21592581e-03,  3.42152361e-04,  3.00000000e-02
     270, -1.44888872e-03,  3.88228542e-04,  3.00000000e-02
     271, -9.82962906e-04, -2.96076181e-04,  3.00000000e-02
     272, -1.21592581e-03, -3.42152361e-04,  3.00000000e-02
     273, -1.44888872e-03, -3.88228542e-04,  3.00000000e-02
     274, -8.53553333e-04, -8.53553333e-04,  3.00000000e-02
     275, -9.57106667e-04, -9.57106667e-04,  3.00000000e-02
     276, -1.06066000e-03, -1.06066000e-03,  3.00000000e-02
     277, -2.96076181e-04, -9.82962906e-04,  0.00000000e+00
     278, -3.42152361e-04, -1.21592581e-03,  0.00000000e+00
     279, -3.88228542e-04, -1.44888872e-03,  0.00000000e+00
     280,  2.96076181e-04, -9.82962906e-04,  0.00000000e+00
     281,  3.42152361e-04, -1.21592581e-03,  0.00000000e+00
     282,  3.88228542e-04, -1.44888872e-03,  0.00000000e+00
     283, -2.96076181e-04, -9.82962906e-04,  6.00000000e-03
     284, -3.42152361e-04, -1.21592581e-03,  6.00000000e-03
     285, -3.88228542e-04, -1.44888872e-03,  6.00000000e-03
     286,  2.96076181e-04, -9.82962906e-04,  6.00000000e-03
     287,  3.42152361e-04, -1.21592581e-03,  6.00000000e-03
     288,  3.88228542e-04, -1.44888872e-03,  6.00000000e-03
     289, -2.96076181e-04, -9.82962906e-04,  1.20000000e-02
     290, -3.42152361e-04, -1.21592581e-03,  1.20000000e-02
     291, -3.88228542e-04, -1.44888872e-03,  1.20000000e-02
     292,  2.96076181e-04, -9.82962906e-04,  1.20000000e-02
     293,  3.42152361e-04, -1.21592581e-03,  1.20000000e-02
     294,  3.88228542e-04, -1.44888872e-03,  1.20000000e-02
     295, -2.96076181e-04, -9.82962906e-04,  1.80000000e-02
     296, -3.42152361e-04, -1.21592581e-03,  1.80000000e-02
     297, -3.88228542e-04, -1.44888872e-03,  1.80000000e-02
     298,  2.96076181e-04, -9.82962906e-04,  1.80000000e-02
     299,  3.42152361e-04, -1.21592581e-03,  1.80000000e-02
     300,  3.88228542e-04, -1.44888872e-03,  1.80000000e-02
     301, -2.96076181e-04, -9.82962906e-04,  2.40000000e-02
     302, -3.42152361e-04, -1.21592581e-03,  2.40000000e-02
     303, -3.88228542e-04, -1.44888872e-03,  2.40000000e-02
     304,  2.96076181e-04, -9.82962906e-04,  2.40000000e-02
     305,  3.42152361e-04, -1.21592581e-03,  2.40000000e-02
     306,  3.88228542e-04, -1.44888872e-03,  2.40000000e-02
     307, -2.96076181e-04, -9.82962906e-04,  3.00000000e-02
     308, -3.42152361e-04, -1.21592581e-03,  3.00000000e-02
     309, -3.88228542e-04, -1.44888872e-03,  3.00000000e-02
     310,  2.96076181e-04, -9.82962906e-04,  3.00000000e-02
     311,  3.42152361e-04, -1.21592581e-03,  3.00000000e-02
     312,  3.88228542e-04, -1.44888872e-03,  3.00000000e-02
     313,  1.09601600e-03, -1.09601600e-03,  0.00000000e+00
     314,  1.49718509e-03, -4.01169594e-04,  0.00000000e+00
     315,  1.49718509e-03,  4.01169594e-04,  0.00000000e+00
     316,  1.09601600e-03,  1.09601600e-03,  0.00000000e+00
     317,  1.09601600e-03, -1.09601600e-03,  6.00000000e-03
     318,  1.49718509e-03, -4.01169594e-04,  6.00000000e-03
     319,  1.49718509e-03,  4.01169594e-04,  6.00000000e-03
     320,  1.09601600e-03,  1.09601600e-03,  6.00000000e-03
     321,  1.09601600e-03, -1.09601600e-03,  1.20000000e-02
     322,  1.49718509e-03, -4.01169594e-04,  1.20000000e-02
     323,  1.49718509e-03,  4.01169594e-04,  1.20000000e-02
     324,  1.09601600e-03,  1.09601600e-03,  1.20000000e-02
     325,  1.09601600e-03, -1.09601600e-03,  1.80000000e-02
     326,  1.49718509e-03, -4.01169594e-04,  1.80000000e-02
     327,  1.49718509e-03,  4.01169594e-04,  1.80000000e-02
     328,  1.09601600e-03,  1.09601600e-03,  1.80000000e-02
     329,  1.09601600e-03, -1.09601600e-03,  2.40000000e-02
     330,  1.49718509e-03, -4.01169594e-04,  2.40000000e-02
     331,  1.49718509e-03,  4.01169594e-04,  2.40000000e-02
     332,  1.09601600e-03,  1.09601600e-03,  2.40000000e-02
     333,  1.09601600e-03, -1.09601600e-03,  3.00000000e-02
     334,  1.49718509e-03, -4.01169594e-04,  3.00000000e-02
     335,  1.49718509e-03,  4.01169594e-04,  3.00000000e-02
     336,  1.09601600e-03,  1.09601600e-03,  3.00000000e-02
     337,  4.01169594e-04,  1.49718509e-03,  0.00000000e+00
     338, -4.01169594e-04,  1.49718509e-03,  0.00000000e+00
     339, -1.09601600e-03,  1.09601600e-03,  0.00000000e+00
     340,  4.01169594e-04,  1.49718509e-03,  6.00000000e-03
     341, -4.01169594e-04,  1.49718509e-03,  6.00000000e-03
     342, -1.09601600e-03,  1.09601600e-03,  6.00000000e-03
     343,  4.01169594e-04,  1.49718509e-03,  1.20000000e-02
     344, -4.01169594e-04,  1.49718509e-03,  1.20000000e-02
     345, -1.09601600e-03,  1.09601600e-03,  1.20000000e-02
     346,  4.01169594e-04,  1.49718509e-03,  1.80000000e-02
     347, -4.01169594e-04,  1.49718509e-03,  1.80000000e-02
     348, -1.09601600e-03,  1.09601600e-03,  1.80000000e-02
     349,  4.01169594e-04,  1.49718509e-03,  2.40000000e-02
     350, -4.01169594e-04,  1.49718509e-03,  2.40000000e-02
     351, -1.09601600e-03,  1.09601600e-03,  2.40000000e-02
     352,  4.01169594e-04,  1.49718509e-03,  3.00000000e-02
     353, -4.01169594e-04,  1.49718509e-03,  3.00000000e-02
     354, -1.09601600e-03,  1.09601600e-03,  3.00000000e-02
     355, -1.49718509e-03,  4.01169594e-04,  0.00000000e+00
     356, -1.49718509e-03, -4.01169594e-04,  0.00000000e+00
     357, -1.09601600e-03, -1.09601600e-03,  0.00000000e+00
     358, -1.49718509e-03,  4.01169594e-04,  6.00000000e-03
     359, -1.49718509e-03, -4.01169594e-04,  6.00000000e-03
     360, -1.09601600e-03, -1.09601600e-03,  6.00000000e-03
     361, -1.49718509e-03,  4.01169594e-04,  1.20000000e-02
     362, -1.49718509e-03, -4.01169594e-04,  1.20000000e-02
     363, -1.09601600e-03, -1.09601600e-03,  1.20000000e-02
     364, -1.49718509e-03,  4.01169594e-04,  1.80000000e-02
     365, -1.49718509e-03, -4.01169594e-04,  1.80000000e-02
     366, -1.09601600e-03, -1.09601600e-03,  1.80000000e-02
     367, -1.49718509e-03,  4.01169594e-04,  2.40000000e-02
     368, -1.49718509e-03, -4.01169594e-04,  2.40000000e-02
     369, -1.09601600e-03, -1.09601600e-03,  2.40000000e-02
     370, -1.49718509e-03,  4.01169594e-04,  3.00000000e-02
     371, -1.49718509e-03, -4.01169594e-04,  3.00000000e-02
     372, -1.09601600e-03, -1.09601600e-03,  3.00000000e-02
     373, -4.01169594e-04, -1.49718509e-03,  0.00000000e+00
     374,  4.01169594e-04, -1.49718509e-03,  0.00000000e+00
     375, -4.01169594e-04, -1.49718509e-03,  6.00000000e-03
     376,  4.01169594e-04, -1.49718509e-03,  6.00000000e-03
     377, -4.01169594e-04, -1.49718509e-03,  1.20000000e-02
     378,  4.01169594e-04, -1.49718509e-03,  1.20000000e-02
     379, -4.01169594e-04, -1.49718509e-03,  1.80000000e-02
     380,  4.01169594e-04, -1.49718509e-03,  1.80000000e-02
     381, -4.01169594e-04, -1.49718509e-03,  2.40000000e-02
     382,  4.01169594e-04, -1.49718509e-03,  2.40000000e-02
     383, -4.01169594e-04, -1.49718509e-03,  3.00000000e-02
     384,  4.01169594e-04, -1.49718509e-03,  3.00000000e-02
     385,  1.25511500e-03, -1.25511500e-03,  0.00000000e+00
     386,  1.41421400e-03, -1.41421400e-03,  0.00000000e+00
     387,  1.71451840e-03, -4.59403875e-04,  0.00000000e+00
     388,  1.93185171e-03, -5.17638156e-04,  0.00000000e+00
     389,  1.71451840e-03,  4.59403875e-04,  0.00000000e+00
     390,  1.93185171e-03,  5.17638156e-04,  0.00000000e+00
     391,  1.25511500e-03,  1.25511500e-03,  0.00000000e+00
     392,  1.41421400e-03,  1.41421400e-03,  0.00000000e+00
     393,  1.25511500e-03, -1.25511500e-03,  6.00000000e-03
     394,  1.41421400e-03, -1.41421400e-03,  6.00000000e-03
     395,  1.71451840e-03, -4.59403875e-04,  6.00000000e-03
     396,  1.93185171e-03, -5.17638156e-04,  6.00000000e-03
     397,  1.71451840e-03,  4.59403875e-04,  6.00000000e-03
     398,  1.93185171e-03,  5.17638156e-04,  6.00000000e-03
     399,  1.25511500e-03,  1.25511500e-03,  6.00000000e-03
     400,  1.41421400e-03,  1.41421400e-03,  6.00000000e-03
     401,  1.25511500e-03, -1.25511500e-03,  1.20000000e-02
     402,  1.41421400e-03, -1.41421400e-03,  1.20000000e-02
     403,  1.71451840e-03, -4.59403875e-04,  1.20000000e-02
     404,  1.93185171e-03, -5.17638156e-04,  1.20000000e-02
     405,  1.71451840e-03,  4.59403875e-04,  1.20000000e-02
     406,  1.93185171e-03,  5.17638156e-04,  1.20000000e-02
     407,  1.25511500e-03,  1.25511500e-03,  1.20000000e-02
     408,  1.41421400e-03,  1.41421400e-03,  1.20000000e-02
     409,  1.25511500e-03, -1.25511500e-03,  1.80000000e-02
     410,  1.41421400e-03, -1.41421400e-03,  1.80000000e-02
     411,  1.71451840e-03, -4.59403875e-04,  1.80000000e-02
     412,  1.93185171e-03, -5.17638156e-04,  1.80000000e-02
     413,  1.71451840e-03,  4.59403875e-04,  1.80000000e-02
     414,  1.93185171e-03,  5.17638156e-04,  1.80000000e-02
     415,  1.25511500e-03,  1.25511500e-03,  1.80000000e-02
     416,  1.41421400e-03,  1.41421400e-03,  1.80000000e-02
     417,  1.25511500e-03, -1.25511500e-03,  2.40000000e-02
     418,  1.41421400e-03, -1.41421400e-03,  2.40000000e-02
     419,  1.71451840e-03, -4.59403875e-04,  2.40000000e-02
     420,  1.93185171e-03, -5.17638156e-04,  2.40000000e-02
     421,  1.71451840e-03,  4.59403875e-04,  2.40000000e-02
     422,  1.93185171e-03,  5.17638156e-04,  2.40000000e-02
     423,  1.25511500e-03,  1.25511500e-03,  2.40000000e-02
     424,  1.41421400e-03,  1.41421400e-03,  2.40000000e-02
     425,  1.25511500e-03, -1.25511500e-03,  3.00000000e-02
     426,  1.41421400e-03, -1.41421400e-03,  3.00000000e-02
     427,  1.71451840e-03, -4.59403875e-04,  3.00000000e-02
     428,  1.93185171e-03, -5.17638156e-04,  3.00000000e-02
     429,  1.71451840e-03,  4.59403875e-04,  3.00000000e-02
     430,  1.93185171e-03,  5.17638156e-04,  3.00000000e-02
     431,  1.25511500e-03,  1.25511500e-03,  3.00000000e-02
     432,  1.41421400e-03,  1.41421400e-03,  3.00000000e-02
     433,  4.59403875e-04,  1.71451840e-03,  0.00000000e+00
     434,  5.17638156e-04,  1.93185171e-03,  0.00000000e+00
     435, -4.59403875e-04,  1.71451840e-03,  0.00000000e+00
     436, -5.17638156e-04,  1.93185171e-03,  0.00000000e+00
     437, -1.25511500e-03,  1.25511500e-03,  0.00000000e+00
     438, -1.41421400e-03,  1.41421400e-03,  0.00000000e+00
     439,  4.59403875e-04,  1.71451840e-03,  6.00000000e-03
     440,  5.17638156e-04,  1.93185171e-03,  6.00000000e-03
     441, -4.59403875e-04,  1.71451840e-03,  6.00000000e-03
     442, -5.17638156e-04,  1.93185171e-03,  6.00000000e-03
     443, -1.25511500e-03,  1.25511500e-03,  6.00000000e-03
     444, -1.41421400e-03,  1.41421400e-03,  6.00000000e-03
     445,  4.59403875e-04,  1.71451840e-03,  1.20000000e-02
     446,  5.17638156e-04,  1.93185171e-03,  1.20000000e-02
     447, -4.59403875e-04,  1.71451840e-03,  1.20000000e-02
     448, -5.17638156e-04,  1.93185171e-03,  1.20000000e-02
     449, -1.25511500e-03,  1.25511500e-03,  1.20000000e-02
     450, -1.41421400e-03,  1.41421400e-03,  1.20000000e-02
     451,  4.59403875e-04,  1.71451840e-03,  1.80000000e-02
     452,  5.17638156e-04,  1.93185171e-03,  1.80000000e-02
     453, -4.59403875e-04,  1.71451840e-03,  1.80000000e-02
     454, -5.17638156e-04,  1.93185171e-03,  1.80000000e-02
     455, -1.25511500e-03,  1.25511500e-03,  1.80000000e-02
     456, -1.41421400e-03,  1.41421400e-03,  1.80000000e-02
     457,  4.59403875e-04,  1.71451840e-03,  2.40000000e-02
     458,  5.17638156e-04,  1.93185171e-03,  2.40000000e-02
     459, -4.59403875e-04,  1.71451840e-03,  2.40000000e-02
     460, -5.17638156e-04,  1.93185171e-03,  2.40000000e-02
     461, -1.25511500e-03,  1.25511500e-03,  2.40000000e-02
     462, -1.41421400e-03,  1.41421400e-03,  2.40000000e-02
     463,  4.59403875e-04,  1.71451840e-03,  3.00000000e-02
     464,  5.17638156e-04,  1.93185171e-03,  3.00000000e-02
     465, -4.59403875e-04,  1.71451840e-03,  3.00000000e-02
     466, -5.17638156e-04,  1.93185171e-03,  3.00000000e-02
     467, -1.25511500e-03,  1.25511500e-03,  3.00000000e-02
     468, -1.41421400e-03,  1.41421400e-03,  3.00000000e-02
     469, -1.71451840e-03,  4.59403875e-04,  0.00000000e+00
     470, -1.93185171e-03,  5.17638156e-04,  0.00000000e+00
     471, -1.71451840e-03, -4.59403875e-04,  0.00000000e+00
     472, -1.93185171e-03, -5.17638156e-04,  0.00000000e+00
     473, -1.25511500e-03, -1.25511500e-03,  0.00000000e+00
     474, -1.41421400e-03, -1.41421400e-03,  0.00000000e+00
     475, -1.71451840e-03,  4.59403875e-04,  6.00000000e-03
     476, -1.93185171e-03,  5.17638156e-04,  6.00000000e-03
     477, -1.71451840e-03, -4.59403875e-04,  6.00000000e-03
     478, -1.93185171e-03, -5.17638156e-04,  6.00000000e-03
     479, -1.25511500e-03, -1.25511500e-03,  6.00000000e-03
     480, -1.41421400e-03, -1.41421400e-03,  6.00000000e-03
     481, -1.71451840e-03,  4.59403875e-04,  1.20000000e-02
     482, -1.93185171e-03,  5.17638156e-04,  1.20000000e-02
     483, -1.71451840e-03, -4.59403875e-04,  1.20000000e-02
     484, -1.93185171e-03, -5.17638156e-04,  1.20000000e-02
     485, -1.25511500e-03, -1.25511500e-03,  1.20000000e-02
     486, -1.41421400e-03, -1.41421400e-03,  1.20000000e-02
     487, -1.71451840e-03,  4.59403875e-04,  1.80000000e-02
     488, -1.93185171e-03,  5.17638156e-04,  1.80000000e-02
     489, -1.71451840e-03, -4.59403875e-04,  1.80000000e-02
     490, -1.93185171e-03, -5.17638156e-04,  1.80000000e-02
     491, -1.25511500e-03, -1.25511500e-03,  1.80000000e-02
     492, -1.41421400e-03, -1.41421400e-03,  1.80000000e-02
     493, -1.71451840e-03,  4.59403875e-04,  2.40000000e-02
     494, -1.93185171e-03,  5.17638156e-04,  2.40000000e-02
     495, -1.71451840e-03, -4.59403875e-04,  2.40000000e-02
     496, -1.93185171e-03, -5.17638156e-04,  2.40000000e-02
     497, -1.25511500e-03, -1.25511500e-03,  2.40000000e-02
     498, -1.41421400e-03, -1.41421400e-03,  2.40000000e-02
     499, -1.71451840e-03,  4.59403875e-04,  3.00000000e-02
     500, -1.93185171e-03,  5.17638156e-04,  3.00000000e-02
     501, -1.71451840e-03, -4.59403875e-04,  3.00000000e-02
     502, -1.93185171e-03, -5.17638156e-04,  3.00000000e-02
     503, -1.25511500e-03, -1.25511500e-03,  3.00000000e-02
     504, -1.41421400e-03, -1.41421400e-03,  3.00000000e-02
     505, -4.59403875e-04, -1.71451840e-03,  0.00000000e+00
     506, -5.17638156e-04, -1.93185171e-03,  0.00000000e+00
     507,  4.59403875e-04, -1.71451840e-03,  0.00000000e+00
     508,  5.17638156e-04, -1.93185171e-03,  0.00000000e+00
     509, -4.59403875e-04, -1.71451840e-03,  6.00000000e-03
     510, -5.17638156e-04, -1.93185171e-03,  6.00000000e-03
     511,  4.59403875e-04, -1.71451840e-03,  6.00000000e-03
     512,  5.17638156e-04, -1.93185171e-03,  6.00000000e-03
     513, -4.59403875e-04, -1.71451840e-03,  1.20000000e-02
     514, -5.17638156e-04, -1.93185171e-03,  1.20000000e-02
     515,  4.59403875e-04, -1.71451840e-03,  1.20000000e-02
     516,  5.17638156e-04, -1.93185171e-03,  1.20000000e-02
     517, -4.59403875e-04, -1.71451840e-03,  1.80000000e-02
     518, -5.17638156e-04, -1.93185171e-03,  1.80000000e-02
     519,  4.59403875e-04, -1.71451840e-03,  1.80000000e-02
     520,  5.17638156e-04, -1.93185171e-03,  1.80000000e-02
     521, -4.59403875e-04, -1.71451840e-03,  2.40000000e-02
     522, -5.17638156e-04, -1.93185171e-03,  2.40000000e-02
     523,  4.59403875e-04, -1.71451840e-03,  2.40000000e-02
     524,  5.17638156e-04, -1.93185171e-03,  2.40000000e-02
     525, -4.59403875e-04, -1.71451840e-03,  3.00000000e-02
     526, -5.17638156e-04, -1.93185171e-03,  3.00000000e-02
     527,  4.59403875e-04, -1.71451840e-03,  3.00000000e-02
     528,  5.17638156e-04, -1.93185171e-03,  3.00000000e-02
     529,  1.53795750e-03, -1.53795750e-03,  0.00000000e+00
     530,  1.66170100e-03, -1.66170100e-03,  0.00000000e+00
     531,  2.10088871e-03, -5.62931461e-04,  0.00000000e+00
     532,  2.26992570e-03, -6.08224766e-04,  0.00000000e+00
     533,  2.10088871e-03,  5.62931461e-04,  0.00000000e+00
     534,  2.26992570e-03,  6.08224766e-04,  0.00000000e+00
     535,  1.53795750e-03,  1.53795750e-03,  0.00000000e+00
     536,  1.66170100e-03,  1.66170100e-03,  0.00000000e+00
     537,  1.53795750e-03, -1.53795750e-03,  6.00000000e-03
     538,  1.66170100e-03, -1.66170100e-03,  6.00000000e-03
     539,  2.10088871e-03, -5.62931461e-04,  6.00000000e-03
     540,  2.26992570e-03, -6.08224766e-04,  6.00000000e-03
     541,  2.10088871e-03,  5.62931461e-04,  6.00000000e-03
     542,  2.26992570e-03,  6.08224766e-04,  6.00000000e-03
     543,  1.53795750e-03,  1.53795750e-03,  6.00000000e-03
     544,  1.66170100e-03,  1.66170100e-03,  6.00000000e-03
     545,  1.53795750e-03, -1.53795750e-03,  1.20000000e-02
     546,  1.66170100e-03, -1.66170100e-03,  1.20000000e-02
     547,  2.10088871e-03, -5.62931461e-04,  1.20000000e-02
     548,  2.26992570e-03, -6.08224766e-04,  1.20000000e-02
     549,  2.10088871e-03,  5.62931461e-04,  1.20000000e-02
     550,  2.26992570e-03,  6.08224766e-04,  1.20000000e-02
     551,  1.53795750e-03,  1.53795750e-03,  1.20000000e-02
     552,  1.66170100e-03,  1.66170100e-03,  1.20000000e-02
     553,  1.53795750e-03, -1.53795750e-03,  1.80000000e-02
     554,  1.66170100e-03, -1.66170100e-03,  1.80000000e-02
     555,  2.10088871e-03, -5.62931461e-04,  1.80000000e-02
     556,  2.26992570e-03, -6.08224766e-04,  1.80000000e-02
     557,  2.10088871e-03,  5.62931461e-04,  1.80000000e-02
     558,  2.26992570e-03,  6.08224766e-04,  1.80000000e-02
     559,  1.53795750e-03,  1.53795750e-03,  1.80000000e-02
     560,  1.66170100e-03,  1.66170100e-03,  1.80000000e-02
     561,  1.53795750e-03, -1.53795750e-03,  2.40000000e-02
     562,  1.66170100e-03, -1.66170100e-03,  2.40000000e-02
     563,  2.10088871e-03, -5.62931461e-04,  2.40000000e-02
     564,  2.26992570e-03, -6.08224766e-04,  2.40000000e-02
     565,  2.10088871e-03,  5.62931461e-04,  2.40000000e-02
     566,  2.26992570e-03,  6.08224766e-04,  2.40000000e-02
     567,  1.53795750e-03,  1.53795750e-03,  2.40000000e-02
     568,  1.66170100e-03,  1.66170100e-03,  2.40000000e-02
     569,  1.53795750e-03, -1.53795750e-03,  3.00000000e-02
     570,  1.66170100e-03, -1.66170100e-03,  3.00000000e-02
     571,  2.10088871e-03, -5.62931461e-04,  3.00000000e-02
     572,  2.26992570e-03, -6.08224766e-04,  3.00000000e-02
     573,  2.10088871e-03,  5.62931461e-04,  3.00000000e-02
     574,  2.26992570e-03,  6.08224766e-04,  3.00000000e-02
     575,  1.53795750e-03,  1.53795750e-03,  3.00000000e-02
     576,  1.66170100e-03,  1.66170100e-03,  3.00000000e-02
     577,  5.62931461e-04,  2.10088871e-03,  0.00000000e+00
     578,  6.08224766e-04,  2.26992570e-03,  0.00000000e+00
     579, -5.62931461e-04,  2.10088871e-03,  0.00000000e+00
     580, -6.08224766e-04,  2.26992570e-03,  0.00000000e+00
     581, -1.53795750e-03,  1.53795750e-03,  0.00000000e+00
     582, -1.66170100e-03,  1.66170100e-03,  0.00000000e+00
     583,  5.62931461e-04,  2.10088871e-03,  6.00000000e-03
     584,  6.08224766e-04,  2.26992570e-03,  6.00000000e-03
     585, -5.62931461e-04,  2.10088871e-03,  6.00000000e-03
     586, -6.08224766e-04,  2.26992570e-03,  6.00000000e-03
     587, -1.53795750e-03,  1.53795750e-03,  6.00000000e-03
     588, -1.66170100e-03,  1.66170100e-03,  6.00000000e-03
     589,  5.62931461e-04,  2.10088871e-03,  1.20000000e-02
     590,  6.08224766e-04,  2.26992570e-03,  1.20000000e-02
     591, -5.62931461e-04,  2.10088871e-03,  1.20000000e-02
     592, -6.08224766e-04,  2.26992570e-03,  1.20000000e-02
     593, -1.53795750e-03,  1.53795750e-03,  1.20000000e-02
     594, -1.66170100e-03,  1.66170100e-03,  1.20000000e-02
     595,  5.62931461e-04,  2.10088871e-03,  1.80000000e-02
     596,  6.08224766e-04,  2.26992570e-03,  1.80000000e-02
     597, -5.62931461e-04,  2.10088871e-03,  1.80000000e-02
     598, -6.08224766e-04,  2.26992570e-03,  1.80000000e-02
     599, -1.53795750e-03,  1.53795750e-03,  1.80000000e-02
     600, -1.66170100e-03,  1.66170100e-03,  1.80000000e-02
     601,  5.62931461e-04,  2.10088871e-03,  2.40000000e-02
     602,  6.08224766e-04,  2.26992570e-03,  2.40000000e-02
     603, -5.62931461e-04,  2.10088871e-03,  2.40000000e-02
     604, -6.08224766e-04,  2.26992570e-03,  2.40000000e-02
     605, -1.53795750e-03,  1.53795750e-03,  2.40000000e-02
     606, -1.66170100e-03,  1.66170100e-03,  2.40000000e-02
     607,  5.62931461e-04,  2.10088871e-03,  3.00000000e-02
     608,  6.08224766e-04,  2.26992570e-03,  3.00000000e-02
     609, -5.62931461e-04,  2.10088871e-03,  3.00000000e-02
     610, -6.08224766e-04,  2.26992570e-03,  3.00000000e-02
     611, -1.53795750e-03,  1.53795750e-03,  3.00000000e-02
     612, -1.66170100e-03,  1.66170100e-03,  3.00000000e-02
     613, -2.10088871e-03,  5.62931461e-04,  0.00000000e+00
     614, -2.26992570e-03,  6.08224766e-04,  0.00000000e+00
     615, -2.10088871e-03, -5.62931461e-04,  0.00000000e+00
     616, -2.26992570e-03, -6.08224766e-04,  0.00000000e+00
     617, -1.53795750e-03, -1.53795750e-03,  0.00000000e+00
     618, -1.66170100e-03, -1.66170100e-03,  0.00000000e+00
     619, -2.10088871e-03,  5.62931461e-04,  6.00000000e-03
     620, -2.26992570e-03,  6.08224766e-04,  6.00000000e-03
     621, -2.10088871e-03, -5.62931461e-04,  6.00000000e-03
     622, -2.26992570e-03, -6.08224766e-04,  6.00000000e-03
     623, -1.53795750e-03, -1.53795750e-03,  6.00000000e-03
     624, -1.66170100e-03, -1.66170100e-03,  6.00000000e-03
     625, -2.10088871e-03,  5.62931461e-04,  1.20000000e-02
     626, -2.26992570e-03,  6.08224766e-04,  1.20000000e-02
     627, -2.10088871e-03, -5.62931461e-04,  1.20000000e-02
     628, -2.26992570e-03, -6.08224766e-04,  1.20000000e-02
     629, -1.53795750e-03, -1.53795750e-03,  1.20000000e-02
     630, -1.66170100e-03, -1.66170100e-03,  1.20000000e-02
     631, -2.10088871e-03,  5.62931461e-04,  1.80000000e-02
     632, -2.26992570e-03,  6.08224766e-04,  1.80000000e-02
     633, -2.10088871e-03, -5.62931461e-04,  1.80000000e-02
     634, -2.26992570e-03, -6.08224766e-04,  1.80000000e-02
     635, -1.53795750e-03, -1.53795750e-03,  1.80000000e-02
     636, -1.66170100e-03, -1.66170100e-03,  1.80000000e-02
     637, -2.10088871e-03,  5.62931461e-04,  2.40000000e-02
     638, -2.26992570e-03,  6.08224766e-04,  2.40000000e-02
     639, -2.10088871e-03, -5.62931461e-04,  2.40000000e-02
     640, -2.26992570e-03, -6.08224766e-04,  2.40000000e-02
     641, -1.53795750e-03, -1.53795750e-03,  2.40000000e-02
     642, -1.66170100e-03, -1.66170100e-03,  2.40000000e-02
     643, -2.10088871e-03,  5.62931461e-04,  3.00000000e-02
     644, -2.26992570e-03,  6.08224766e-04,  3.00000000e-02
     645, -2.10088871e-03, -5.62931461e-04,  3.00000000e-02
     646, -2.26992570e-03, -6.08224766e-04,  3.00000000e-02
     647, -1.53795750e-03, -1.53795750e-03,  3.00000000e-02
     648, -1.66170100e-03, -1.66170100e-03,  3.00000000e-02
     649, -5.62931461e-04, -2.10088871e-03,  0.00000000e+00
     650, -6.08224766e-04, -2.26992570e-03,  0.00000000e+00
     651,  5.62931461e-04, -2.10088871e-03,  0.00000000e+00
     652,  6.08224766e-04, -2.26992570e-03,  0.00000000e+00
     653, -5.62931461e-04, -2.10088871e-03,  6.00000000e-03
     654, -6.08224766e-04, -2.26992570e-03,  6.00000000e-03
     655,  5.62931461e-04, -2.10088871e-03,  6.00000000e-03
     656,  6.08224766e-04, -2.26992570e-03,  6.00000000e-03
     657, -5.62931461e-04, -2.10088871e-03,  1.20000000e-02
     658, -6.08224766e-04, -2.26992570e-03,  1.20000000e-02
     659,  5.62931461e-04, -2.10088871e-03,  1.20000000e-02
     660,  6.08224766e-04, -2.26992570e-03,  1.20000000e-02
     661, -5.62931461e-04, -2.10088871e-03,  1.80000000e-02
     662, -6.08224766e-04, -2.26992570e-03,  1.80000000e-02
     663,  5.62931461e-04, -2.10088871e-03,  1.80000000e-02
     664,  6.08224766e-04, -2.26992570e-03,  1.80000000e-02
     665, -5.62931461e-04, -2.10088871e-03,  2.40000000e-02
     666, -6.08224766e-04, -2.26992570e-03,  2.40000000e-02
     667,  5.62931461e-04, -2.10088871e-03,  2.40000000e-02
     668,  6.08224766e-04, -2.26992570e-03,  2.40000000e-02
     669, -5.62931461e-04, -2.10088871e-03,  3.00000000e-02
     670, -6.08224766e-04, -2.26992570e-03,  3.00000000e-02
     671,  5.62931461e-04, -2.10088871e-03,  3.00000000e-02
     672,  6.08224766e-04, -2.26992570e-03,  3.00000000e-02
     673,  1.76776700e-03, -1.76776700e-03,  0.00000000e+00
     674,  2.41481457e-03, -6.47047620e-04,  0.00000000e+00
     675,  2.41481457e-03,  6.47047620e-04,  0.00000000e+00
     676,  1.76776700e-03,  1.76776700e-03,  0.00000000e+00
     677,  1.76776700e-03, -1.76776700e-03,  6.00000000e-03
     678,  2.41481457e-03, -6.47047620e-04,  6.00000000e-03
     679,  2.41481457e-03,  6.47047620e-04,  6.00000000e-03
     680,  1.76776700e-03,  1.76776700e-03,  6.00000000e-03
     681,  1.76776700e-03, -1.76776700e-03,  1.20000000e-02
     682,  2.41481457e-03, -6.47047620e-04,  1.20000000e-02
     683,  2.41481457e-03,  6.47047620e-04,  1.20000000e-02
     684,  1.76776700e-03,  1.76776700e-03,  1.20000000e-02
     685,  1.76776700e-03, -1.76776700e-03,  1.80000000e-02
     686,  2.41481457e-03, -6.47047620e-04,  1.80000000e-02
     687,  2.41481457e-03,  6.47047620e-04,  1.80000000e-02
     688,  1.76776700e-03,  1.76776700e-03,  1.80000000e-02
     689,  1.76776700e-03, -1.76776700e-03,  2.40000000e-02
     690,  2.41481457e-03, -6.47047620e-04,  2.40000000e-02
     691,  2.41481457e-03,  6.47047620e-04,  2.40000000e-02
     692,  1.76776700e-03,  1.76776700e-03,  2.40000000e-02
     693,  1.76776700e-03, -1.76776700e-03,  3.00000000e-02
     694,  2.41481457e-03, -6.47047620e-04,  3.00000000e-02
     695,  2.41481457e-03,  6.47047620e-04,  3.00000000e-02
     696,  1.76776700e-03,  1.76776700e-03,  3.00000000e-02
     697,  6.47047620e-04,  2.41481457e-03,  0.00000000e+00
     698, -6.47047620e-04,  2.41481457e-03,  0.00000000e+00
     699, -1.76776700e-03,  1.76776700e-03,  0.00000000e+00
     700,  6.47047620e-04,  2.41481457e-03,  6.00000000e-03
     701, -6.47047620e-04,  2.41481457e-03,  6.00000000e-03
     702, -1.76776700e-03,  1.76776700e-03,  6.00000000e-03
     703,  6.47047620e-04,  2.41481457e-03,  1.20000000e-02
     704, -6.47047620e-04,  2.41481457e-03,  1.20000000e-02
     705, -1.76776700e-03,  1.76776700e-03,  1.20000000e-02
     706,  6.47047620e-04,  2.41481457e-03,  1.80000000e-02
     707, -6.47047620e-04,  2.41481457e-03,  1.80000000e-02
     708, -1.76776700e-03,  1.76776700e-03,  1.80000000e-02
     709,  6.47047620e-04,  2.41481457e-03,  2.40000000e-02
     710, -6.47047620e-04,  2.41481457e-03,  2.40000000e-02
     711, -1.76776700e-03,  1.76776700e-03,  2.40000000e-02
     712,  6.47047620e-04,  2.41481457e-03,  3.00000000e-02
     713, -6.47047620e-04,  2.41481457e-03,  3.00000000e-02
     714, -1.76776700e-03,  1.76776700e-03,  3.00000000e-02
     715, -2.41481457e-03,  6.47047620e-04,  0.00000000e+00
     716, -2.41481457e-03, -6.47047620e-04,  0.00000000e+00
     717, -1.76776700e-03, -1.76776700e-03,  0.00000000e+00
     718, -2.41481457e-03,  6.47047620e-04,  6.00000000e-03
     719, -2.41481457e-03, -6.47047620e-04,  6.00000000e-03
     720, -1.76776700e-03, -1.76776700e-03,  6.00000000e-03
     721, -2.41481457e-03,  6.47047620e-04,  1.20000000e-02
     722, -2.41481457e-03, -6.47047620e-04,  1.20000000e-02
     723, -1.76776700e-03, -1.76776700e-03,  1.20000000e-02
     724, -2.41481457e-03,  6.47047620e-04,  1.80000000e-02
     725, -2.41481457e-03, -6.47047620e-04,  1.80000000e-02
     726, -1.76776700e-03, -1.76776700e-03,  1.80000000e-02
     727, -2.41481457e-03,  6.47047620e-04,  2.40000000e-02
     728, -2.41481457e-03, -6.47047620e-04,  2.40000000e-02
     729, -1.76776700e-03, -1.76776700e-03,  2.40000000e-02
     730, -2.41481457e-03,  6.47047620e-04,  3.00000000e-02
     731, -2.41481457e-03, -6.47047620e-04,  3.00000000e-02
     732, -1.76776700e-03, -1.76776700e-03,  3.00000000e-02
     733, -6.47047620e-04, -2.41481457e-03,  0.00000000e+00
     734,  6.47047620e-04, -2.41481457e-03,  0.00000000e+00
     735, -6.47047620e-04, -2.41481457e-03,  6.00000000e-03
     736,  6.47047620e-04, -2.41481457e-03,  6.00000000e-03
     737, -6.47047620e-04, -2.41481457e-03,  1.20000000e-02
     738,  6.47047620e-04, -2.41481457e-03,  1.20000000e-02
     739, -6.47047620e-04, -2.41481457e-03,  1.80000000e-02
     740,  6.47047620e-04, -2.41481457e-03,  1.80000000e-02
     741, -6.47047620e-04, -2.41481457e-03,  2.40000000e-02
     742,  6.47047620e-04, -2.41481457e-03,  2.40000000e-02
     743, -6.47047620e-04, -2.41481457e-03,  3.00000000e-02
     744,  6.47047620e-04, -2.41481457e-03,  3.00000000e-02
     745,  7.50000000e-04,  7.50000000e-04,  3.03000000e-02
     746,  2.50000000e-04,  7.50000000e-04,  3.03000000e-02
     747, -2.50000000e-04,  7.50000000e-04,  3.03000000e-02
     748, -7.50000000e-04,  7.50000000e-04,  3.03000000e-02
     749,  7.50000000e-04,  2.50000000e-04,  3.03000000e-02
     750,  2.50000000e-04,  2.50000000e-04,  3.03000000e-02
     751, -2.50000000e-04,  2.50000000e-04,  3.03000000e-02
     752, -7.50000000e-04,  2.50000000e-04,  3.03000000e-02
     753,  7.50000000e-04, -2.50000000e-04,  3.03000000e-02
     754,  2.50000000e-04, -2.50000000e-04,  3.03000000e-02
     755, -2.50000000e-04, -2.50000000e-04,  3.03000000e-02
     756, -7.50000000e-04, -2.50000000e-04,  3.03000000e-02
     757,  7.50000000e-04, -7.50000000e-04,  3.03000000e-02
     758,  2.50000000e-04, -7.50000000e-04,  3.03000000e-02
     759, -2.50000000e-04, -7.50000000e-04,  3.03000000e-02
     760, -7.50000000e-04, -7.50000000e-04,  3.03000000e-02
     761,  8.53553333e-04, -8.53553333e-04,  3.03000000e-02
     762,  9.57106667e-04, -9.57106667e-04,  3.03000000e-02
     763,  1.06066000e-03, -1.06066000e-03,  3.03000000e-02
     764,  9.82962906e-04, -2.96076181e-04,  3.03000000e-02
     765,  1.21592581e-03, -3.42152361e-04,  3.03000000e-02
     766,  1.44888872e-03, -3.88228542e-04,  3.03000000e-02
     767,  9.82962906e-04,  2.96076181e-04,  3.03000000e-02
     768,  1.21592581e-03,  3.42152361e-04,  3.03000000e-02
     769,  1.44888872e-03,  3.88228542e-04,  3.03000000e-02
     770,  8.53553333e-04,  8.53553333e-04,  3.03000000e-02
     771,  9.57106667e-04,  9.57106667e-04,  3.03000000e-02
     772,  1.06066000e-03,  1.06066000e-03,  3.03000000e-02
     773,  2.96076181e-04,  9.82962906e-04,  3.03000000e-02
     774,  3.42152361e-04,  1.21592581e-03,  3.03000000e-02
     775,  3.88228542e-04,  1.44888872e-03,  3.03000000e-02
     776, -2.96076181e-04,  9.82962906e-04,  3.03000000e-02
     777, -3.42152361e-04,  1.21592581e-03,  3.03000000e-02
     778, -3.88228542e-04,  1.44888872e-03,  3.03000000e-02
     779, -8.53553333e-04,  8.53553333e-04,  3.03000000e-02
     780, -9.57106667e-04,  9.57106667e-04,  3.03000000e-02
     781, -1.06066000e-03,  1.06066000e-03,  3.03000000e-02
     782, -9.82962906e-04,  2.96076181e-04,  3.03000000e-02
     783, -1.21592581e-03,  3.42152361e-04,  3.03000000e-02
     784, -1.44888872e-03,  3.88228542e-04,  3.03000000e-02
     785, -9.82962906e-04, -2.96076181e-04,  3.03000000e-02
     786, -1.21592581e-03, -3.42152361e-04,  3.03000000e-02
     787, -1.44888872e-03, -3.88228542e-04,  3.03000000e-02
     788, -8.53553333e-04, -8.53553333e-04,  3.03000000e-02
     789, -9.57106667e-04, -9.57106667e-04,  3.03000000e-02
     790, -1.06066000e-03, -1.06066000e-03,  3.03000000e-02
     791, -2.96076181e-04, -9.82962906e-04,  3.03000000e-02
     792, -3.42152361e-04, -1.21592581e-03,  3.03000000e-02
     793, -3.88228542e-04, -1.44888872e-03,  3.03000000e-02
     794,  2.96076181e-04, -9.82962906e-04,  3.03000000e-02
     795,  3.42152361e-04, -1.21592581e-03,  3.03000000e-02
     796,  3.88228542e-04, -1.44888872e-03,  3.03000000e-02
     797,  1.09601600e-03, -1.09601600e-03,  3.03000000e-02
     798,  1.49718509e-03, -4.01169594e-04,  3.03000000e-02
     799,  1.49718509e-03,  4.01169594e-04,  3.03000000e-02
     800,  1.09601600e-03,  1.09601600e-03,  3.03000000e-02
     801,  4.01169594e-04,  1.49718509e-03,  3.03000000e-02
     802, -4.01169594e-04,  1.49718509e-03,  3.03000000e-02
     803, -1.09601600e-03,  1.09601600e-03,  3.03000000e-02
     804, -1.49718509e-03,  4.01169594e-04,  3.03000000e-02
     805, -1.49718509e-03, -4.01169594e-04,  3.03000000e-02
     806, -1.09601600e-03, -1.09601600e-03,  3.03000000e-02
     807, -4.01169594e-04, -1.49718509e-03,  3.03000000e-02
     808,  4.01169594e-04, -1.49718509e-03,  3.03000000e-02
     809,  1.25511500e-03, -1.25511500e-03,  3.03000000e-02
     810,  1.41421400e-03, -1.41421400e-03,  3.03000000e-02
     811,  1.71451840e-03, -4.59403875e-04,  3.03000000e-02
     812,  1.93185171e-03, -5.17638156e-04,  3.03000000e-02
     813,  1.71451840e-03,  4.59403875e-04,  3.03000000e-02
     814,  1.93185171e-03,  5.17638156e-04,  3.03000000e-02
     815,  1.25511500e-03,  1.25511500e-03,  3.03000000e-02
     816,  1.41421400e-03,  1.41421400e-03,  3.03000000e-02
     817,  4.59403875e-04,  1.71451840e-03,  3.03000000e-02
     818,  5.17638156e-04,  1.93185171e-03,  3.03000000e-02
     819, -4.59403875e-04,  1.71451840e-03,  3.03000000e-02
     820, -5.17638156e-04,  1.93185171e-03,  3.03000000e-02
     821, -1.25511500e-03,  1.25511500e-03,  3.03000000e-02
     822, -1.41421400e-03,  1.41421400e-03,  3.03000000e-02
     823, -1.71451840e-03,  4.59403875e-04,  3.03000000e-02
     824, -1.93185171e-03,  5.17638156e-04,  3.03000000e-02
     825, -1.71451840e-03, -4.59403875e-04,  3.03000000e-02
     826, -1.93185171e-03, -5.17638156e-04,  3.03000000e-02
     827, -1.25511500e-03, -1.25511500e-03,  3.03000000e-02
     828, -1.41421400e-03, -1.41421400e-03,  3.03000000e-02
     829, -4.59403875e-04, -1.71451840e-03,  3.03000000e-02
     830, -5.17638156e-04, -1.93185171e-03,  3.03000000e-02
     831,  4.59403875e-04, -1.71451840e-03,  3.03000000e-02
     832,  5.17638156e-04, -1.93185171e-03,  3.03000000e-02
     833,  1.53795750e-03, -1.53795750e-03,  3.03000000e-02
     834,  1.66170100e-03, -1.66170100e-03,  3.03000000e-02
     835,  2.10088871e-03, -5.62931461e-04,  3.03000000e-02
     836,  2.26992570e-03, -6.08224766e-04,  3.03000000e-02
     837,  2.10088871e-03,  5.62931461e-04,  3.03000000e-02
     838,  2.26992570e-03,  6.08224766e-04,  3.03000000e-02
     839,  1.53795750e-03,  1.53795750e-03,  3.03000000e-02
     840,  1.66170100e-03,  1.66170100e-03,  3.03000000e-02
     841,  5.62931461e-04,  2.10088871e-03,  3.03000000e-02
     842,  6.08224766e-04,  2.26992570e-03,  3.03000000e-02
     843, -5.62931461e-04,  2.10088871e-03,  3.03000000e-02
     844, -6.08224766e-04,  2.26992570e-03,  3.03000000e-02
     845, -1.53795750e-03,  1.53795750e-03,  3.03000000e-02
     846, -1.66170100e-03,  1.66170100e-03,  3.03000000e-02
     847, -2.10088871e-03,  5.62931461e-04,  3.03000000e-02
     848, -2.26992570e-03,  6.08224766e-04,  3.03000000e-02
     849, -2.10088871e-03, -5.62931461e-04,  3.03000000e-02
     850, -2.26992570e-03, -6.08224766e-04,  3.03000000e-02
     851, -1.53795750e-03, -1.53795750e-03,  3.03000000e-02
     852, -1.66170100e-03, -1.66170100e-03,  3.03000000e-02
     853, -5.62931461e-04, -2.10088871e-03,  3.03000000e-02
     854, -6.08224766e-04, -2.26992570e-03,  3.03000000e-02
     855,  5.62931461e-04, -2.10088871e-03,  3.03000000e-02
     856,  6.08224766e-04, -2.26992570e-03,  3.03000000e-02
     857,  1.76776700e-03, -1.76776700e-03,  3.03000000e-02
     858,  2.41481457e-03, -6.47047620e-04,  3.03000000e-02
     859,  2.41481457e-03,  6.47047620e-04,  3.03000000e-02
     860,  1.76776700e-03,  1.76776700e-03,  3.03000000e-02
     861,  6.47047620e-04,  2.41481457e-03,  3.03000000e-02
     862, -6.47047620e-04,  2.41481457e-03,  3.03000000e-02
     863, -1.76776700e-03,  1.76776700e-03,  3.03000000e-02
     864, -2.41481457e-03,  6.47047620e-04,  3.03000000e-02
     865, -2.41481457e-03, -6.47047620e-04,  3.03000000e-02
     866, -1.76776700e-03, -1.76776700e-03,  3.03000000e-02
     867, -6.47047620e-04, -2.41481457e-03,  3.03000000e-02
     868,  6.47047620e-04, -2.41481457e-03,  3.03000000e-02
     869,  7.50000000e-04,  7.50000000e-04,  3.08000000e-02
     870,  2.50000000e-04,  7.50000000e-04,  3.08000000e-02
     871, -2.50000000e-04,  7.50000000e-04,  3.08000000e-02
     872, -7.50000000e-04,  7.50000000e-04,  3.08000000e-02
     873,  7.50000000e-04,  2.50000000e-04,  3.08000000e-02
     874,  2.50000000e-04,  2.50000000e-04,  3.08000000e-02
     875, -2.50000000e-04,  2.50000000e-04,  3.08000000e-02
     876, -7.50000000e-04,  2.50000000e-04,  3.08000000e-02
     877,  7.50000000e-04, -2.50000000e-04,  3.08000000e-02
     878,  2.50000000e-04, -2.50000000e-04,  3.08000000e-02
     879, -2.50000000e-04, -2.50000000e-04,  3.08000000e-02
     880, -7.50000000e-04, -2.50000000e-04,  3.08000000e-02
     881,  7.50000000e-04, -7.50000000e-04,  3.08000000e-02
     882,  2.50000000e-04, -7.50000000e-04,  3.08000000e-02
     883, -2.50000000e-04, -7.50000000e-04,  3.08000000e-02
     884, -7.50000000e-04, -7.50000000e-04,  3.08000000e-02
     885,  8.53553333e-04, -8.53553333e-04,  3.08000000e-02
     886,  9.57106667e-04, -9.57106667e-04,  3.08000000e-02
     887,  1.06066000e-03, -1.06066000e-03,  3.08000000e-02
     888,  9.82962906e-04, -2.96076181e-04,  3.08000000e-02
     889,  1.21592581e-03, -3.42152361e-04,  3.08000000e-02
     890,  1.44888872e-03, -3.88228542e-04,  3.08000000e-02
     891,  9.82962906e-04,  2.96076181e-04,  3.08000000e-02
     892,  1.21592581e-03,  3.42152361e-04,  3.08000000e-02
     893,  1.44888872e-03,  3.88228542e-04,  3.08000000e-02
     894,  8.53553333e-04,  8.53553333e-04,  3.08000000e-02
     895,  9.57106667e-04,  9.57106667e-04,  3.08000000e-02
     896,  1.06066000e-03,  1.06066000e-03,  3.08000000e-02
     897,  2.96076181e-04,  9.82962906e-04,  3.08000000e-02
     898,  3.42152361e-04,  1.21592581e-03,  3.08000000e-02
     899,  3.88228542e-04,  1.44888872e-03,  3.08000000e-02
     900, -2.96076181e-04,  9.82962906e-04,  3.08000000e-02
     901, -3.42152361e-04,  1.21592581e-03,  3.08000000e-02
     902, -3.88228542e-04,  1.44888872e-03,  3.08000000e-02
     903, -8.53553333e-04,  8.53553333e-04,  3.08000000e-02
     904, -9.57106667e-04,  9.57106667e-04,  3.08000000e-02
     905, -1.06066000e-03,  1.06066000e-03,  3.08000000e-02
     906, -9.82962906e-04,  2.96076181e-04,  3.08000000e-02
     907, -1.21592581e-03,  3.42152361e-04,  3.08000000e-02
     908, -1.44888872e-03,  3.88228542e-04,  3.08000000e-02
     909, -9.82962906e-04, -2.96076181e-04,  3.08000000e-02
     910, -1.21592581e-03, -3.42152361e-04,  3.08000000e-02
     911, -1.44888872e-03, -3.88228542e-04,  3.08000000e-02
     912, -8.53553333e-04, -8.53553333e-04,  3.08000000e-02
     913, -9.57106667e-04, -9.57106667e-04,  3.08000000e-02
     914, -1.06066000e-03, -1.06066000e-03,  3.08000000e-02
     915, -2.96076181e-04, -9.82962906e-04,  3.08000000e-02
     916, -3.42152361e-04, -1.21592581e-03,  3.08000000e-02
     917, -3.88228542e-04, -1.44888872e-03,  3.08000000e-02
     918,  2.96076181e-04, -9.82962906e-04,  3.08000000e-02
     919,  3.42152361e-04, -1.21592581e-03,  3.08000000e-02
     920,  3.88228542e-04, -1.44888872e-03,  3.08000000e-02
     921,  1.09601600e-03, -1.09601600e-03,  3.08000000e-02
     922,  1.49718509e-03, -4.01169594e-04,  3.08000000e-02
     923,  1.49718509e-03,  4.01169594e-04,  3.08000000e-02
     924,  1.09601600e-03,  1.09601600e-03,  3.08000000e-02
     925,  4.01169594e-04,  1.49718509e-03,  3.08000000e-02
     926, -4.01169594e-04,  1.49718509e-03,  3.08000000e-02
     927, -1.09601600e-03,  1.09601600e-03,  3.08000000e-02
     928, -1.49718509e-03,  4.01169594e-04,  3.08000000e-02
     929, -1.49718509e-03, -4.01169594e-04,  3.08000000e-02
     930, -1.09601600e-03, -1.09601600e-03,  3.08000000e-02
     931, -4.01169594e-04, -1.49718509e-03,  3.08000000e-02
     932,  4.01169594e-04, -1.49718509e-03,  3.08000000e-02
     933,  1.25511500e-03, -1.25511500e-03,  3.08000000e-02
     934,  1.41421400e-03, -1.41421400e-03,  3.08000000e-02
     935,  1.71451840e-03, -4.59403875e-04,  3.08000000e-02
     936,  1.93185171e-03, -5.17638156e-04,  3.08000000e-02
     937,  1.71451840e-03,  4.59403875e-04,  3.08000000e-02
     938,  1.93185171e-03,  5.17638156e-04,  3.08000000e-02
     939,  1.25511500e-03,  1.25511500e-03,  3.08000000e-02
     940,  1.41421400e-03,  1.41421400e-03,  3.08000000e-02
     941,  4.59403875e-04,  1.71451840e-03,  3.08000000e-02
     942,  5.17638156e-04,  1.93185171e-03,  3.08000000e-02
     943, -4.59403875e-04,  1.71451840e-03,  3.08000000e-02
     944, -5.17638156e-04,  1.93185171e-03,  3.08000000e-02
     945, -1.25511500e-03,  1.25511500e-03,  3.08000000e-02
     946, -1.41421400e-03,  1.41421400e-03,  3.08000000e-02
     947, -1.71451840e-03,  4.59403875e-04,  3.08000000e-02
     948, -1.93185171e-03,  5.17638156e-04,  3.08000000e-02
     949, -1.71451840e-03, -4.59403875e-04,  3.08000000e-02
     950, -1.93185171e-03, -5.17638156e-04,  3.08000000e-02
     951, -1.25511500e-03, -1.25511500e-03,  3.08000000e-02
     952, -1.41421400e-03, -1.41421400e-03,  3.08000000e-02
     953, -4.59403875e-04, -1.71451840e-03,  3.08000000e-02
     954, -5.17638156e-04, -1.93185171e-03,  3.08000000e-02
     955,  4.59403875e-04, -1.71451840e-03,  3.08000000e-02
     956,  5.17638156e-04, -1.93185171e-03,  3.08000000e-02
     957,  1.53795750e-03, -1.53795750e-03,  3.08000000e-02
     958,  1.66170100e-03, -1.66170100e-03,  3.08000000e-02
     959,  2.10088871e-03, -5.62931461e-04,  3.08000000e-02
     960,  2.26992570e-03, -6.08224766e-04,  3.08000000e-02
     961,  2.10088871e-03,  5.62931461e-04,  3.08000000e-02
     962,  2.26992570e-03,  6.08224766e-04,  3.08000000e-02
     963,  1.53795750e-03,  1.53795750e-03,  3.08000000e-02
     964,  1.66170100e-03,  1.66170100e-03,  3.08000000e-02
     965,  5.62931461e-04,  2.10088871e-03,  3.08000000e-02
     966,  6.08224766e-04,  2.26992570e-03,  3.08000000e-02
     967, -5.62931461e-04,  2.10088871e-03,  3.08000000e-02
     968, -6.08224766e-04,  2.26992570e-03,  3.08000000e-02
     969, -1.53795750e-03,  1.53795750e-03,  3.08000000e-02
     970, -1.66170100e-03,  1.66170100e-03,  3.08000000e-02
     971, -2.10088871e-03,  5.62931461e-04,  3.08000000e-02
     972, -2.26992570e-03,  6.08224766e-04,  3.08000000e-02
     973, -2.10088871e-03, -5.62931461e-04,  3.08000000e-02
     974, -2.26992570e-03, -6.08224766e-04,  3.08000000e-02
     975, -1.53795750e-03, -1.53795750e-03,  3.08000000e-02
     976, -1.66170100e-03, -1.66170100e-03,  3.08000000e-02
     977, -5.62931461e-04, -2.10088871e-03,  3.08000000e-02
     978, -6.08224766e-04, -2.26992570e-03,  3.08000000e-02
     979,  5.62931461e-04, -2.10088871e-03,  3.08000000e-02
     980,  6.08224766e-04, -2.26992570e-03,  3.08000000e-02
     981,  1.76776700e-03, -1.76776700e-03,  3.08000000e-02
     982,  2.41481457e-03, -6.47047620e-04,  3.08000000e-02
     983,  2.41481457e-03,  6.47047620e-04,  3.08000000e-02
     984,  1.76776700e-03,  1.76776700e-03,  3.08000000e-02
     985,  6.47047620e-04,  2.41481457e-03,  3.08000000e-02
     986, -6.47047620e-04,  2.41481457e-03,  3.08000000e-02
     987, -1.76776700e-03,  1.76776700e-03,  3.08000000e-02
     988, -2.41481457e-03,  6.47047620e-04,  3.08000000e-02
     989, -2.41481457e-03, -6.47047620e-04,  3.08000000e-02
     990, -1.76776700e-03, -1.76776700e-03,  3.08000000e-02
     991, -6.47047620e-04, -2.41481457e-03,  3.08000000e-02
     992,  6.47047620e-04, -2.41481457e-03,  3.08000000e-02
*ELEMENT, TYPE=C3D8I, ELSET=ON
       1,       18,       22,        6,        2,       17,       21,        5,        1
       2,       19,       23,        7,        3,       18,       22,        6,        2
       3,        8,       24,       23,        7,        4,       20,       19,        3
       4,       22,       26,       10,        6,       21,       25,        9,        5
       5,       23,       27,       11,        7,       22,       26,       10,        6
       6,       12,       28,       27,       11,        8,       24,       23,        7
       7,       26,       30,       14,       10,       25,       29,       13,        9
       8,       27,       31,       15,       11,       26,       30,       14,       10
       9,       31,       32,       28,       27,       15,       16,       12,       11
      10,       34,       38,       22,       18,       33,       37,       21,       17
      11,       35,       39,       23,       19,       34,       38,       22,       18
      12,       24,       40,       39,       23,       20,       36,       35,       19
      13,       38,       42,       26,       22,       37,       41,       25,       21
      14,       39,       43,       27,       23,       38,       42,       26,       22
      15,       28,       44,       43,       27,       24,       40,       39,       23
      16,       42,       46,       30,       26,       41,       45,       29,       25
      17,       43,       47,       31,       27,       42,       46,       30,       26
      18,       47,       48,       44,       43,       31,       32,       28,       27
      19,       50,       54,       38,       34,       49,       53,       37,       33
      20,       51,       55,       39,       35,       50,       54,       38,       34
      21,       40,       56,       55,       39,       36,       52,       51,       35
      22,       54,       58,       42,       38,       53,       57,       41,       37
      23,       55,       59,       43,       39,       54,       58,       42,       38
      24,       44,       60,       59,       43,       40,       56,       55,       39
      25,       58,       62,       46,       42,       57,       61,       45,       41
      26,       59,       63,       47,       43,       58,       62,       46,       42
      27,       63,       64,       60,       59,       47,       48,       44,       43
      28,       66,       70,       54,       50,       65,       69,       53,       49
      29,       67,       71,       55,       51,       66,       70,       54,       50
      30,       56,       72,       71,       55,       52,       68,       67,       51
      31,       70,       74,       58,       54,       69,       73,       57,       53
      32,       71,       75,       59,       55,       70,       74,       58,       54
      33,       60,       76,       75,       59,       56,       72,       71,       55
      34,       74,       78,       62,       58,       73,       77,       61,       57
      35,       75,       79,       63,       59,       74,       78,       62,       58
      36,       79,       80,       76,       75,       63,       64,       60,       59
      37,       82,       86,       70,       66,       81,       85,       69,       65
      38,       83,       87,       71,       67,       82,       86,       70,       66
      39,       72,       88,       87,       71,       68,       84,       83,       67
      40,       86,       90,       74,       70,       85,       89,       73,       69
      41,       87,       91,       75,       71,       86,       90,       74,       70
      42,       76,       92,       91,       75,       72,       88,       87,       71
      43,       90,       94,       78,       74,       89,       93,       77,       73
      44,       91,       95,       79,       75,       90,       94,       78,       74
      45,       92,       96,       80,       76,       91,       95,       79,       75
      46,      109,      112,      100,       97,       29,       25,        9,       13
      47,      110,      113,      101,       98,      109,      112,      100,       97
      48,      102,      114,      113,      101,       99,      111,      110,       98
      49,      112,      115,      103,      100,       25,       21,        5,        9
      50,      113,      116,      104,      101,      112,      115,      103,      100
      51,      105,      117,      116,      104,      102,      114,      113,      101
      52,      115,      118,      106,      103,       21,       17,        1,        5
      53,      116,      119,      107,      104,      115,      118,      106,      103
      54,      119,      120,      117,      116,      107,      108,      105,      104
      55,      121,      124,      112,      109,       45,       41,       25,       29
      56,      122,      125,      113,      110,      121,      124,      112,      109
      57,      114,      126,      125,      113,      111,      123,      122,      110
      58,      124,      127,      115,      112,       41,       37,       21,       25
      59,      125,      128,      116,      113,      124,      127,      115,      112
      60,      117,      129,      128,      116,      114,      126,      125,      113
      61,      127,      130,      118,      115,       37,       33,       17,       21
      62,      128,      131,      119,      116,      127,      130,      118,      115
      63,      131,      132,      129,      128,      119,      120,      117,      116
      64,      133,      136,      124,      121,       61,       57,       41,       45
      65,      134,      137,      125,      122,      133,      136,      124,      121
      66,      126,      138,      137,      125,      123,      135,      134,      122
      67,      136,      139,      127,      124,       57,       53,       37,       41
      68,      137,      140,      128,      125,      136,      139,      127,      124
      69,      129,      141,      140,      128,      126,      138,      137,      125
      70,      139,      142,      130,      127,       53,       49,       33,       37
      71,      140,      143,      131,      128,      139,      142,      130,      127
      72,      143,      144,      141,      140,      131,      132,      129,      128
      73,      145,      148,      136,      133,       77,       73,       57,       61
      74,      146,      149,      137,      134,      145,      148,      136,      133
      75,      138,      150,      149,      137,      135,      147,      146,      134
      76,      148,      151,      139,      136,       73,       69,       53,       57
      77,      149,      152,      140,      137,      148,      151,      139,      136
      78,      141,      153,      152,      140,      138,      150,      149,      137
      79,      151,      154,      142,      139,       69,       65,       49,       53
      80,      152,      155,      143,      140,      151,      154,      142,      139
      81,      155,      156,      153,      152,      143,      144,      141,      140
      82,      157,      160,      148,      145,       93,       89,       73,       77
      83,      158,      161,      149,      146,      157,      160,      148,      145
      84,      150,      162,      161,      149,      147,      159,      158,      146
      85,      160,      163,      151,      148,       89,       85,       69,       73
      86,      161,      164,      152,      149,      160,      163,      151,      148
      87,      153,      165,      164,      152,      150,      162,      161,      149
      88,      163,      166,      154,      151,       85,       81,       65,       69
      89,      164,      167,      155,      152,      163,      166,      154,      151
      90,      156,      168,      167,      155,      153,      165,      164,      152
      91,      118,      178,      169,      106,       17,       18,        2,        1
      92,      119,      179,      170,      107,      118,      178,      169,      106
      93,      171,      180,      179,      170,      108,      120,      119,      107
      94,      178,      181,      172,      169,       18,       19,        3,        2
      95,      179,      182,      173,      170,      178,      181,      172,      169
      96,      174,      183,      182,      173,      171,      180,      179,      170
      97,      181,      184,      175,      172,       19,       20,        4,        3
      98,      182,      185,      176,      173,      181,      184,      175,      172
      99,      185,      186,      183,      182,      176,      177,      174,      173
     100,      130,      187,      178,      118,       33,       34,       18,       17
     101,      131,      188,      179,      119,      130,      187,      178,      118
     102,      180,      189,      188,      179,      120,      132,      131,      119
     103,      187,      190,      181,      178,       34,       35,       19,       18
     104,      188,      191,      182,      179,      187,      190,      181,      178
     105,      183,      192,      191,      182,      180,      189,      188,      179
     106,      190,      193,      184,      181,       35,       36,       20,       19
     107,      191,      194,      185,      182,      190,      193,      184,      181
     108,      194,      195,      192,      191,      185,      186,      183,      182
     109,      142,      196,      187,      130,       49,       50,       34,       33
     110,      143,      197,      188,      131,      142,      196,      187,      130
     111,      189,      198,      197,      188,      132,      144,      143,      131
     112,      196,      199,      190,      187,       50,       51,       35,       34
     113,      197,      200,      191,      188,      196,      199,      190,      187
     114,      192,      201,      200,      191,      189,      198,      197,      188
     115,      199,      202,      193,      190,       51,       52,       36,       35
     116,      200,      203,      194,      191,      199,      202,      193,      190
     117,      203,      204,      201,      200,      194,      195,      192,      191
     118,      154,      205,      196,      142,       65,       66,       50,       49
     119,      155,      206,      197,      143,      154,      205,      196,      142
     120,      198,      207,      206,      197,      144,      156,      155,      143
     121,      205,      208,      199,      196,       66,       67,       51,       50
     122,      206,      209,      200,      197,      205,      208,      199,      196
     123,      201,      210,      209,      200,      198,      207,      206,      197
     124,      208,      211,      202,      199,       67,       68,       52,       51
     125,      209,      212,      203,      200,      208,      211,      202,      199
     126,      212,      213,      210,      209,      203,      204,      201,      200
     127,      166,      214,      205,      154,       81,       82,       66,       65
     128,      167,      215,      206,      155,      166,      214,      205,      154
     129,      207,      216,      215,      206,      156,      168,      167,      155
     130,      214,      217,      208,      205,       82,       83,       67,       66
     131,      215,      218,      209,      206,      214,      217,      208,      205
     132,      210,      219,      218,      209,      207,      216,      215,      206
     133,      217,      220,      211,      208,       83,       84,       68,       67
     134,      218,      221,      212,      209,      217,      220,      211,      208
     135,      213,      222,      221,      212,      210,      219,      218,      209
     136,      184,      232,      223,      175,       20,       24,        8,        4
     137,      185,      233,      224,      176,      184,      232,      223,      175
     138,      225,      234,      233,      224,      177,      186,      185,      176
     139,      232,      235,      226,      223,       24,       28,       12,        8
     140,      233,      236,      227,      224,      232,      235,      226,      223
     141,      228,      237,      236,      227,      225,      234,      233,      224
     142,      235,      238,      229,      226,       28,       32,       16,       12
     143,      236,      239,      230,      227,      235,      238,      229,      226
     144,      239,      240,      237,      236,      230,      231,      228,      227
     145,      193,      241,      232,      184,       36,       40,       24,       20
     146,      194,      242,      233,      185,      193,      241,      232,      184
     147,      234,      243,      242,      233,      186,      195,      194,      185
     148,      241,      244,      235,      232,       40,       44,       28,       24
     149,      242,      245,      236,      233,      241,      244,      235,      232
     150,      237,      246,      245,      236,      234,      243,      242,      233
     151,      244,      247,      238,      235,       44,       48,       32,       28
     152,      245,      248,      239,      236,      244,      247,      238,      235
     153,      248,      249,      246,      245,      239,      240,      237,      236
     154,      202,      250,      241,      193,       52,       56,       40,       36
     155,      203,      251,      242,      194,      202,      250,      241,      193
     156,      243,      252,      251,      242,      195,      204,      203,      194
     157,      250,      253,      244,      241,       56,       60,       44,       40
     158,      251,      254,      245,      242,      250,      253,      244,      241
     159,      246,      255,      254,      245,      243,      252,      251,      242
     160,      253,      256,      247,      244,       60,       64,       48,       44
     161,      254,      257,      248,      245,      253,      256,      247,      244
     162,      257,      258,      255,      254,      248,      249,      246,      245
     163,      211,      259,      250,      202,       68,       72,       56,       52
     164,      212,      260,      251,      203,      211,      259,      250,      202
     165,      252,      261,      260,      251,      204,      213,      212,      203
     166,      259,      262,      253,      250,       72,       76,       60,       56
     167,      260,      263,      254,      251,      259,      262,      253,      250
     168,      255,      264,      263,      254,      252,      261,      260,      251
     169,      262,      265,      256,      253,       76,       80,       64,       60
     170,      263,      266,      257,      254,      262,      265,      256,      253
     171,      266,      267,      264,      263,      257,      258,      255,      254
     172,      220,      268,      259,      211,       84,       88,       72,       68
     173,      221,      269,      260,      212,      220,      268,      259,      211
     174,      261,      270,      269,      260,      213,      222,      221,      212
     175,      268,      271,      262,      259,       88,       92,       76,       72
     176,      269,      272,      263,      260,      268,      271,      262,      259
     177,      264,      273,      272,      263,      261,      270,      269,      260
     178,      271,      274,      265,      262,       92,       96,       80,       76
     179,      272,      275,      266,      263,      271,      274,      265,      262
     180,      267,      276,      275,      266,      264,      273,      272,      263
     181,      238,      283,      277,      229,       32,       31,       15,       16
     182,      239,      284,      278,      230,      238,      283,      277,      229
     183,      279,      285,      284,      278,      231,      240,      239,      230
     184,      283,      286,      280,      277,       31,       30,       14,       15
     185,      284,      287,      281,      278,      283,      286,      280,      277
     186,      282,      288,      287,      281,      279,      285,      284,      278
     187,      286,      109,       97,      280,       30,       29,       13,       14
     188,      287,      110,       98,      281,      286,      109,       97,      280
     189,      110,      111,      288,      287,       98,       99,      282,      281
     190,      247,      289,      283,      238,       48,       47,       31,       32
     191,      248,      290,      284,      239,      247,      289,      283,      238
     192,      285,      291,      290,      284,      240,      249,      248,      239
     193,      289,      292,      286,      283,       47,       46,       30,       31
     194,      290,      293,      287,      284,      289,      292,      286,      283
     195,      288,      294,      293,      287,      285,      291,      290,      284
     196,      292,      121,      109,      286,       46,       45,       29,       30
     197,      293,      122,      110,      287,      292,      121,      109,      286
     198,      122,      123,      294,      293,      110,      111,      288,      287
     199,      256,      295,      289,      247,       64,       63,       47,       48
     200,      257,      296,      290,      248,      256,      295,      289,      247
     201,      291,      297,      296,      290,      249,      258,      257,      248
     202,      295,      298,      292,      289,       63,       62,       46,       47
     203,      296,      299,      293,      290,      295,      298,      292,      289
     204,      294,      300,      299,      293,      291,      297,      296,      290
     205,      298,      133,      121,      292,       62,       61,       45,       46
     206,      299,      134,      122,      293,      298,      133,      121,      292
     207,      134,      135,      300,      299,      122,      123,      294,      293
     208,      265,      301,      295,      256,       80,       79,       63,       64
     209,      266,      302,      296,      257,      265,      301,      295,      256
     210,      297,      303,      302,      296,      258,      267,      266,      257
     211,      301,      304,      298,      295,       79,       78,       62,       63
     212,      302,      305,      299,      296,      301,      304,      298,      295
     213,      300,      306,      305,      299,      297,      303,      302,      296
     214,      304,      145,      133,      298,       78,       77,       61,       62
     215,      305,      146,      134,      299,      304,      145,      133,      298
     216,      146,      147,      306,      305,      134,      135,      300,      299
     217,      274,      307,      301,      265,       96,       95,       79,       80
     218,      275,      308,      302,      266,      274,      307,      301,      265
     219,      303,      309,      308,      302,      267,      276,      275,      266
     220,      307,      310,      304,      301,       95,       94,       78,       79
     221,      308,      311,      305,      302,      307,      310,      304,      301
     222,      306,      312,      311,      305,      303,      309,      308,      302
     223,      310,      157,      145,      304,       94,       93,       77,       78
     224,      311,      158,      146,      305,      310,      157,      145,      304
     225,      312,      159,      147,      306,      311,      158,      146,      305
*ELEMENT, TYPE=C3D8I, ELSET=PIA
     226,      314,      318,      114,      102,      313,      317,      111,       99
     227,      315,      319,      117,      105,      314,      318,      114,      102
     228,      120,      320,      319,      117,      108,      316,      315,      105
     229,      318,      322,      126,      114,      317,      321,      123,      111
     230,      319,      323,      129,      117,      318,      322,      126,      114
     231,      132,      324,      323,      129,      120,      320,      319,      117
     232,      322,      326,      138,      126,      321,      325,      135,      123
     233,      323,      327,      141,      129,      322,      326,      138,      126
     234,      144,      328,      327,      141,      132,      324,      323,      129
     235,      326,      330,      150,      138,      325,      329,      147,      135
     236,      327,      331,      153,      141,      326,      330,      150,      138
     237,      156,      332,      331,      153,      144,      328,      327,      141
     238,      330,      334,      162,      150,      329,      333,      159,      147
     239,      331,      335,      165,      153,      330,      334,      162,      150
     240,      332,      336,      168,      156,      331,      335,      165,      153
     241,      337,      340,      180,      171,      316,      320,      120,      108
     242,      338,      341,      183,      174,      337,      340,      180,      171
     243,      186,      342,      341,      183,      177,      339,      338,      174
     244,      340,      343,      189,      180,      320,      324,      132,      120
     245,      341,      344,      192,      183,      340,      343,      189,      180
     246,      195,      345,      344,      192,      186,      342,      341,      183
     247,      343,      346,      198,      189,      324,      328,      144,      132
     248,      344,      347,      201,      192,      343,      346,      198,      189
     249,      204,      348,      347,      201,      195,      345,      344,      192
     250,      346,      349,      207,      198,      328,      332,      156,      144
     251,      347,      350,      210,      201,      346,      349,      207,      198
     252,      213,      351,      350,      210,      204,      348,      347,      201
     253,      349,      352,      216,      207,      332,      336,      168,      156
     254,      350,      353,      219,      210,      349,      352,      216,      207
     255,      351,      354,      222,      213,      350,      353,      219,      210
     256,      355,      358,      234,      225,      339,      342,      186,      177
     257,      356,      359,      237,      228,      355,      358,      234,      225
     258,      240,      360,      359,      237,      231,      357,      356,      228
     259,      358,      361,      243,      234,      342,      345,      195,      186
     260,      359,      362,      246,      237,      358,      361,      243,      234
     261,      249,      363,      362,      246,      240,      360,      359,      237
     262,      361,      364,      252,      243,      345,      348,      204,      195
     263,      362,      365,      255,      246,      361,      364,      252,      243
     264,      258,      366,      365,      255,      249,      363,      362,      246
     265,      364,      367,      261,      252,      348,      351,      213,      204
     266,      365,      368,      264,      255,      364,      367,      261,      252
     267,      267,      369,      368,      264,      258,      366,      365,      255
     268,      367,      370,      270,      261,      351,      354,      222,      213
     269,      368,      371,      273,      264,      367,      370,      270,      261
     270,      369,      372,      276,      267,      368,      371,      273,      264
     271,      373,      375,      285,      279,      357,      360,      240,      231
     272,      374,      376,      288,      282,      373,      375,      285,      279
     273,      111,      317,      376,      288,       99,      313,      374,      282
     274,      375,      377,      291,      285,      360,      363,      249,      240
     275,      376,      378,      294,      288,      375,      377,      291,      285
     276,      123,      321,      378,      294,      111,      317,      376,      288
     277,      377,      379,      297,      291,      363,      366,      258,      249
     278,      378,      380,      300,      294,      377,      379,      297,      291
     279,      135,      325,      380,      300,      123,      321,      378,      294
     280,      379,      381,      303,      297,      366,      369,      267,      258
     281,      380,      382,      306,      300,      379,      381,      303,      297
     282,      147,      329,      382,      306,      135,      325,      380,      300
     283,      381,      383,      309,      303,      369,      372,      276,      267
     284,      382,      384,      312,      306,      381,      383,      309,      303
     285,      384,      333,      329,      382,      312,      159,      147,      306
*ELEMENT, TYPE=C3D8I, ELSET=SAS
     286,      393,      395,      387,      385,      317,      318,      314,      313
     287,      388,      396,      395,      387,      386,      394,      393,      385
     288,      395,      397,      389,      387,      318,      319,      315,      314
     289,      390,      398,      397,      389,      388,      396,      395,      387
     290,      397,      399,      391,      389,      319,      320,      316,      315
     291,      399,      400,      398,      397,      391,      392,      390,      389
     292,      401,      403,      395,      393,      321,      322,      318,      317
     293,      396,      404,      403,      395,      394,      402,      401,      393
     294,      403,      405,      397,      395,      322,      323,      319,      318
     295,      398,      406,      405,      397,      396,      404,      403,      395
     296,      405,      407,      399,      397,      323,      324,      320,      319
     297,      407,      408,      406,      405,      399,      400,      398,      397
     298,      409,      411,      403,      401,      325,      326,      322,      321
     299,      404,      412,      411,      403,      402,      410,      409,      401
     300,      411,      413,      405,      403,      326,      327,      323,      322
     301,      406,      414,      413,      405,      404,      412,      411,      403
     302,      413,      415,      407,      405,      327,      328,      324,      323
     303,      415,      416,      414,      413,      407,      408,      406,      405
     304,      417,      419,      411,      409,      329,      330,      326,      325
     305,      412,      420,      419,      411,      410,      418,      417,      409
     306,      419,      421,      413,      411,      330,      331,      327,      326
     307,      414,      422,      421,      413,      412,      420,      419,      411
     308,      421,      423,      415,      413,      331,      332,      328,      327
     309,      423,      424,      422,      421,      415,      416,      414,      413
     310,      425,      427,      419,      417,      333,      334,      330,      329
     311,      420,      428,      427,      419,      418,      426,      425,      417
     312,      427,      429,      421,      419,      334,      335,      331,      330
     313,      422,      430,      429,      421,      420,      428,      427,      419
     314,      429,      431,      423,      421,      335,      336,      332,      331
     315,      424,      432,      431,      423,      422,      430,      429,      421
     316,      399,      439,      433,      391,      320,      340,      337,      316
     317,      434,      440,      439,      433,      392,      400,      399,      391
     318,      439,      441,      435,      433,      340,      341,      338,      337
     319,      436,      442,      441,      435,      434,      440,      439,      433
     320,      441,      443,      437,      435,      341,      342,      339,      338
     321,      443,      444,      442,      441,      437,      438,      436,      435
     322,      407,      445,      439,      399,      324,      343,      340,      320
     323,      440,      446,      445,      439,      400,      408,      407,      399
     324,      445,      447,      441,      439,      343,      344,      341,      340
     325,      442,      448,      447,      441,      440,      446,      445,      439
     326,      447,      449,      443,      441,      344,      345,      342,      341
     327,      449,      450,      448,      447,      443,      444,      442,      441
     328,      415,      451,      445,      407,      328,      346,      343,      324
     329,      446,      452,      451,      445,      408,      416,      415,      407
     330,      451,      453,      447,      445,      346,      347,      344,      343
     331,      448,      454,      453,      447,      446,      452,      451,      445
     332,      453,      455,      449,      447,      347,      348,      345,      344
     333,      455,      456,      454,      453,      449,      450,      448,      447
     334,      423,      457,      451,      415,      332,      349,      346,      328
     335,      452,      458,      457,      451,      416,      424,      423,      415
     336,      457,      459,      453,      451,      349,      350,      347,      346
     337,      454,      460,      459,      453,      452,      458,      457,      451
     338,      459,      461,      455,      453,      350,      351,      348,      347
     339,      461,      462,      460,      459,      455,      456,      454,      453
     340,      431,      463,      457,      423,      336,      352,      349,      332
     341,      458,      464,      463,      457,      424,      432,      431,      423
     342,      463,      465,      459,      457,      352,      353,      350,      349
     343,      460,      466,      465,      459,      458,      464,      463,      457
     344,      465,      467,      461,      459,      353,      354,      351,      350
     345,      462,      468,      467,      461,      460,      466,      465,      459
     346,      443,      475,      469,      437,      342,      358,      355,      339
     347,      470,      476,      475,      469,      438,      444,      443,      437
     348,      475,      477,      471,      469,      358,      359,      356,      355
     349,      472,      478,      477,      471,      470,      476,      475,      469
     350,      477,      479,      473,      471,      359,      360,      357,      356
     351,      479,      480,      478,      477,      473,      474,      472,      471
     352,      449,      481,      475,      443,      345,      361,      358,      342
     353,      476,      482,      481,      475,      444,      450,      449,      443
     354,      481,      483,      477,      475,      361,      362,      359,      358
     355,      478,      484,      483,      477,      476,      482,      481,      475
     356,      483,      485,      479,      477,      362,      363,      360,      359
     357,      485,      486,      484,      483,      479,      480,      478,      477
     358,      455,      487,      481,      449,      348,      364,      361,      345
     359,      482,      488,      487,      481,      450,      456,      455,      449
     360,      487,      489,      483,      481,      364,      365,      362,      361
     361,      484,      490,      489,      483,      482,      488,      487,      481
     362,      489,      491,      485,      483,      365,      366,      363,      362
     363,      491,      492,      490,      489,      485,      486,      484,      483
     364,      461,      493,      487,      455,      351,      367,      364,      348
     365,      488,      494,      493,      487,      456,      462,      461,      455
     366,      493,      495,      489,      487,      367,      368,      365,      364
     367,      490,      496,      495,      489,      488,      494,      493,      487
     368,      495,      497,      491,      489,      368,      369,      366,      365
     369,      497,      498,      496,      495,      491,      492,      490,      489
     370,      467,      499,      493,      461,      354,      370,      367,      351
     371,      494,      500,      499,      493,      462,      468,      467,      461
     372,      499,      501,      495,      493,      370,      371,      368,      367
     373,      496,      502,      501,      495,      494,      500,      499,      493
     374,      501,      503,      497,      495,      371,      372,      369,      368
     375,      498,      504,      503,      497,      496,      502,      501,      495
     376,      479,      509,      505,      473,      360,      375,      373,      357
     377,      506,      510,      509,      505,      474,      480,      479,      473
     378,      509,      511,      507,      505,      375,      376,      374,      373
     379,      508,      512,      511,      507,      506,      510,      509,      505
     380,      511,      393,      385,      507,      376,      317,      313,      374
     381,      393,      394,      512,      511,      385,      386,      508,      507
     382,      485,      513,      509,      479,      363,      377,      375,      360
     383,      510,      514,      513,      509,      480,      486,      485,      479
     384,      513,      515,      511,      509,      377,      378,      376,      375
     385,      512,      516,      515,      511,      510,      514,      513,      509
     386,      515,      401,      393,      511,      378,      321,      317,      376
     387,      401,      402,      516,      515,      393,      394,      512,      511
     388,      491,      517,      513,      485,      366,      379,      377,      363
     389,      514,      518,      517,      513,      486,      492,      491,      485
     390,      517,      519,      515,      513,      379,      380,      378,      377
     391,      516,      520,      519,      515,      514,      518,      517,      513
     392,      519,      409,      401,      515,      380,      325,      321,      378
     393,      409,      410,      520,      519,      401,      402,      516,      515
     394,      497,      521,      517,      491,      369,      381,      379,      366
     395,      518,      522,      521,      517,      492,      498,      497,      491
     396,      521,      523,      519,      517,      381,      382,      380,      379
     397,      520,      524,      523,      519,      518,      522,      521,      517
     398,      523,      417,      409,      519,      382,      329,      325,      380
     399,      417,      418,      524,      523,      409,      410,      520,      519
     400,      503,      525,      521,      497,      372,      383,      381,      369
     401,      522,      526,      525,      521,      498,      504,      503,      497
     402,      525,      527,      523,      521,      383,      384,      382,      381
     403,      524,      528,      527,      523,      522,      526,      525,      521
     404,      527,      425,      417,      523,      384,      333,      329,      382
     405,      528,      426,      418,      524,      527,      425,      417,      523
     406,      537,      539,      531,      529,      394,      396,      388,      386
     407,      532,      540,      539,      531,      530,      538,      537,      529
     408,      539,      541,      533,      531,      396,      398,      390,      388
     409,      534,      542,      541,      533,      532,      540,      539,      531
     410,      541,      543,      535,      533,      398,      400,      392,      390
     411,      543,      544,      542,      541,      535,      536,      534,      533
     412,      545,      547,      539,      537,      402,      404,      396,      394
     413,      540,      548,      547,      539,      538,      546,      545,      537
     414,      547,      549,      541,      539,      404,      406,      398,      396
     415,      542,      550,      549,      541,      540,      548,      547,      539
     416,      549,      551,      543,      541,      406,      408,      400,      398
     417,      551,      552,      550,      549,      543,      544,      542,      541
     418,      553,      555,      547,      545,      410,      412,      404,      402
     419,      548,      556,      555,      547,      546,      554,      553,      545
     420,      555,      557,      549,      547,      412,      414,      406,      404
     421,      550,      558,      557,      549,      548,      556,      555,      547
     422,      557,      559,      551,      549,      414,      416,      408,      406
     423,      559,      560,      558,      557,      551,      552,      550,      549
     424,      561,      563,      555,      553,      418,      420,      412,      410
     425,      556,      564,      563,      555,      554,      562,      561,      553
     426,      563,      565,      557,      555,      420,      422,      414,      412
     427,      558,      566,      565,      557,      556,      564,      563,      555
     428,      565,      567,      559,      557,      422,      424,      416,      414
     429,      567,      568,      566,      565,      559,      560,      558,      557
     430,      569,      571,      563,      561,      426,      428,      420,      418
     431,      564,      572,      571,      563,      562,      570,      569,      561
     432,      571,      573,      565,      563,      428,      430,      422,      420
     433,      566,      574,      573,      565,      564,      572,      571,      563
     434,      573,      575,      567,      565,      430,      432,      424,      422
     435,      568,      576,      575,      567,      566,      574,      573,      565
     436,      543,      583,      577,      535,      400,      440,      434,      392
     437,      578,      584,      583,      577,      536,      544,      543,      535
     438,      583,      585,      579,      577,      440,      442,      436,      434
     439,      580,      586,      585,      579,      578,      584,      583,      577
     440,      585,      587,      581,      579,      442,      444,      438,      436
     441,      587,      588,      586,      585,      581,      582,      580,      579
     442,      551,      589,      583,      543,      408,      446,      440,      400
     443,      584,      590,      589,      583,      544,      552,      551,      543
     444,      589,      591,      585,      583,      446,      448,      442,      440
     445,      586,      592,      591,      585,      584,      590,      589,      583
     446,      591,      593,      587,      585,      448,      450,      444,      442
     447,      593,      594,      592,      591,      587,      588,      586,      585
     448,      559,      595,      589,      551,      416,      452,      446,      408
     449,      590,      596,      595,      589,      552,      560,      559,      551
     450,      595,      597,      591,      589,      452,      454,      448,      446
     451,      592,      598,      597,      591,      590,      596,      595,      589
     452,      597,      599,      593,      591,      454,      456,      450,      448
     453,      599,      600,      598,      597,      593,      594,      592,      591
     454,      567,      601,      595,      559,      424,      458,      452,      416
     455,      596,      602,      601,      595,      560,      568,      567,      559
     456,      601,      603,      597,      595,      458,      460,      454,      452
     457,      598,      604,      603,      597,      596,      602,      601,      595
     458,      603,      605,      599,      597,      460,      462,      456,      454
     459,      605,      606,      604,      603,      599,      600,      598,      597
     460,      575,      607,      601,      567,      432,      464,      458,      424
     461,      602,      608,      607,      601,      568,      576,      575,      567
     462,      607,      609,      603,      601,      464,      466,      460,      458
     463,      604,      610,      609,      603,      602,      608,      607,      601
     464,      609,      611,      605,      603,      466,      468,      462,      460
     465,      606,      612,      611,      605,      604,      610,      609,      603
     466,      587,      619,      613,      581,      444,      476,      470,      438
     467,      614,      620,      619,      613,      582,      588,      587,      581
     468,      619,      621,      615,      613,      476,      478,      472,      470
     469,      616,      622,      621,      615,      614,      620,      619,      613
     470,      621,      623,      617,      615,      478,      480,      474,      472
     471,      623,      624,      622,      621,      617,      618,      616,      615
     472,      593,      625,      619,      587,      450,      482,      476,      444
     473,      620,      626,      625,      619,      588,      594,      593,      587
     474,      625,      627,      621,      619,      482,      484,      478,      476
     475,      622,      628,      627,      621,      620,      626,      625,      619
     476,      627,      629,      623,      621,      484,      486,      480,      478
     477,      629,      630,      628,      627,      623,      624,      622,      621
     478,      599,      631,      625,      593,      456,      488,      482,      450
     479,      626,      632,      631,      625,      594,      600,      599,      593
     480,      631,      633,      627,      625,      488,      490,      484,      482
     481,      628,      634,      633,      627,      626,      632,      631,      625
     482,      633,      635,      629,      627,      490,      492,      486,      484
     483,      635,      636,      634,      633,      629,      630,      628,      627
     484,      605,      637,      631,      599,      462,      494,      488,      456
     485,      632,      638,      637,      631,      600,      606,      605,      599
     486,      637,      639,      633,      631,      494,      496,      490,      488
     487,      634,      640,      639,      633,      632,      638,      637,      631
     488,      639,      641,      635,      633,      496,      498,      492,      490
     489,      641,      642,      640,      639,      635,      636,      634,      633
     490,      611,      643,      637,      605,      468,      500,      494,      462
     491,      638,      644,      643,      637,      606,      612,      611,      605
     492,      643,      645,      639,      637,      500,      502,      496,      494
     493,      640,      646,      645,      639,      638,      644,      643,      637
     494,      645,      647,      641,      639,      502,      504,      498,      496
     495,      642,      648,      647,      641,      640,      646,      645,      639
     496,      623,      653,      649,      617,      480,      510,      506,      474
     497,      650,      654,      653,      649,      618,      624,      623,      617
     498,      653,      655,      651,      649,      510,      512,      508,      506
     499,      652,      656,      655,      651,      650,      654,      653,      649
     500,      655,      537,      529,      651,      512,      394,      386,      508
     501,      537,      538,      656,      655,      529,      530,      652,      651
     502,      629,      657,      653,      623,      486,      514,      510,      480
     503,      654,      658,      657,      653,      624,      630,      629,      623
     504,      657,      659,      655,      653,      514,      516,      512,      510
     505,      656,      660,      659,      655,      654,      658,      657,      653
     506,      659,      545,      537,      655,      516,      402,      394,      512
     507,      545,      546,      660,      659,      537,      538,      656,      655
     508,      635,      661,      657,      629,      492,      518,      514,      486
     509,      658,      662,      661,      657,      630,      636,      635,      629
     510,      661,      663,      659,      657,      518,      520,      516,      514
     511,      660,      664,      663,      659,      658,      662,      661,      657
     512,      663,      553,      545,      659,      520,      410,      402,      516
     513,      553,      554,      664,      663,      545,      546,      660,      659
     514,      641,      665,      661,      635,      498,      522,      518,      492
     515,      662,      666,      665,      661,      636,      642,      641,      635
     516,      665,      667,      663,      661,      522,      524,      520,      518
     517,      664,      668,      667,      663,      662,      666,      665,      661
     518,      667,      561,      553,      663,      524,      418,      410,      520
     519,      561,      562,      668,      667,      553,      554,      664,      663
     520,      647,      669,      665,      641,      504,      526,      522,      498
     521,      666,      670,      669,      665,      642,      648,      647,      641
     522,      669,      671,      667,      665,      526,      528,      524,      522
     523,      668,      672,      671,      667,      666,      670,      669,      665
     524,      671,      569,      561,      667,      528,      426,      418,      524
     525,      672,      570,      562,      668,      671,      569,      561,      667
*ELEMENT, TYPE=C3D8I, ELSET=DURA
     526,      674,      678,      540,      532,      673,      677,      538,      530
     527,      675,      679,      542,      534,      674,      678,      540,      532
     528,      544,      680,      679,      542,      536,      676,      675,      534
     529,      678,      682,      548,      540,      677,      681,      546,      538
     530,      679,      683,      550,      542,      678,      682,      548,      540
     531,      552,      684,      683,      550,      544,      680,      679,      542
     532,      682,      686,      556,      548,      681,      685,      554,      546
     533,      683,      687,      558,      550,      682,      686,      556,      548
     534,      560,      688,      687,      558,      552,      684,      683,      550
     535,      686,      690,      564,      556,      685,      689,      562,      554
     536,      687,      691,      566,      558,      686,      690,      564,      556
     537,      568,      692,      691,      566,      560,      688,      687,      558
     538,      690,      694,      572,      564,      689,      693,      570,      562
     539,      691,      695,      574,      566,      690,      694,      572,      564
     540,      692,      696,      576,      568,      691,      695,      574,      566
     541,      697,      700,      584,      578,      676,      680,      544,      536
     542,      698,      701,      586,      580,      697,      700,      584,      578
     543,      588,      702,      701,      586,      582,      699,      698,      580
     544,      700,      703,      590,      584,      680,      684,      552,      544
     545,      701,      704,      592,      586,      700,      703,      590,      584
     546,      594,      705,      704,      592,      588,      702,      701,      586
     547,      703,      706,      596,      590,      684,      688,      560,      552
     548,      704,      707,      598,      592,      703,      706,      596,      590
     549,      600,      708,      707,      598,      594,      705,      704,      592
     550,      706,      709,      602,      596,      688,      692,      568,      560
     551,      707,      710,      604,      598,      706,      709,      602,      596
     552,      606,      711,      710,      604,      600,      708,      707,      598
     553,      709,      712,      608,      602,      692,      696,      576,      568
     554,      710,      713,      610,      604,      709,      712,      608,      602
     555,      711,      714,      612,      606,      710,      713,      610,      604
     556,      715,      718,      620,      614,      699,      702,      588,      582
     557,      716,      719,      622,      616,      715,      718,      620,      614
     558,      624,      720,      719,      622,      618,      717,      716,      616
     559,      718,      721,      626,      620,      702,      705,      594,      588
     560,      719,      722,      628,      622,      718,      721,      626,      620
     561,      630,      723,      722,      628,      624,      720,      719,      622
     562,      721,      724,      632,      626,      705,      708,      600,      594
     563,      722,      725,      634,      628,      721,      724,      632,      626
     564,      636,      726,      725,      634,      630,      723,      722,      628
     565,      724,      727,      638,      632,      708,      711,      606,      600
     566,      725,      728,      640,      634,      724,      727,      638,      632
     567,      642,      729,      728,      640,      636,      726,      725,      634
     568,      727,      730,      644,      638,      711,      714,      612,      606
     569,      728,      731,      646,      640,      727,      730,      644,      638
     570,      729,      732,      648,      642,      728,      731,      646,      640
     571,      733,      735,      654,      650,      717,      720,      624,      618
     572,      734,      736,      656,      652,      733,      735,      654,      650
     573,      538,      677,      736,      656,      530,      673,      734,      652
     574,      735,      737,      658,      654,      720,      723,      630,      624
     575,      736,      738,      660,      656,      735,      737,      658,      654
     576,      546,      681,      738,      660,      538,      677,      736,      656
     577,      737,      739,      662,      658,      723,      726,      636,      630
     578,      738,      740,      664,      660,      737,      739,      662,      658
     579,      554,      685,      740,      664,      546,      681,      738,      660
     580,      739,      741,      666,      662,      726,      729,      642,      636
     581,      740,      742,      668,      664,      739,      741,      666,      662
     582,      562,      689,      742,      668,      554,      685,      740,      664
     583,      741,      743,      670,      666,      729,      732,      648,      642
     584,      742,      744,      672,      668,      741,      743,      670,      666
     585,      570,      693,      744,      672,      562,      689,      742,      668
*ELEMENT, TYPE=C3D8I, ELSET=LC
     586,      746,      750,       86,       82,      745,      749,       85,       81
     587,      747,      751,       87,       83,      746,      750,       86,       82
     588,       88,      752,      751,       87,       84,      748,      747,       83
     589,      750,      754,       90,       86,      749,      753,       89,       85
     590,      751,      755,       91,       87,      750,      754,       90,       86
     591,       92,      756,      755,       91,       88,      752,      751,       87
     592,      754,      758,       94,       90,      753,      757,       93,       89
     593,      755,      759,       95,       91,      754,      758,       94,       90
     594,      756,      760,       96,       92,      755,      759,       95,       91
     595,      761,      764,      160,      157,      757,      753,       89,       93
     596,      762,      765,      161,      158,      761,      764,      160,      157
     597,      162,      766,      765,      161,      159,      763,      762,      158
     598,      764,      767,      163,      160,      753,      749,       85,       89
     599,      765,      768,      164,      161,      764,      767,      163,      160
     600,      165,      769,      768,      164,      162,      766,      765,      161
     601,      767,      770,      166,      163,      749,      745,       81,       85
     602,      768,      771,      167,      164,      767,      770,      166,      163
     603,      168,      772,      771,      167,      165,      769,      768,      164
     604,      770,      773,      214,      166,      745,      746,       82,       81
     605,      771,      774,      215,      167,      770,      773,      214,      166
     606,      216,      775,      774,      215,      168,      772,      771,      167
     607,      773,      776,      217,      214,      746,      747,       83,       82
     608,      774,      777,      218,      215,      773,      776,      217,      214
     609,      219,      778,      777,      218,      216,      775,      774,      215
     610,      776,      779,      220,      217,      747,      748,       84,       83
     611,      777,      780,      221,      218,      776,      779,      220,      217
     612,      222,      781,      780,      221,      219,      778,      777,      218
     613,      779,      782,      268,      220,      748,      752,       88,       84
     614,      780,      783,      269,      221,      779,      782,      268,      220
     615,      270,      784,      783,      269,      222,      781,      780,      221
     616,      782,      785,      271,      268,      752,      756,       92,       88
     617,      783,      786,      272,      269,      782,      785,      271,      268
     618,      273,      787,      786,      272,      270,      784,      783,      269
     619,      785,      788,      274,      271,      756,      760,       96,       92
     620,      786,      789,      275,      272,      785,      788,      274,      271
     621,      276,      790,      789,      275,      273,      787,      786,      272
     622,      788,      791,      307,      274,      760,      759,       95,       96
     623,      789,      792,      308,      275,      788,      791,      307,      274
     624,      309,      793,      792,      308,      276,      790,      789,      275
     625,      791,      794,      310,      307,      759,      758,       94,       95
     626,      792,      795,      311,      308,      791,      794,      310,      307
     627,      312,      796,      795,      311,      309,      793,      792,      308
     628,      794,      761,      157,      310,      758,      757,       93,       94
     629,      795,      762,      158,      311,      794,      761,      157,      310
     630,      796,      763,      159,      312,      795,      762,      158,      311
*ELEMENT, TYPE=C3D8I, ELSET=SCLERA_PERI
     631,      334,      798,      766,      162,      333,      797,      763,      159
     632,      335,      799,      769,      165,      334,      798,      766,      162
     633,      336,      800,      772,      168,      335,      799,      769,      165
     634,      352,      801,      775,      216,      336,      800,      772,      168
     635,      353,      802,      778,      219,      352,      801,      775,      216
     636,      354,      803,      781,      222,      353,      802,      778,      219
     637,      370,      804,      784,      270,      354,      803,      781,      222
     638,      371,      805,      787,      273,      370,      804,      784,      270
     639,      372,      806,      790,      276,      371,      805,      787,      273
     640,      383,      807,      793,      309,      372,      806,      790,      276
     641,      384,      808,      796,      312,      383,      807,      793,      309
     642,      808,      797,      333,      384,      796,      763,      159,      312
     643,      809,      811,      427,      425,      797,      798,      334,      333
     644,      428,      812,      811,      427,      426,      810,      809,      425
     645,      811,      813,      429,      427,      798,      799,      335,      334
     646,      430,      814,      813,      429,      428,      812,      811,      427
     647,      813,      815,      431,      429,      799,      800,      336,      335
     648,      432,      816,      815,      431,      430,      814,      813,      429
     649,      815,      817,      463,      431,      800,      801,      352,      336
     650,      464,      818,      817,      463,      432,      816,      815,      431
     651,      817,      819,      465,      463,      801,      802,      353,      352
     652,      466,      820,      819,      465,      464,      818,      817,      463
     653,      819,      821,      467,      465,      802,      803,      354,      353
     654,      468,      822,      821,      467,      466,      820,      819,      465
     655,      821,      823,      499,      467,      803,      804,      370,      354
     656,      500,      824,      823,      499,      468,      822,      821,      467
     657,      823,      825,      501,      499,      804,      805,      371,      370
     658,      502,      826,      825,      501,      500,      824,      823,      499
     659,      825,      827,      503,      501,      805,      806,      372,      371
     660,      504,      828,      827,      503,      502,      826,      825,      501
     661,      827,      829,      525,      503,      806,      807,      383,      372
     662,      526,      830,      829,      525,      504,      828,      827,      503
     663,      829,      831,      527,      525,      807,      808,      384,      383
     664,      528,      832,      831,      527,      526,      830,      829,      525
     665,      831,      809,      425,      527,      808,      797,      333,      384
     666,      832,      810,      426,      528,      831,      809,      425,      527
*ELEMENT, TYPE=C3D8I, ELSET=SCLERA_RING
     667,      833,      835,      571,      569,      810,      812,      428,      426
     668,      572,      836,      835,      571,      570,      834,      833,      569
     669,      835,      837,      573,      571,      812,      814,      430,      428
     670,      574,      838,      837,      573,      572,      836,      835,      571
     671,      837,      839,      575,      573,      814,      816,      432,      430
     672,      576,      840,      839,      575,      574,      838,      837,      573
     673,      839,      841,      607,      575,      816,      818,      464,      432
     674,      608,      842,      841,      607,      576,      840,      839,      575
     675,      841,      843,      609,      607,      818,      820,      466,      464
     676,      610,      844,      843,      609,      608,      842,      841,      607
     677,      843,      845,      611,      609,      820,      822,      468,      466
     678,      612,      846,      845,      611,      610,      844,      843,      609
     679,      845,      847,      643,      611,      822,      824,      500,      468
     680,      644,      848,      847,      643,      612,      846,      845,      611
     681,      847,      849,      645,      643,      824,      826,      502,      500
     682,      646,      850,      849,      645,      644,      848,      847,      643
     683,      849,      851,      647,      645,      826,      828,      504,      502
     684,      648,      852,      851,      647,      646,      850,      849,      645
     685,      851,      853,      669,      647,      828,      830,      526,      504
     686,      670,      854,      853,      669,      648,      852,      851,      647
     687,      853,      855,      671,      669,      830,      832,      528,      526
     688,      672,      856,      855,      671,      670,      854,      853,      669
     689,      855,      833,      569,      671,      832,      810,      426,      528
     690,      856,      834,      570,      672,      855,      833,      569,      671
     691,      694,      858,      836,      572,      693,      857,      834,      570
     692,      695,      859,      838,      574,      694,      858,      836,      572
     693,      696,      860,      840,      576,      695,      859,      838,      574
     694,      712,      861,      842,      608,      696,      860,      840,      576
     695,      713,      862,      844,      610,      712,      861,      842,      608
     696,      714,      863,      846,      612,      713,      862,      844,      610
     697,      730,      864,      848,      644,      714,      863,      846,      612
     698,      731,      865,      850,      646,      730,      864,      848,      644
     699,      732,      866,      852,      648,      731,      865,      850,      646
     700,      743,      867,      854,      670,      732,      866,      852,      648
     701,      744,      868,      856,      672,      743,      867,      854,      670
     702,      834,      857,      868,      856,      570,      693,      744,      672
*ELEMENT, TYPE=C3D8I, ELSET=GLOBO
     703,      870,      874,      750,      746,      869,      873,      749,      745
     704,      871,      875,      751,      747,      870,      874,      750,      746
     705,      752,      876,      875,      751,      748,      872,      871,      747
     706,      874,      878,      754,      750,      873,      877,      753,      749
     707,      875,      879,      755,      751,      874,      878,      754,      750
     708,      756,      880,      879,      755,      752,      876,      875,      751
     709,      878,      882,      758,      754,      877,      881,      757,      753
     710,      879,      883,      759,      755,      878,      882,      758,      754
     711,      880,      884,      760,      756,      879,      883,      759,      755
     712,      885,      888,      764,      761,      881,      877,      753,      757
     713,      886,      889,      765,      762,      885,      888,      764,      761
     714,      766,      890,      889,      765,      763,      887,      886,      762
     715,      888,      891,      767,      764,      877,      873,      749,      753
     716,      889,      892,      768,      765,      888,      891,      767,      764
     717,      769,      893,      892,      768,      766,      890,      889,      765
     718,      891,      894,      770,      767,      873,      869,      745,      749
     719,      892,      895,      771,      768,      891,      894,      770,      767
     720,      772,      896,      895,      771,      769,      893,      892,      768
     721,      894,      897,      773,      770,      869,      870,      746,      745
     722,      895,      898,      774,      771,      894,      897,      773,      770
     723,      775,      899,      898,      774,      772,      896,      895,      771
     724,      897,      900,      776,      773,      870,      871,      747,      746
     725,      898,      901,      777,      774,      897,      900,      776,      773
     726,      778,      902,      901,      777,      775,      899,      898,      774
     727,      900,      903,      779,      776,      871,      872,      748,      747
     728,      901,      904,      780,      777,      900,      903,      779,      776
     729,      781,      905,      904,      780,      778,      902,      901,      777
     730,      903,      906,      782,      779,      872,      876,      752,      748
     731,      904,      907,      783,      780,      903,      906,      782,      779
     732,      784,      908,      907,      783,      781,      905,      904,      780
     733,      906,      909,      785,      782,      876,      880,      756,      752
     734,      907,      910,      786,      783,      906,      909,      785,      782
     735,      787,      911,      910,      786,      784,      908,      907,      783
     736,      909,      912,      788,      785,      880,      884,      760,      756
     737,      910,      913,      789,      786,      909,      912,      788,      785
     738,      790,      914,      913,      789,      787,      911,      910,      786
     739,      912,      915,      791,      788,      884,      883,      759,      760
     740,      913,      916,      792,      789,      912,      915,      791,      788
     741,      793,      917,      916,      792,      790,      914,      913,      789
     742,      915,      918,      794,      791,      883,      882,      758,      759
     743,      916,      919,      795,      792,      915,      918,      794,      791
     744,      796,      920,      919,      795,      793,      917,      916,      792
     745,      918,      885,      761,      794,      882,      881,      757,      758
     746,      919,      886,      762,      795,      918,      885,      761,      794
     747,      920,      887,      763,      796,      919,      886,      762,      795
     748,      798,      922,      890,      766,      797,      921,      887,      763
     749,      799,      923,      893,      769,      798,      922,      890,      766
     750,      800,      924,      896,      772,      799,      923,      893,      769
     751,      801,      925,      899,      775,      800,      924,      896,      772
     752,      802,      926,      902,      778,      801,      925,      899,      775
     753,      803,      927,      905,      781,      802,      926,      902,      778
     754,      804,      928,      908,      784,      803,      927,      905,      781
     755,      805,      929,      911,      787,      804,      928,      908,      784
     756,      806,      930,      914,      790,      805,      929,      911,      787
     757,      807,      931,      917,      793,      806,      930,      914,      790
     758,      808,      932,      920,      796,      807,      931,      917,      793
     759,      932,      921,      797,      808,      920,      887,      763,      796
     760,      933,      935,      811,      809,      921,      922,      798,      797
     761,      812,      936,      935,      811,      810,      934,      933,      809
     762,      935,      937,      813,      811,      922,      923,      799,      798
     763,      814,      938,      937,      813,      812,      936,      935,      811
     764,      937,      939,      815,      813,      923,      924,      800,      799
     765,      816,      940,      939,      815,      814,      938,      937,      813
     766,      939,      941,      817,      815,      924,      925,      801,      800
     767,      818,      942,      941,      817,      816,      940,      939,      815
     768,      941,      943,      819,      817,      925,      926,      802,      801
     769,      820,      944,      943,      819,      818,      942,      941,      817
     770,      943,      945,      821,      819,      926,      927,      803,      802
     771,      822,      946,      945,      821,      820,      944,      943,      819
     772,      945,      947,      823,      821,      927,      928,      804,      803
     773,      824,      948,      947,      823,      822,      946,      945,      821
     774,      947,      949,      825,      823,      928,      929,      805,      804
     775,      826,      950,      949,      825,      824,      948,      947,      823
     776,      949,      951,      827,      825,      929,      930,      806,      805
     777,      828,      952,      951,      827,      826,      950,      949,      825
     778,      951,      953,      829,      827,      930,      931,      807,      806
     779,      830,      954,      953,      829,      828,      952,      951,      827
     780,      953,      955,      831,      829,      931,      932,      808,      807
     781,      832,      956,      955,      831,      830,      954,      953,      829
     782,      955,      933,      809,      831,      932,      921,      797,      808
     783,      956,      934,      810,      832,      955,      933,      809,      831
     784,      957,      959,      835,      833,      934,      936,      812,      810
     785,      836,      960,      959,      835,      834,      958,      957,      833
     786,      959,      961,      837,      835,      936,      938,      814,      812
     787,      838,      962,      961,      837,      836,      960,      959,      835
     788,      961,      963,      839,      837,      938,      940,      816,      814
     789,      840,      964,      963,      839,      838,      962,      961,      837
     790,      963,      965,      841,      839,      940,      942,      818,      816
     791,      842,      966,      965,      841,      840,      964,      963,      839
     792,      965,      967,      843,      841,      942,      944,      820,      818
     793,      844,      968,      967,      843,      842,      966,      965,      841
     794,      967,      969,      845,      843,      944,      946,      822,      820
     795,      846,      970,      969,      845,      844,      968,      967,      843
     796,      969,      971,      847,      845,      946,      948,      824,      822
     797,      848,      972,      971,      847,      846,      970,      969,      845
     798,      971,      973,      849,      847,      948,      950,      826,      824
     799,      850,      974,      973,      849,      848,      972,      971,      847
     800,      973,      975,      851,      849,      950,      952,      828,      826
     801,      852,      976,      975,      851,      850,      974,      973,      849
     802,      975,      977,      853,      851,      952,      954,      830,      828
     803,      854,      978,      977,      853,      852,      976,      975,      851
     804,      977,      979,      855,      853,      954,      956,      832,      830
     805,      856,      980,      979,      855,      854,      978,      977,      853
     806,      979,      957,      833,      855,      956,      934,      810,      832
     807,      980,      958,      834,      856,      979,      957,      833,      855
     808,      858,      982,      960,      836,      857,      981,      958,      834
     809,      859,      983,      962,      838,      858,      982,      960,      836
     810,      860,      984,      964,      840,      859,      983,      962,      838
     811,      861,      985,      966,      842,      860,      984,      964,      840
     812,      862,      986,      968,      844,      861,      985,      966,      842
     813,      863,      987,      970,      846,      862,      986,      968,      844
     814,      864,      988,      972,      848,      863,      987,      970,      846
     815,      865,      989,      974,      850,      864,      988,      972,      848
     816,      866,      990,      976,      852,      865,      989,      974,      850
     817,      867,      991,      978,      854,      866,      990,      976,      852
     818,      868,      992,      980,      856,      867,      991,      978,      854
     819,      992,      981,      857,      868,      980,      958,      834,      856
*NSET, NSET=POSTERIOR_ON
      1,       2,       3,       4,       5,       6,       7,       8
      9,      10,      11,      12,      13,      14,      15,      16
     97,      98,      99,     100,     101,     102,     103,     104
    105,     106,     107,     108,     169,     170,     171,     172
    173,     174,     175,     176,     177,     223,     224,     225
    226,     227,     228,     229,     230,     231,     277,     278
    279,     280,     281,     282
*NSET, NSET=POSTERIOR_PIA
     99,     102,     105,     108,     171,     174,     177,     225
    228,     231,     279,     282,     313,     314,     315,     316
    337,     338,     339,     355,     356,     357,     373,     374
*NSET, NSET=POSTERIOR_SAS
    313,     314,     315,     316,     337,     338,     339,     355
    356,     357,     373,     374,     385,     386,     387,     388
    389,     390,     391,     392,     433,     434,     435,     436
    437,     438,     469,     470,     471,     472,     473,     474
    505,     506,     507,     508,     529,     530,     531,     532
    533,     534,     535,     536,     577,     578,     579,     580
    581,     582,     613,     614,     615,     616,     617,     618
    649,     650,     651,     652
*NSET, NSET=POSTERIOR_DURA
    530,     532,     534,     536,     578,     580,     582,     614
    616,     618,     650,     652,     673,     674,     675,     676
    697,     698,     699,     715,     716,     717,     733,     734
*NSET, NSET=DURA_OUTER
    673,     674,     675,     676,     677,     678,     679,     680
    681,     682,     683,     684,     685,     686,     687,     688
    689,     690,     691,     692,     693,     694,     695,     696
    697,     698,     699,     700,     701,     702,     703,     704
    705,     706,     707,     708,     709,     710,     711,     712
    713,     714,     715,     716,     717,     718,     719,     720
    721,     722,     723,     724,     725,     726,     727,     728
    729,     730,     731,     732,     733,     734,     735,     736
    737,     738,     739,     740,     741,     742,     743,     744
*NSET, NSET=SCLERA_RING_OUTER
    693,     694,     695,     696,     712,     713,     714,     730
    731,     732,     743,     744,     857,     858,     859,     860
    861,     862,     863,     864,     865,     866,     867,     868
*NSET, NSET=GLOBO_OUTER
    857,     858,     859,     860,     861,     862,     863,     864
    865,     866,     867,     868,     981,     982,     983,     984
    985,     986,     987,     988,     989,     990,     991,     992
*NSET, NSET=ANTERIOR_GLOBO
    869,     870,     871,     872,     873,     874,     875,     876
    877,     878,     879,     880,     881,     882,     883,     884
    885,     886,     887,     888,     889,     890,     891,     892
    893,     894,     895,     896,     897,     898,     899,     900
    901,     902,     903,     904,     905,     906,     907,     908
    909,     910,     911,     912,     913,     914,     915,     916
    917,     918,     919,     920,     921,     922,     923,     924
    925,     926,     927,     928,     929,     930,     931,     932
    933,     934,     935,     936,     937,     938,     939,     940
    941,     942,     943,     944,     945,     946,     947,     948
    949,     950,     951,     952,     953,     954,     955,     956
    957,     958,     959,     960,     961,     962,     963,     964
    965,     966,     967,     968,     969,     970,     971,     972
    973,     974,     975,     976,     977,     978,     979,     980
    981,     982,     983,     984,     985,     986,     987,     988
    989,     990,     991,     992
*NSET, NSET=PERTURBATION_STRIP
    682,     683,     686,     687
*NSET, NSET=CONTACT_LOCAL
*SURFACE, NAME=POSTERIOR_ON_SURF, TYPE=ELEMENT
       1, S5
       4, S5
       7, S5
       2, S5
       5, S5
       8, S5
       3, S6
       6, S6
       9, S2
      46, S5
      49, S5
      52, S5
      47, S5
      50, S5
      53, S5
      48, S6
      51, S6
      54, S2
      91, S5
      94, S5
      97, S5
      92, S5
      95, S5
      98, S5
      93, S6
      96, S6
      99, S2
     136, S5
     139, S5
     142, S5
     137, S5
     140, S5
     143, S5
     138, S6
     141, S6
     144, S2
     181, S5
     184, S5
     187, S5
     182, S5
     185, S5
     188, S5
     183, S6
     186, S6
     189, S2
*SURFACE, NAME=POSTERIOR_PIA_SURF, TYPE=ELEMENT
     226, S6
     227, S6
     228, S2
     241, S6
     242, S6
     243, S2
     256, S6
     257, S6
     258, S2
     271, S6
     272, S6
     273, S2
*SURFACE, NAME=POSTERIOR_SAS_SURF, TYPE=ELEMENT
     286, S5
     288, S5
     290, S5
     287, S6
     289, S6
     291, S2
     316, S5
     318, S5
     320, S5
     317, S6
     319, S6
     321, S2
     346, S5
     348, S5
     350, S5
     347, S6
     349, S6
     351, S2
     376, S5
     378, S5
     380, S5
     377, S6
     379, S6
     381, S2
     406, S5
     408, S5
     410, S5
     407, S6
     409, S6
     411, S2
     436, S5
     438, S5
     440, S5
     437, S6
     439, S6
     441, S2
     466, S5
     468, S5
     470, S5
     467, S6
     469, S6
     471, S2
     496, S5
     498, S5
     500, S5
     497, S6
     499, S6
     501, S2
*SURFACE, NAME=POSTERIOR_DURA_SURF, TYPE=ELEMENT
     526, S6
     527, S6
     528, S2
     541, S6
     542, S6
     543, S2
     556, S6
     557, S6
     558, S2
     571, S6
     572, S6
     573, S2
*SURFACE, NAME=DURA_OUTER_SURF, TYPE=ELEMENT
     526, S3
     527, S3
     528, S4
     529, S3
     530, S3
     531, S4
     532, S3
     534, S4
     535, S3
     536, S3
     537, S4
     538, S3
     539, S3
     540, S3
     541, S3
     542, S3
     543, S4
     544, S3
     545, S3
     546, S4
     547, S3
     548, S3
     549, S4
     550, S3
     551, S3
     552, S4
     553, S3
     554, S3
     555, S3
     556, S3
     557, S3
     558, S4
     559, S3
     560, S3
     561, S4
     562, S3
     563, S3
     564, S4
     565, S3
     566, S3
     567, S4
     568, S3
     569, S3
     570, S3
     571, S3
     572, S3
     573, S4
     574, S3
     575, S3
     576, S4
     577, S3
     578, S3
     579, S4
     580, S3
     581, S3
     582, S4
     583, S3
     584, S3
     585, S4
*SURFACE, NAME=SCLERA_RING_OUTER_SURF, TYPE=ELEMENT
     691, S3
     692, S3
     693, S3
     694, S3
     695, S3
     696, S3
     697, S3
     698, S3
     699, S3
     700, S3
     701, S3
     702, S4
*SURFACE, NAME=GLOBO_OUTER_SURF, TYPE=ELEMENT
     808, S3
     809, S3
     810, S3
     811, S3
     812, S3
     813, S3
     814, S3
     815, S3
     816, S3
     817, S3
     818, S3
     819, S1
*SURFACE, NAME=ANTERIOR_GLOBO_SURF, TYPE=ELEMENT
     703, S3
     706, S3
     709, S3
     704, S3
     707, S3
     710, S3
     705, S4
     708, S4
     711, S3
     712, S3
     715, S3
     718, S3
     713, S3
     716, S3
     719, S3
     714, S4
     717, S4
     720, S4
     721, S3
     724, S3
     727, S3
     722, S3
     725, S3
     728, S3
     723, S4
     726, S4
     729, S4
     730, S3
     733, S3
     736, S3
     731, S3
     734, S3
     737, S3
     732, S4
     735, S4
     738, S4
     739, S3
     742, S3
     745, S3
     740, S3
     743, S3
     746, S3
     741, S4
     744, S4
     747, S3
     748, S4
     749, S4
     750, S4
     751, S4
     752, S4
     753, S4
     754, S4
     755, S4
     756, S4
     757, S4
     758, S4
     759, S3
     760, S3
     762, S3
     764, S3
     761, S4
     763, S4
     765, S4
     766, S3
     768, S3
     770, S3
     767, S4
     769, S4
     771, S4
     772, S3
     774, S3
     776, S3
     773, S4
     775, S4
     777, S4
     778, S3
     780, S3
     782, S3
     779, S4
     781, S4
     783, S3
     784, S3
     786, S3
     788, S3
     785, S4
     787, S4
     789, S4
     790, S3
     792, S3
     794, S3
     791, S4
     793, S4
     795, S4
     796, S3
     798, S3
     800, S3
     797, S4
     799, S4
     801, S4
     802, S3
     804, S3
     806, S3
     803, S4
     805, S4
     807, S3
     808, S4
     809, S4
     810, S4
     811, S4
     812, S4
     813, S4
     814, S4
     815, S4
     816, S4
     817, S4
     818, S4
     819, S3
*SURFACE, NAME=PERTURBATION_STRIP_SURF, TYPE=ELEMENT
     533, S3
*SURFACE, NAME=CONTACT_LOCAL_SURF, TYPE=ELEMENT
*SURFACE, NAME=DURA_INNER_SURF, TYPE=ELEMENT
     526, S5
     527, S5
     528, S6
     529, S5
     530, S5
     531, S6
     532, S5
     533, S5
     534, S6
     535, S5
     536, S5
     537, S6
     538, S5
     539, S5
     540, S5
     541, S5
     542, S5
     543, S6
     544, S5
     545, S5
     546, S6
     547, S5
     548, S5
     549, S6
     550, S5
     551, S5
     552, S6
     553, S5
     554, S5
     555, S5
     556, S5
     557, S5
     558, S6
     559, S5
     560, S5
     561, S6
     562, S5
     563, S5
     564, S6
     565, S5
     566, S5
     567, S6
     568, S5
     569, S5
     570, S5
     571, S5
     572, S5
     573, S6
     574, S5
     575, S5
     576, S6
     577, S5
     578, S5
     579, S6
     580, S5
     581, S5
     582, S6
     583, S5
     584, S5
     585, S6
